
     Program PWSCF v.7.4.1 starts on 15Oct2025 at 13:53:56 
        Git branch: heads/qe-7.4.1
        Last git commit: 500de340b820e1cb8c05f2d8bb8fced102f377c1-dirty
        Last git commit date: Fri Feb 7 14:59:05 2025 +0000
        Last git commit subject: Merge branch 'qe-7.4.1' into 'master'

     This program is part of the open-source Quantum ESPRESSO suite
     for quantum simulation of materials; please cite
         "P. Giannozzi et al., J. Phys.:Condens. Matter 21 395502 (2009);
         "P. Giannozzi et al., J. Phys.:Condens. Matter 29 465901 (2017);
         "P. Giannozzi et al., J. Chem. Phys. 152 154105 (2020);
          URL http://www.quantum-espresso.org", 
     in publications or presentations arising from this work. More details at
     http://www.quantum-espresso.org/quote

     Parallel version (MPI), running on    16 processors

     MPI processes distributed on     1 nodes
     543803 MiB available memory on the printing compute node when the environment starts
 
     Reading input from scf.in

     Current dimensions of program PWSCF are:
     Max number of different atomic species (ntypx) = 10
     Max number of k-points (npk) =  40000
     Max angular momentum in pseudopotentials (lmaxx) =  4
     Message from routine setup:
     no reason to have ecutrho>4*ecutwfc
 
     R & G space division:  proc/nbgrp/npool/nimage =      16
     Subspace diagonalization in iterative solution of the eigenvalue problem:
     a serial algorithm will be used

 
     Parallelization info
     --------------------
     sticks:   dense  smooth     PW     G-vecs:    dense   smooth      PW
     Min          53      27      8                 1039      372      66
     Max          57      28      9                 1040      375      68
     Sum         859     433    139                16625     5961    1067
 
     Using Slab Decomposition
 


     bravais-lattice index     =            2
     lattice parameter (alat)  =      10.2000  a.u.
     unit-cell volume          =     265.3020 (a.u.)^3
     number of atoms/cell      =            2
     number of atomic types    =            1
     number of electrons       =         8.00
     number of Kohn-Sham states=            4
     kinetic-energy cutoff     =      30.0000  Ry
     charge density cutoff     =     240.0000  Ry
     scf convergence threshold =      1.0E-08
     mixing beta               =       0.7000
     number of iterations used =            8  plain     mixing
     Exchange-correlation=  SLA  PZ   NOGX NOGC
                           (   1   1   0   0   0   0   0)

     celldm(1)=  10.200000  celldm(2)=   0.000000  celldm(3)=   0.000000
     celldm(4)=   0.000000  celldm(5)=   0.000000  celldm(6)=   0.000000

     crystal axes: (cart. coord. in units of alat)
               a(1) = (  -0.500000   0.000000   0.500000 )  
               a(2) = (   0.000000   0.500000   0.500000 )  
               a(3) = (  -0.500000   0.500000   0.000000 )  

     reciprocal axes: (cart. coord. in units 2 pi/alat)
               b(1) = ( -1.000000 -1.000000  1.000000 )  
               b(2) = (  1.000000  1.000000  1.000000 )  
               b(3) = ( -1.000000  1.000000 -1.000000 )  


     PseudoPot. # 1 for Si read from file:
     ./Si.pz-vbc.UPF
     MD5 check sum: fd277f3d27d91a96c572df2dca462100
     Pseudo is Norm-conserving, Zval =  4.0
     Generated by new atomic code, or converted to UPF format
     Using radial grid of  431 points,  2 beta functions with: 
                l(1) =   0
                l(2) =   1

     atomic species   valence    mass     pseudopotential
     Si                4.00    28.08550     Si( 1.00)

     48 Sym. Ops., with inversion, found (24 have fractional translation)



   Cartesian axes

     site n.     atom                  positions (alat units)
         1        Si     tau(   1) = (   0.0000000   0.0000000   0.0000000  )
         2        Si     tau(   2) = (  -0.2500000   0.2500000   0.2500000  )

     number of k points=    10
                       cart. coord. in units 2pi/alat
        k(    1) = (  -0.1250000   0.1250000   0.1250000), wk =   0.0625000
        k(    2) = (  -0.3750000   0.3750000  -0.1250000), wk =   0.1875000
        k(    3) = (   0.3750000  -0.3750000   0.6250000), wk =   0.1875000
        k(    4) = (   0.1250000  -0.1250000   0.3750000), wk =   0.1875000
        k(    5) = (  -0.1250000   0.6250000   0.1250000), wk =   0.1875000
        k(    6) = (   0.6250000  -0.1250000   0.8750000), wk =   0.3750000
        k(    7) = (   0.3750000   0.1250000   0.6250000), wk =   0.3750000
        k(    8) = (  -0.1250000  -0.8750000   0.1250000), wk =   0.1875000
        k(    9) = (  -0.3750000   0.3750000   0.3750000), wk =   0.0625000
        k(   10) = (   0.3750000  -0.3750000   1.1250000), wk =   0.1875000

     Dense  grid:    16625 G-vectors     FFT dimensions: (  36,  36,  36)

     Smooth grid:     5961 G-vectors     FFT dimensions: (  32,  32,  32)

     Estimated max dynamical RAM per process >       0.85 MB

     Estimated total dynamical RAM >      13.63 MB

     Initial potential from superposition of free atoms

     starting charge       7.9990, renormalised to       8.0000
     Starting wfcs are    8 randomized atomic wfcs

     total cpu time spent up to now is        0.1 secs

     per-process dynamical memory:    56.7 Mb

     Self-consistent Calculation

     iteration #  1     ecut=    30.00 Ry     beta= 0.70
     Davidson diagonalization with overlap
     ethr =  1.00E-02,  avg # of iterations =  2.0

     Threshold (ethr) on eigenvalues was too large:
     Diagonalizing with lowered threshold

     Davidson diagonalization with overlap
     ethr =  6.93E-04,  avg # of iterations =  1.1

     total cpu time spent up to now is        0.1 secs

     total energy              =     -15.84844888 Ry
     estimated scf accuracy    <       0.06122927 Ry

     iteration #  2     ecut=    30.00 Ry     beta= 0.70
     Davidson diagonalization with overlap
     ethr =  7.65E-04,  avg # of iterations =  1.0

     total cpu time spent up to now is        0.1 secs

     total energy              =     -15.85167917 Ry
     estimated scf accuracy    <       0.00221964 Ry

     iteration #  3     ecut=    30.00 Ry     beta= 0.70
     Davidson diagonalization with overlap
     ethr =  2.77E-05,  avg # of iterations =  2.5

     total cpu time spent up to now is        0.1 secs

     total energy              =     -15.85216214 Ry
     estimated scf accuracy    <       0.00007489 Ry

     iteration #  4     ecut=    30.00 Ry     beta= 0.70
     Davidson diagonalization with overlap
     ethr =  9.36E-07,  avg # of iterations =  2.8

     total cpu time spent up to now is        0.1 secs

     total energy              =     -15.85218898 Ry
     estimated scf accuracy    <       0.00000301 Ry

     iteration #  5     ecut=    30.00 Ry     beta= 0.70
     Davidson diagonalization with overlap
     ethr =  3.76E-08,  avg # of iterations =  3.8

     total cpu time spent up to now is        0.1 secs

     total energy              =     -15.85219070 Ry
     estimated scf accuracy    <       0.00000012 Ry

     iteration #  6     ecut=    30.00 Ry     beta= 0.70
     Davidson diagonalization with overlap
     ethr =  1.47E-09,  avg # of iterations =  3.4

     total cpu time spent up to now is        0.1 secs

     End of self-consistent calculation

          k =-0.1250 0.1250 0.1250 (   734 PWs)   bands (ev):

    -5.6135   4.6297   5.9363   5.9363

          k =-0.3750 0.3750-0.1250 (   741 PWs)   bands (ev):

    -4.5483   1.5809   3.8792   5.4475

          k = 0.3750-0.3750 0.6250 (   738 PWs)   bands (ev):

    -3.3459  -0.5915   3.9216   4.6435

          k = 0.1250-0.1250 0.3750 (   738 PWs)   bands (ev):

    -5.0671   3.0042   4.8877   4.9748

          k =-0.1250 0.6250 0.1250 (   734 PWs)   bands (ev):

    -3.9987   1.2982   3.5065   3.9824

          k = 0.6250-0.1250 0.8750 (   731 PWs)   bands (ev):

    -2.2830  -0.7131   2.0720   3.2027

          k = 0.3750 0.1250 0.6250 (   738 PWs)   bands (ev):

    -3.5605   0.3647   2.8469   4.2634

          k =-0.1250-0.8750 0.1250 (   739 PWs)   bands (ev):

    -2.4724  -0.6047   2.7159   3.4992

          k =-0.3750 0.3750 0.3750 (   748 PWs)   bands (ev):

    -4.0927   0.2235   5.1290   5.1290

          k = 0.3750-0.3750 1.1250 (   731 PWs)   bands (ev):

    -2.8347  -0.4474   2.1534   4.3122

     highest occupied level (ev):     5.9363

!    total energy              =     -15.85219075 Ry
     estimated scf accuracy    <          3.2E-09 Ry

     The total energy is the sum of the following terms:
     one-electron contribution =       4.78591561 Ry
     hartree contribution      =       1.07885851 Ry
     xc contribution           =      -4.81720630 Ry
     ewald contribution        =     -16.89975857 Ry

     convergence has been achieved in   6 iterations

     Writing all to output data dir ./silicon.save/ :
     XML data file, charge density, pseudopotentials, collected wavefunctions
 
     init_run     :      0.01s CPU      0.03s WALL (       1 calls)
     electrons    :      0.06s CPU      0.08s WALL (       1 calls)

     Called by init_run:
     wfcinit      :      0.01s CPU      0.01s WALL (       1 calls)
     potinit      :      0.00s CPU      0.00s WALL (       1 calls)
     hinit0       :      0.00s CPU      0.01s WALL (       1 calls)

     Called by electrons:
     c_bands      :      0.04s CPU      0.05s WALL (       7 calls)
     sum_band     :      0.01s CPU      0.01s WALL (       7 calls)
     v_of_rho     :      0.00s CPU      0.00s WALL (       7 calls)
     mix_rho      :      0.00s CPU      0.00s WALL (       7 calls)

     Called by c_bands:
     init_us_2    :      0.00s CPU      0.00s WALL (     150 calls)
     cegterg      :      0.04s CPU      0.05s WALL (      70 calls)

     Called by *egterg:
     cdiaghg      :      0.00s CPU      0.00s WALL (     226 calls)
     h_psi        :      0.04s CPU      0.04s WALL (     246 calls)
     g_psi        :      0.00s CPU      0.00s WALL (     166 calls)

     Called by h_psi:
     h_psi:calbec :      0.00s CPU      0.00s WALL (     246 calls)
     vloc_psi     :      0.04s CPU      0.04s WALL (     246 calls)
     add_vuspsi   :      0.00s CPU      0.00s WALL (     246 calls)

     General routines
     calbec       :      0.00s CPU      0.00s WALL (     246 calls)
     fft          :      0.00s CPU      0.02s WALL (      33 calls)
     ffts         :      0.00s CPU      0.00s WALL (      14 calls)
     fftw         :      0.04s CPU      0.04s WALL (    2072 calls)
     interpolate  :      0.00s CPU      0.00s WALL (       7 calls)
 
     Parallel routines
 
     PWSCF        :      0.08s CPU      0.25s WALL

 
   This run was terminated on:  13:53:56  15Oct2025            

=------------------------------------------------------------------------------=
   JOB DONE.
=------------------------------------------------------------------------------=
