
     Program PWSCF v.7.4.1 starts on  9Mar2026 at  9:54:32 
        Git branch: heads/qe-7.4.1
        Last git commit: 500de340b820e1cb8c05f2d8bb8fced102f377c1-dirty
        Last git commit date: Fri Feb 7 14:59:05 2025 +0000
        Last git commit subject: Merge branch 'qe-7.4.1' into 'master'

     This program is part of the open-source Quantum ESPRESSO suite
     for quantum simulation of materials; please cite
         "P. Giannozzi et al., J. Phys.:Condens. Matter 21 395502 (2009);
         "P. Giannozzi et al., J. Phys.:Condens. Matter 29 465901 (2017);
         "P. Giannozzi et al., J. Chem. Phys. 152 154105 (2020);
          URL http://www.quantum-espresso.org", 
     in publications or presentations arising from this work. More details at
     http://www.quantum-espresso.org/quote

     Parallel version (MPI), running on    24 processors

     MPI processes distributed on     1 nodes
     735121 MiB available memory on the printing compute node when the environment starts
 
     Reading input from bands_inputs/MnCoWO4_AFM_bands.in

     Current dimensions of program PWSCF are:
     Max number of different atomic species (ntypx) = 10
     Max number of k-points (npk) =  40000
     Max angular momentum in pseudopotentials (lmaxx) =  4

     Atomic positions and unit cell read from directory:
     ./tmp/MnCoWO4_AFM/MnCoWO4_AFM.save/
 
     Message from routine setup:
     using ibrav=0 with symmetry is DISCOURAGED, use correct ibrav instead
 
     R & G space division:  proc/nbgrp/npool/nimage =      24
     Subspace diagonalization in iterative solution of the eigenvalue problem:
     a serial algorithm will be used

 
     Parallelization info
     --------------------
     sticks:   dense  smooth     PW     G-vecs:    dense   smooth      PW
     Min         145     145     40                 6336     6336     924
     Max         146     146     41                 6342     6342     926
     Sum        3497    3497    977               152147   152147   22203
 
     Using Slab Decomposition
 


     bravais-lattice index     =            0
     lattice parameter (alat)  =       8.6714  a.u.
     unit-cell volume          =     856.9309 (a.u.)^3
     number of atoms/cell      =           12
     number of atomic types    =            4
     number of electrons       =       108.00
     number of Kohn-Sham states=           80
     kinetic-energy cutoff     =     120.0000  Ry
     charge density cutoff     =     480.0000  Ry
     Exchange-correlation= PBESOL
                           (   1   4  10   8   0   0   0)
     Hubbard projectors: ortho-atomic
     Hubbard parameters of DFT+U (Dudarev formulation) in eV:
     U(Mn-3d) =  4.6500
     U(Co-3d) =  7.8400

     Internal variables: lda_plus_u = T, lda_plus_u_kind = 0

     celldm(1)=   8.671393  celldm(2)=   0.000000  celldm(3)=   0.000000
     celldm(4)=   0.000000  celldm(5)=   0.000000  celldm(6)=   0.000000

     crystal axes: (cart. coord. in units of alat)
               a(1) = (   0.999997   0.000000  -0.002446 )  
               a(2) = (   0.000000   1.222202   0.000000 )  
               a(3) = (  -0.013088   0.000000   1.075351 )  

     reciprocal axes: (cart. coord. in units 2 pi/alat)
               b(1) = (  1.000033  0.000000  0.012172 )  
               b(2) = (  0.000000  0.818195  0.000000 )  
               b(3) = (  0.002274  0.000000  0.929956 )  


     PseudoPot. # 1 for Mn read from file:
     pseudo_dojo_pbesol/Mn.upf
     MD5 check sum: ef44e22c4884c1dd3870421f9f7ffd72
     Pseudo is Norm-conserving + core correction, Zval = 15.0
     Generated using ONCVPSP code by D. R. Hamann
     Using radial grid of 1448 points,  6 beta functions with: 
                l(1) =   0
                l(2) =   0
                l(3) =   1
                l(4) =   1
                l(5) =   2
                l(6) =   2

     PseudoPot. # 2 for Co read from file:
     pseudo_dojo_pbesol/Co.upf
     MD5 check sum: da2f8eda8ae963674925720b0359a264
     Pseudo is Norm-conserving + core correction, Zval = 17.0
     Generated using ONCVPSP code by D. R. Hamann
     Using radial grid of 1388 points,  6 beta functions with: 
                l(1) =   0
                l(2) =   0
                l(3) =   1
                l(4) =   1
                l(5) =   2
                l(6) =   2

     PseudoPot. # 3 for W  read from file:
     pseudo_dojo_pbesol/W.upf
     MD5 check sum: b5ac44390825a9169ccdba7091ec60d0
     Pseudo is Norm-conserving + core correction, Zval = 14.0
     Generated using ONCVPSP code by D. R. Hamann
     Using radial grid of 1396 points,  8 beta functions with: 
                l(1) =   0
                l(2) =   0
                l(3) =   1
                l(4) =   1
                l(5) =   2
                l(6) =   2
                l(7) =   3
                l(8) =   3

     PseudoPot. # 4 for O  read from file:
     pseudo_dojo_pbesol/O.upf
     MD5 check sum: f226cbcd508cec715ff87a8f75a1dfba
     Pseudo is Norm-conserving + core correction, Zval =  6.0
     Generated using ONCVPSP code by D. R. Hamann
     Using radial grid of  936 points,  5 beta functions with: 
                l(1) =   0
                l(2) =   0
                l(3) =   1
                l(4) =   1
                l(5) =   2

     atomic species   valence    mass     pseudopotential
     Mn               15.00    54.93805     Mn( 1.00)
     Co               17.00    58.93319     Co( 1.00)
     W                14.00   183.84000     W ( 1.00)
     O                 6.00    15.99940     O ( 1.00)

     Starting magnetic structure 
     atomic species   magnetization
     Mn              0.200
     Co             -0.200
     W               0.000
     O               0.000

      2 Sym. Ops. (no inversion) found ( 1 have fractional translation)


                                    s                        frac. trans.

      isym =  1     identity                                     

 cryst.   s( 1) = (     1          0          0      )
                  (     0          1          0      )
                  (     0          0          1      )

 cart.    s( 1) = (  1.0000000  0.0000000  0.0000000 )
                  (  0.0000000  1.0000000  0.0000000 )
                  (  0.0000000  0.0000000  1.0000000 )


      isym =  2     180 deg rotation - cart. axis [0,1,0]        

 cryst.   s( 2) = (    -1          0          0      )    f =(  0.0000000 )
                  (     0          1          0      )       (  0.0000000 )
                  (     0          0         -1      )       ( -0.5000000 )

 cart.    s( 2) = ( -1.0000000  0.0000000  0.0000000 )    f =(  0.0065442 )
                  (  0.0000000  1.0000000  0.0000000 )       (  0.0000000 )
                  ( -0.0000000  0.0000000 -1.0000000 )       ( -0.5376757 )


   Cartesian axes

     site n.     atom                  positions (alat units)
         1        Mn     tau(   1) = (   0.4901822   0.8241644   0.8052906  )
         2        Co     tau(   2) = (   0.4967264   0.4063911   0.2676149  )
         3        W      tau(   3) = (  -0.0098164   0.2185570   0.8065135  )
         4        W      tau(   4) = (  -0.0032721   1.0054130   0.2688378  )
         5        O      tau(   5) = (   0.2440311   0.4615555   0.9704372  )
         6        O      tau(   6) = (   0.7363332   0.4615555   0.6401441  )
         7        O      tau(   7) = (   0.7433272   0.7541680   0.1102526  )
         8        O      tau(   8) = (   0.2501255   0.7541680   0.4249773  )
         9        O      tau(   9) = (   0.2043278   1.0977234   1.0092419  )
        10        O      tau(  10) = (   0.7760365   1.0977234   0.6013393  )
        11        O      tau(  11) = (   0.7752132   0.1258962   0.0641851  )
        12        O      tau(  12) = (   0.2182396   0.1258962   0.4710448  )

   Crystallographic axes

     site n.     atom                  positions (cryst. coord.)
         1        Mn     tau(   1) = (  0.5000000  0.6743275  0.7500000  )
         2        Co     tau(   2) = (  0.5000000  0.3325073  0.2500000  )
         3        W      tau(   3) = (  0.0000000  0.1788224  0.7500000  )
         4        W      tau(   4) = (  0.0000000  0.8226243  0.2500000  )
         5        O      tau(   5) = (  0.2558510  0.3776426  0.9030192  )
         6        O      tau(   6) = (  0.7441490  0.3776426  0.5969808  )
         7        O      tau(   7) = (  0.7446936  0.6170568  0.1042208  )
         8        O      tau(   8) = (  0.2553064  0.6170568  0.3957792  )
         9        O      tau(   9) = (  0.2166187  0.8981522  0.9390156  )
        10        O      tau(  10) = (  0.7833813  0.8981522  0.5609844  )
        11        O      tau(  11) = (  0.7760198  0.1030077  0.0614525  )
        12        O      tau(  12) = (  0.2239802  0.1030077  0.4385475  )

     number of k points=   101
                       cart. coord. in units 2pi/alat
        k(    1) = (   0.0000000   0.0000000   0.0000000), wk =   0.0099010
        k(    2) = (   0.0000000   0.0204549   0.0000000), wk =   0.0099010
        k(    3) = (   0.0000000   0.0409098   0.0000000), wk =   0.0099010
        k(    4) = (   0.0000000   0.0613647   0.0000000), wk =   0.0099010
        k(    5) = (   0.0000000   0.0818195   0.0000000), wk =   0.0099010
        k(    6) = (   0.0000000   0.1022744   0.0000000), wk =   0.0099010
        k(    7) = (   0.0000000   0.1227293   0.0000000), wk =   0.0099010
        k(    8) = (   0.0000000   0.1431842   0.0000000), wk =   0.0099010
        k(    9) = (   0.0000000   0.1636391   0.0000000), wk =   0.0099010
        k(   10) = (   0.0000000   0.1840940   0.0000000), wk =   0.0099010
        k(   11) = (   0.0000000   0.2045488   0.0000000), wk =   0.0099010
        k(   12) = (   0.0000000   0.2250037   0.0000000), wk =   0.0099010
        k(   13) = (   0.0000000   0.2454586   0.0000000), wk =   0.0099010
        k(   14) = (   0.0000000   0.2659135   0.0000000), wk =   0.0099010
        k(   15) = (   0.0000000   0.2863684   0.0000000), wk =   0.0099010
        k(   16) = (   0.0000000   0.3068233   0.0000000), wk =   0.0099010
        k(   17) = (   0.0000000   0.3272781   0.0000000), wk =   0.0099010
        k(   18) = (   0.0000000   0.3477330   0.0000000), wk =   0.0099010
        k(   19) = (   0.0000000   0.3681879   0.0000000), wk =   0.0099010
        k(   20) = (   0.0000000   0.3886428   0.0000000), wk =   0.0099010
        k(   21) = (   0.0000000   0.4090977   0.0000000), wk =   0.0099010
        k(   22) = (   0.0250008   0.4090977   0.0003043), wk =   0.0099010
        k(   23) = (   0.0500016   0.4090977   0.0006086), wk =   0.0099010
        k(   24) = (   0.0750025   0.4090977   0.0009129), wk =   0.0099010
        k(   25) = (   0.1000033   0.4090977   0.0012172), wk =   0.0099010
        k(   26) = (   0.1250041   0.4090977   0.0015215), wk =   0.0099010
        k(   27) = (   0.1500049   0.4090977   0.0018258), wk =   0.0099010
        k(   28) = (   0.1750057   0.4090977   0.0021301), wk =   0.0099010
        k(   29) = (   0.2000066   0.4090977   0.0024343), wk =   0.0099010
        k(   30) = (   0.2250074   0.4090977   0.0027386), wk =   0.0099010
        k(   31) = (   0.2500082   0.4090977   0.0030429), wk =   0.0099010
        k(   32) = (   0.2750090   0.4090977   0.0033472), wk =   0.0099010
        k(   33) = (   0.3000098   0.4090977   0.0036515), wk =   0.0099010
        k(   34) = (   0.3250106   0.4090977   0.0039558), wk =   0.0099010
        k(   35) = (   0.3500115   0.4090977   0.0042601), wk =   0.0099010
        k(   36) = (   0.3750123   0.4090977   0.0045644), wk =   0.0099010
        k(   37) = (   0.4000131   0.4090977   0.0048687), wk =   0.0099010
        k(   38) = (   0.4250139   0.4090977   0.0051730), wk =   0.0099010
        k(   39) = (   0.4500147   0.4090977   0.0054773), wk =   0.0099010
        k(   40) = (   0.4750156   0.4090977   0.0057816), wk =   0.0099010
        k(   41) = (   0.5000164   0.4090977   0.0060859), wk =   0.0099010
        k(   42) = (   0.4750156   0.3886428   0.0057816), wk =   0.0099010
        k(   43) = (   0.4500147   0.3681879   0.0054773), wk =   0.0099010
        k(   44) = (   0.4250139   0.3477330   0.0051730), wk =   0.0099010
        k(   45) = (   0.4000131   0.3272781   0.0048687), wk =   0.0099010
        k(   46) = (   0.3750123   0.3068233   0.0045644), wk =   0.0099010
        k(   47) = (   0.3500115   0.2863684   0.0042601), wk =   0.0099010
        k(   48) = (   0.3250106   0.2659135   0.0039558), wk =   0.0099010
        k(   49) = (   0.3000098   0.2454586   0.0036515), wk =   0.0099010
        k(   50) = (   0.2750090   0.2250037   0.0033472), wk =   0.0099010
        k(   51) = (   0.2500082   0.2045488   0.0030429), wk =   0.0099010
        k(   52) = (   0.2250074   0.1840940   0.0027386), wk =   0.0099010
        k(   53) = (   0.2000066   0.1636391   0.0024343), wk =   0.0099010
        k(   54) = (   0.1750057   0.1431842   0.0021301), wk =   0.0099010
        k(   55) = (   0.1500049   0.1227293   0.0018258), wk =   0.0099010
        k(   56) = (   0.1250041   0.1022744   0.0015215), wk =   0.0099010
        k(   57) = (   0.1000033   0.0818195   0.0012172), wk =   0.0099010
        k(   58) = (   0.0750025   0.0613647   0.0009129), wk =   0.0099010
        k(   59) = (   0.0500016   0.0409098   0.0006086), wk =   0.0099010
        k(   60) = (   0.0250008   0.0204549   0.0003043), wk =   0.0099010
        k(   61) = (   0.0000000   0.0000000   0.0000000), wk =   0.0099010
        k(   62) = (   0.0000569   0.0000000   0.0232489), wk =   0.0099010
        k(   63) = (   0.0001137   0.0000000   0.0464978), wk =   0.0099010
        k(   64) = (   0.0001706   0.0000000   0.0697467), wk =   0.0099010
        k(   65) = (   0.0002274   0.0000000   0.0929956), wk =   0.0099010
        k(   66) = (   0.0002843   0.0000000   0.1162445), wk =   0.0099010
        k(   67) = (   0.0003412   0.0000000   0.1394934), wk =   0.0099010
        k(   68) = (   0.0003980   0.0000000   0.1627424), wk =   0.0099010
        k(   69) = (   0.0004549   0.0000000   0.1859913), wk =   0.0099010
        k(   70) = (   0.0005118   0.0000000   0.2092402), wk =   0.0099010
        k(   71) = (   0.0005686   0.0000000   0.2324891), wk =   0.0099010
        k(   72) = (   0.0006255   0.0000000   0.2557380), wk =   0.0099010
        k(   73) = (   0.0006823   0.0000000   0.2789869), wk =   0.0099010
        k(   74) = (   0.0007392   0.0000000   0.3022358), wk =   0.0099010
        k(   75) = (   0.0007961   0.0000000   0.3254847), wk =   0.0099010
        k(   76) = (   0.0008529   0.0000000   0.3487336), wk =   0.0099010
        k(   77) = (   0.0009098   0.0000000   0.3719825), wk =   0.0099010
        k(   78) = (   0.0009667   0.0000000   0.3952314), wk =   0.0099010
        k(   79) = (   0.0010235   0.0000000   0.4184803), wk =   0.0099010
        k(   80) = (   0.0010804   0.0000000   0.4417292), wk =   0.0099010
        k(   81) = (   0.0011372   0.0000000   0.4649781), wk =   0.0099010
        k(   82) = (   0.0261381   0.0204549   0.4652824), wk =   0.0099010
        k(   83) = (   0.0511389   0.0409098   0.4655867), wk =   0.0099010
        k(   84) = (   0.0761397   0.0613647   0.4658910), wk =   0.0099010
        k(   85) = (   0.1011405   0.0818195   0.4661953), wk =   0.0099010
        k(   86) = (   0.1261413   0.1022744   0.4664996), wk =   0.0099010
        k(   87) = (   0.1511422   0.1227293   0.4668039), wk =   0.0099010
        k(   88) = (   0.1761430   0.1431842   0.4671082), wk =   0.0099010
        k(   89) = (   0.2011438   0.1636391   0.4674125), wk =   0.0099010
        k(   90) = (   0.2261446   0.1840940   0.4677168), wk =   0.0099010
        k(   91) = (   0.2511454   0.2045488   0.4680211), wk =   0.0099010
        k(   92) = (   0.2761463   0.2250037   0.4683254), wk =   0.0099010
        k(   93) = (   0.3011471   0.2454586   0.4686297), wk =   0.0099010
        k(   94) = (   0.3261479   0.2659135   0.4689340), wk =   0.0099010
        k(   95) = (   0.3511487   0.2863684   0.4692383), wk =   0.0099010
        k(   96) = (   0.3761495   0.3068233   0.4695425), wk =   0.0099010
        k(   97) = (   0.4011504   0.3272781   0.4698468), wk =   0.0099010
        k(   98) = (   0.4261512   0.3477330   0.4701511), wk =   0.0099010
        k(   99) = (   0.4511520   0.3681879   0.4704554), wk =   0.0099010
        k(  100) = (   0.4761528   0.3886428   0.4707597), wk =   0.0099010
        k(  101) = (   0.5011536   0.4090977   0.4710640), wk =   0.0099010

                       cryst. coord.
        k(    1) = (   0.0000000   0.0000000   0.0000000), wk =   0.0099010
        k(    2) = (   0.0000000   0.0250000   0.0000000), wk =   0.0099010
        k(    3) = (   0.0000000   0.0500000   0.0000000), wk =   0.0099010
        k(    4) = (   0.0000000   0.0750000   0.0000000), wk =   0.0099010
        k(    5) = (   0.0000000   0.1000000   0.0000000), wk =   0.0099010
        k(    6) = (   0.0000000   0.1250000   0.0000000), wk =   0.0099010
        k(    7) = (   0.0000000   0.1500000   0.0000000), wk =   0.0099010
        k(    8) = (   0.0000000   0.1750000   0.0000000), wk =   0.0099010
        k(    9) = (   0.0000000   0.2000000   0.0000000), wk =   0.0099010
        k(   10) = (   0.0000000   0.2250000   0.0000000), wk =   0.0099010
        k(   11) = (   0.0000000   0.2500000   0.0000000), wk =   0.0099010
        k(   12) = (   0.0000000   0.2750000   0.0000000), wk =   0.0099010
        k(   13) = (   0.0000000   0.3000000   0.0000000), wk =   0.0099010
        k(   14) = (   0.0000000   0.3250000   0.0000000), wk =   0.0099010
        k(   15) = (   0.0000000   0.3500000   0.0000000), wk =   0.0099010
        k(   16) = (   0.0000000   0.3750000   0.0000000), wk =   0.0099010
        k(   17) = (   0.0000000   0.4000000   0.0000000), wk =   0.0099010
        k(   18) = (   0.0000000   0.4250000   0.0000000), wk =   0.0099010
        k(   19) = (   0.0000000   0.4500000   0.0000000), wk =   0.0099010
        k(   20) = (   0.0000000   0.4750000   0.0000000), wk =   0.0099010
        k(   21) = (   0.0000000   0.5000000   0.0000000), wk =   0.0099010
        k(   22) = (   0.0250000   0.5000000   0.0000000), wk =   0.0099010
        k(   23) = (   0.0500000   0.5000000   0.0000000), wk =   0.0099010
        k(   24) = (   0.0750000   0.5000000   0.0000000), wk =   0.0099010
        k(   25) = (   0.1000000   0.5000000   0.0000000), wk =   0.0099010
        k(   26) = (   0.1250000   0.5000000   0.0000000), wk =   0.0099010
        k(   27) = (   0.1500000   0.5000000   0.0000000), wk =   0.0099010
        k(   28) = (   0.1750000   0.5000000   0.0000000), wk =   0.0099010
        k(   29) = (   0.2000000   0.5000000   0.0000000), wk =   0.0099010
        k(   30) = (   0.2250000   0.5000000   0.0000000), wk =   0.0099010
        k(   31) = (   0.2500000   0.5000000   0.0000000), wk =   0.0099010
        k(   32) = (   0.2750000   0.5000000   0.0000000), wk =   0.0099010
        k(   33) = (   0.3000000   0.5000000   0.0000000), wk =   0.0099010
        k(   34) = (   0.3250000   0.5000000   0.0000000), wk =   0.0099010
        k(   35) = (   0.3500000   0.5000000   0.0000000), wk =   0.0099010
        k(   36) = (   0.3750000   0.5000000   0.0000000), wk =   0.0099010
        k(   37) = (   0.4000000   0.5000000   0.0000000), wk =   0.0099010
        k(   38) = (   0.4250000   0.5000000   0.0000000), wk =   0.0099010
        k(   39) = (   0.4500000   0.5000000   0.0000000), wk =   0.0099010
        k(   40) = (   0.4750000   0.5000000   0.0000000), wk =   0.0099010
        k(   41) = (   0.5000000   0.5000000   0.0000000), wk =   0.0099010
        k(   42) = (   0.4750000   0.4750000   0.0000000), wk =   0.0099010
        k(   43) = (   0.4500000   0.4500000   0.0000000), wk =   0.0099010
        k(   44) = (   0.4250000   0.4250000   0.0000000), wk =   0.0099010
        k(   45) = (   0.4000000   0.4000000   0.0000000), wk =   0.0099010
        k(   46) = (   0.3750000   0.3750000   0.0000000), wk =   0.0099010
        k(   47) = (   0.3500000   0.3500000   0.0000000), wk =   0.0099010
        k(   48) = (   0.3250000   0.3250000   0.0000000), wk =   0.0099010
        k(   49) = (   0.3000000   0.3000000   0.0000000), wk =   0.0099010
        k(   50) = (   0.2750000   0.2750000   0.0000000), wk =   0.0099010
        k(   51) = (   0.2500000   0.2500000   0.0000000), wk =   0.0099010
        k(   52) = (   0.2250000   0.2250000   0.0000000), wk =   0.0099010
        k(   53) = (   0.2000000   0.2000000   0.0000000), wk =   0.0099010
        k(   54) = (   0.1750000   0.1750000   0.0000000), wk =   0.0099010
        k(   55) = (   0.1500000   0.1500000   0.0000000), wk =   0.0099010
        k(   56) = (   0.1250000   0.1250000   0.0000000), wk =   0.0099010
        k(   57) = (   0.1000000   0.1000000   0.0000000), wk =   0.0099010
        k(   58) = (   0.0750000   0.0750000   0.0000000), wk =   0.0099010
        k(   59) = (   0.0500000   0.0500000   0.0000000), wk =   0.0099010
        k(   60) = (   0.0250000   0.0250000   0.0000000), wk =   0.0099010
        k(   61) = (   0.0000000   0.0000000   0.0000000), wk =   0.0099010
        k(   62) = (  -0.0000000   0.0000000   0.0250000), wk =   0.0099010
        k(   63) = (  -0.0000000   0.0000000   0.0500000), wk =   0.0099010
        k(   64) = (   0.0000000   0.0000000   0.0750000), wk =   0.0099010
        k(   65) = (  -0.0000000   0.0000000   0.1000000), wk =   0.0099010
        k(   66) = (   0.0000000   0.0000000   0.1250000), wk =   0.0099010
        k(   67) = (   0.0000000   0.0000000   0.1500000), wk =   0.0099010
        k(   68) = (   0.0000000   0.0000000   0.1750000), wk =   0.0099010
        k(   69) = (  -0.0000000   0.0000000   0.2000000), wk =   0.0099010
        k(   70) = (  -0.0000000   0.0000000   0.2250000), wk =   0.0099010
        k(   71) = (   0.0000000   0.0000000   0.2500000), wk =   0.0099010
        k(   72) = (  -0.0000000   0.0000000   0.2750000), wk =   0.0099010
        k(   73) = (   0.0000000   0.0000000   0.3000000), wk =   0.0099010
        k(   74) = (  -0.0000000   0.0000000   0.3250000), wk =   0.0099010
        k(   75) = (   0.0000000   0.0000000   0.3500000), wk =   0.0099010
        k(   76) = (  -0.0000000   0.0000000   0.3750000), wk =   0.0099010
        k(   77) = (  -0.0000000   0.0000000   0.4000000), wk =   0.0099010
        k(   78) = (  -0.0000000   0.0000000   0.4250000), wk =   0.0099010
        k(   79) = (  -0.0000000   0.0000000   0.4500000), wk =   0.0099010
        k(   80) = (  -0.0000000   0.0000000   0.4750000), wk =   0.0099010
        k(   81) = (   0.0000000   0.0000000   0.5000000), wk =   0.0099010
        k(   82) = (   0.0250000   0.0250000   0.5000000), wk =   0.0099010
        k(   83) = (   0.0500000   0.0500000   0.5000000), wk =   0.0099010
        k(   84) = (   0.0750000   0.0750000   0.5000000), wk =   0.0099010
        k(   85) = (   0.1000000   0.1000000   0.5000000), wk =   0.0099010
        k(   86) = (   0.1250000   0.1250000   0.5000000), wk =   0.0099010
        k(   87) = (   0.1500000   0.1500000   0.5000000), wk =   0.0099010
        k(   88) = (   0.1750000   0.1750000   0.5000000), wk =   0.0099010
        k(   89) = (   0.2000000   0.2000000   0.5000000), wk =   0.0099010
        k(   90) = (   0.2250000   0.2250000   0.5000000), wk =   0.0099010
        k(   91) = (   0.2500000   0.2500000   0.5000000), wk =   0.0099010
        k(   92) = (   0.2750000   0.2750000   0.5000000), wk =   0.0099010
        k(   93) = (   0.3000000   0.3000000   0.5000000), wk =   0.0099010
        k(   94) = (   0.3250000   0.3250000   0.5000000), wk =   0.0099010
        k(   95) = (   0.3500000   0.3500000   0.5000000), wk =   0.0099010
        k(   96) = (   0.3750000   0.3750000   0.5000000), wk =   0.0099010
        k(   97) = (   0.4000000   0.4000000   0.5000000), wk =   0.0099010
        k(   98) = (   0.4250000   0.4250000   0.5000000), wk =   0.0099010
        k(   99) = (   0.4500000   0.4500000   0.5000000), wk =   0.0099010
        k(  100) = (   0.4750000   0.4750000   0.5000000), wk =   0.0099010
        k(  101) = (   0.5000000   0.5000000   0.5000000), wk =   0.0099010

     Dense  grid:   152147 G-vectors     FFT dimensions: (  64,  75,  72)

     Dynamical RAM for                 wfc:       0.97 MB

     Dynamical RAM for     wfc (w. buffer):       0.97 MB

     Dynamical RAM for             U proj.:       0.12 MB

     Dynamical RAM for  U proj. (w. buff.):       0.12 MB

     Dynamical RAM for           str. fact:       0.39 MB

     Dynamical RAM for           local pot:       0.00 MB

     Dynamical RAM for          nlocal pot:       2.47 MB

     Dynamical RAM for                qrad:      16.87 MB

     Dynamical RAM for          rho,v,vnew:       1.24 MB

     Dynamical RAM for           G-vectors:       0.41 MB

     Dynamical RAM for          h,s,v(r/c):       1.17 MB

     Dynamical RAM for          <psi|beta>:       0.25 MB

     Dynamical RAM for                 psi:       1.93 MB

     Dynamical RAM for                hpsi:       1.93 MB

     Dynamical RAM for      wfcinit/wfcrot:       2.08 MB

     Estimated static dynamical RAM per process >      23.61 MB

     Estimated max dynamical RAM per process >      28.90 MB

     Estimated total dynamical RAM >     693.48 MB
     Generating pointlists ...
     new r_m :   0.1836 (alat units)  1.5922 (a.u.) for type    1
     new r_m :   0.1834 (alat units)  1.5901 (a.u.) for type    2
     new r_m :   0.1600 (alat units)  1.3870 (a.u.) for type    3
     new r_m :   0.1600 (alat units)  1.3870 (a.u.) for type    4

     The potential is recalculated from file :
     ./tmp/MnCoWO4_AFM/MnCoWO4_AFM.save/charge-density


     HUBBARD ENERGY =    0.1248  (Ry)

     STARTING HUBBARD OCCUPATIONS:

     =================== HUBBARD OCCUPATIONS ===================
     ------------------------ ATOM    1 ------------------------
     Tr[ns(  1)] (up, down, total) =   4.92035  0.27120  5.19155
     Atomic magnetic moment for atom   1 =   4.64914
     SPIN  1
     eigenvalues:
       0.968  0.969  0.994  0.994  0.995
     eigenvectors (columns):
       0.585 -0.000 -0.779  0.000 -0.228
      -0.780  0.000 -0.617  0.000  0.107
       0.000  0.530 -0.000 -0.848  0.000
       0.224  0.000 -0.115  0.000  0.968
       0.000  0.848  0.000  0.530 -0.000
     occupation matrix ns (before diag.):
       0.985  0.012 -0.000 -0.004  0.000
       0.012  0.978 -0.000  0.005  0.000
      -0.000 -0.000  0.987 -0.000 -0.011
      -0.004  0.005 -0.000  0.994 -0.000
       0.000  0.000 -0.011 -0.000  0.976
     SPIN  2
     eigenvalues:
       0.027  0.027  0.031  0.093  0.094
     eigenvectors (columns):
       0.847  0.000 -0.035  0.000  0.531
       0.504  0.000 -0.265 -0.000 -0.822
       0.000 -0.821  0.000  0.571 -0.000
      -0.170 -0.000 -0.963 -0.000  0.207
      -0.000  0.571 -0.000  0.821 -0.000
     occupation matrix ns (before diag.):
       0.046 -0.029  0.000  0.008  0.000
      -0.029  0.073 -0.000 -0.010  0.000
       0.000 -0.000  0.048 -0.000  0.031
       0.008 -0.010 -0.000  0.033 -0.000
       0.000  0.000  0.031 -0.000  0.071
     ------------------------ ATOM    2 ------------------------
     Tr[ns(  2)] (up, down, total) =   2.19851  4.97146  7.16997
     Atomic magnetic moment for atom   2 =  -2.77295
     SPIN  1
     eigenvalues:
       0.028  0.093  0.093  0.993  0.993
     eigenvectors (columns):
      -0.342  0.000  0.642 -0.000  0.686
       0.046 -0.000 -0.717 -0.000  0.695
       0.000  0.741 -0.000 -0.671 -0.000
       0.938  0.000  0.269 -0.000  0.216
       0.000  0.671 -0.000  0.741  0.000
     occupation matrix ns (before diag.):
       0.508  0.430 -0.000  0.154  0.000
       0.430  0.527 -0.000  0.132  0.000
      -0.000 -0.000  0.498  0.000 -0.448
       0.154  0.132  0.000  0.078 -0.000
       0.000  0.000 -0.448 -0.000  0.587
     SPIN  2
     eigenvalues:
       0.990  0.990  0.997  0.997  0.998
     eigenvectors (columns):
       0.574 -0.000 -0.773  0.000 -0.270
      -0.777  0.000 -0.618  0.000  0.117
       0.000  0.468 -0.000 -0.884 -0.000
       0.257  0.000 -0.142  0.000  0.956
       0.000  0.884  0.000  0.468 -0.000
     occupation matrix ns (before diag.):
       0.994  0.003 -0.000 -0.001  0.000
       0.003  0.992 -0.000  0.002  0.000
      -0.000 -0.000  0.995 -0.000 -0.003
      -0.001  0.002 -0.000  0.998 -0.000
       0.000  0.000 -0.003 -0.000  0.992

     Number of occupied Hubbard levels =   12.3615

     Atomic wfc used for Hubbard projectors are orthogonalized

     Starting wfcs are   72 randomized atomic wfcs +    8 random wfcs

     Band Structure Calculation
     Davidson diagonalization with overlap

     Computing kpt #:     1  of   202
     total cpu time spent up to now is        3.5 secs

     Computing kpt #:     2  of   202
     total cpu time spent up to now is        4.8 secs

     Computing kpt #:     3  of   202
     total cpu time spent up to now is        6.1 secs

     Computing kpt #:     4  of   202
     total cpu time spent up to now is        7.4 secs

     Computing kpt #:     5  of   202
     total cpu time spent up to now is        8.7 secs

     Computing kpt #:     6  of   202
     total cpu time spent up to now is       10.0 secs

     Computing kpt #:     7  of   202
     total cpu time spent up to now is       11.2 secs

     Computing kpt #:     8  of   202
     total cpu time spent up to now is       12.5 secs

     Computing kpt #:     9  of   202
     total cpu time spent up to now is       13.8 secs

     Computing kpt #:    10  of   202
     total cpu time spent up to now is       15.1 secs

     Computing kpt #:    11  of   202
     total cpu time spent up to now is       16.3 secs

     Computing kpt #:    12  of   202
     total cpu time spent up to now is       17.6 secs

     Computing kpt #:    13  of   202
     total cpu time spent up to now is       18.8 secs

     Computing kpt #:    14  of   202
     total cpu time spent up to now is       20.1 secs

     Computing kpt #:    15  of   202
     total cpu time spent up to now is       21.3 secs

     Computing kpt #:    16  of   202
     total cpu time spent up to now is       22.6 secs

     Computing kpt #:    17  of   202
     total cpu time spent up to now is       23.8 secs

     Computing kpt #:    18  of   202
     total cpu time spent up to now is       25.0 secs

     Computing kpt #:    19  of   202
     total cpu time spent up to now is       26.2 secs

     Computing kpt #:    20  of   202
     total cpu time spent up to now is       27.4 secs

     Computing kpt #:    21  of   202
     total cpu time spent up to now is       28.6 secs

     Computing kpt #:    22  of   202
     total cpu time spent up to now is       29.7 secs

     Computing kpt #:    23  of   202
     total cpu time spent up to now is       30.9 secs

     Computing kpt #:    24  of   202
     total cpu time spent up to now is       32.2 secs

     Computing kpt #:    25  of   202
     total cpu time spent up to now is       33.4 secs

     Computing kpt #:    26  of   202
     total cpu time spent up to now is       34.7 secs

     Computing kpt #:    27  of   202
     total cpu time spent up to now is       36.0 secs

     Computing kpt #:    28  of   202
     total cpu time spent up to now is       37.3 secs

     Computing kpt #:    29  of   202
     total cpu time spent up to now is       38.6 secs

     Computing kpt #:    30  of   202
     total cpu time spent up to now is       40.0 secs

     Computing kpt #:    31  of   202
     total cpu time spent up to now is       41.5 secs

     Computing kpt #:    32  of   202
     total cpu time spent up to now is       43.0 secs

     Computing kpt #:    33  of   202
     total cpu time spent up to now is       44.6 secs

     Computing kpt #:    34  of   202
     total cpu time spent up to now is       46.2 secs

     Computing kpt #:    35  of   202
     total cpu time spent up to now is       47.7 secs

     Computing kpt #:    36  of   202
     total cpu time spent up to now is       49.1 secs

     Computing kpt #:    37  of   202
     total cpu time spent up to now is       50.4 secs

     Computing kpt #:    38  of   202
     total cpu time spent up to now is       51.7 secs

     Computing kpt #:    39  of   202
     total cpu time spent up to now is       53.0 secs

     Computing kpt #:    40  of   202
     total cpu time spent up to now is       54.2 secs

     Computing kpt #:    41  of   202
     total cpu time spent up to now is       55.5 secs

     Computing kpt #:    42  of   202
     total cpu time spent up to now is       56.7 secs

     Computing kpt #:    43  of   202
     total cpu time spent up to now is       58.0 secs

     Computing kpt #:    44  of   202
     total cpu time spent up to now is       59.3 secs

     Computing kpt #:    45  of   202
     total cpu time spent up to now is       60.6 secs

     Computing kpt #:    46  of   202
     total cpu time spent up to now is       61.9 secs

     Computing kpt #:    47  of   202
     total cpu time spent up to now is       63.2 secs

     Computing kpt #:    48  of   202
     total cpu time spent up to now is       64.5 secs

     Computing kpt #:    49  of   202
     total cpu time spent up to now is       65.8 secs

     Computing kpt #:    50  of   202
     total cpu time spent up to now is       67.1 secs

     Computing kpt #:    51  of   202
     total cpu time spent up to now is       68.4 secs

     Computing kpt #:    52  of   202
     total cpu time spent up to now is       69.8 secs

     Computing kpt #:    53  of   202
     total cpu time spent up to now is       71.1 secs

     Computing kpt #:    54  of   202
     total cpu time spent up to now is       72.4 secs

     Computing kpt #:    55  of   202
     total cpu time spent up to now is       73.7 secs

     Computing kpt #:    56  of   202
     total cpu time spent up to now is       74.9 secs

     Computing kpt #:    57  of   202
     total cpu time spent up to now is       76.2 secs

     Computing kpt #:    58  of   202
     total cpu time spent up to now is       77.5 secs

     Computing kpt #:    59  of   202
     total cpu time spent up to now is       78.8 secs

     Computing kpt #:    60  of   202
     total cpu time spent up to now is       80.0 secs

     Computing kpt #:    61  of   202
     total cpu time spent up to now is       81.3 secs

     Computing kpt #:    62  of   202
     total cpu time spent up to now is       82.6 secs

     Computing kpt #:    63  of   202
     total cpu time spent up to now is       83.9 secs

     Computing kpt #:    64  of   202
     total cpu time spent up to now is       85.2 secs

     Computing kpt #:    65  of   202
     total cpu time spent up to now is       86.5 secs

     Computing kpt #:    66  of   202
     total cpu time spent up to now is       87.7 secs

     Computing kpt #:    67  of   202
     total cpu time spent up to now is       89.0 secs

     Computing kpt #:    68  of   202
     total cpu time spent up to now is       90.3 secs

     Computing kpt #:    69  of   202
     total cpu time spent up to now is       91.6 secs

     Computing kpt #:    70  of   202
     total cpu time spent up to now is       92.9 secs

     Computing kpt #:    71  of   202
     total cpu time spent up to now is       94.2 secs

     Computing kpt #:    72  of   202
     total cpu time spent up to now is       95.4 secs

     Computing kpt #:    73  of   202
     total cpu time spent up to now is       96.7 secs

     Computing kpt #:    74  of   202
     total cpu time spent up to now is       98.0 secs

     Computing kpt #:    75  of   202
     total cpu time spent up to now is       99.3 secs

     Computing kpt #:    76  of   202
     total cpu time spent up to now is      100.6 secs

     Computing kpt #:    77  of   202
     total cpu time spent up to now is      101.9 secs

     Computing kpt #:    78  of   202
     total cpu time spent up to now is      103.2 secs

     Computing kpt #:    79  of   202
     total cpu time spent up to now is      104.5 secs

     Computing kpt #:    80  of   202
     total cpu time spent up to now is      105.9 secs

     Computing kpt #:    81  of   202
     total cpu time spent up to now is      107.2 secs

     Computing kpt #:    82  of   202
     total cpu time spent up to now is      108.6 secs

     Computing kpt #:    83  of   202
     total cpu time spent up to now is      110.0 secs

     Computing kpt #:    84  of   202
     total cpu time spent up to now is      111.5 secs

     Computing kpt #:    85  of   202
     total cpu time spent up to now is      113.0 secs

     Computing kpt #:    86  of   202
     total cpu time spent up to now is      114.4 secs

     Computing kpt #:    87  of   202
     total cpu time spent up to now is      115.8 secs

     Computing kpt #:    88  of   202
     total cpu time spent up to now is      117.3 secs

     Computing kpt #:    89  of   202
     total cpu time spent up to now is      118.8 secs

     Computing kpt #:    90  of   202
     total cpu time spent up to now is      120.3 secs

     Computing kpt #:    91  of   202
     total cpu time spent up to now is      121.8 secs

     Computing kpt #:    92  of   202
     total cpu time spent up to now is      123.2 secs

     Computing kpt #:    93  of   202
     total cpu time spent up to now is      124.6 secs

     Computing kpt #:    94  of   202
     total cpu time spent up to now is      126.0 secs

     Computing kpt #:    95  of   202
     total cpu time spent up to now is      127.4 secs

     Computing kpt #:    96  of   202
     total cpu time spent up to now is      128.8 secs

     Computing kpt #:    97  of   202
     total cpu time spent up to now is      130.3 secs

     Computing kpt #:    98  of   202
     total cpu time spent up to now is      131.7 secs

     Computing kpt #:    99  of   202
     total cpu time spent up to now is      133.0 secs

     Computing kpt #:   100  of   202
     total cpu time spent up to now is      134.3 secs

     Computing kpt #:   101  of   202
     total cpu time spent up to now is      135.6 secs

     Computing kpt #:   102  of   202
     total cpu time spent up to now is      136.9 secs

     Computing kpt #:   103  of   202
     total cpu time spent up to now is      138.2 secs

     Computing kpt #:   104  of   202
     total cpu time spent up to now is      139.5 secs

     Computing kpt #:   105  of   202
     total cpu time spent up to now is      140.8 secs

     Computing kpt #:   106  of   202
     total cpu time spent up to now is      142.1 secs

     Computing kpt #:   107  of   202
     total cpu time spent up to now is      143.4 secs

     Computing kpt #:   108  of   202
     total cpu time spent up to now is      144.7 secs

     Computing kpt #:   109  of   202
     total cpu time spent up to now is      146.0 secs

     Computing kpt #:   110  of   202
     total cpu time spent up to now is      147.3 secs

     Computing kpt #:   111  of   202
     total cpu time spent up to now is      148.5 secs

     Computing kpt #:   112  of   202
     total cpu time spent up to now is      149.8 secs

     Computing kpt #:   113  of   202
     total cpu time spent up to now is      151.0 secs

     Computing kpt #:   114  of   202
     total cpu time spent up to now is      152.3 secs

     Computing kpt #:   115  of   202
     total cpu time spent up to now is      153.6 secs

     Computing kpt #:   116  of   202
     total cpu time spent up to now is      154.8 secs

     Computing kpt #:   117  of   202
     total cpu time spent up to now is      156.1 secs

     Computing kpt #:   118  of   202
     total cpu time spent up to now is      157.3 secs

     Computing kpt #:   119  of   202
     total cpu time spent up to now is      158.5 secs

     Computing kpt #:   120  of   202
     total cpu time spent up to now is      159.8 secs

     Computing kpt #:   121  of   202
     total cpu time spent up to now is      161.0 secs

     Computing kpt #:   122  of   202
     total cpu time spent up to now is      162.2 secs

     Computing kpt #:   123  of   202
     total cpu time spent up to now is      163.4 secs

     Computing kpt #:   124  of   202
     total cpu time spent up to now is      164.7 secs

     Computing kpt #:   125  of   202
     total cpu time spent up to now is      165.9 secs

     Computing kpt #:   126  of   202
     total cpu time spent up to now is      167.2 secs

     Computing kpt #:   127  of   202
     total cpu time spent up to now is      168.4 secs

     Computing kpt #:   128  of   202
     total cpu time spent up to now is      169.7 secs

     Computing kpt #:   129  of   202
     total cpu time spent up to now is      171.0 secs

     Computing kpt #:   130  of   202
     total cpu time spent up to now is      172.4 secs

     Computing kpt #:   131  of   202
     total cpu time spent up to now is      173.8 secs

     Computing kpt #:   132  of   202
     total cpu time spent up to now is      175.3 secs

     Computing kpt #:   133  of   202
     total cpu time spent up to now is      176.7 secs

     Computing kpt #:   134  of   202
     total cpu time spent up to now is      178.2 secs

     Computing kpt #:   135  of   202
     total cpu time spent up to now is      179.8 secs

     Computing kpt #:   136  of   202
     total cpu time spent up to now is      181.4 secs

     Computing kpt #:   137  of   202
     total cpu time spent up to now is      182.8 secs

     Computing kpt #:   138  of   202
     total cpu time spent up to now is      184.2 secs

     Computing kpt #:   139  of   202
     total cpu time spent up to now is      185.6 secs

     Computing kpt #:   140  of   202
     total cpu time spent up to now is      186.9 secs

     Computing kpt #:   141  of   202
     total cpu time spent up to now is      188.2 secs

     Computing kpt #:   142  of   202
     total cpu time spent up to now is      189.5 secs

     Computing kpt #:   143  of   202
     total cpu time spent up to now is      190.8 secs

     Computing kpt #:   144  of   202
     total cpu time spent up to now is      192.0 secs

     Computing kpt #:   145  of   202
     total cpu time spent up to now is      193.3 secs

     Computing kpt #:   146  of   202
     total cpu time spent up to now is      194.6 secs

     Computing kpt #:   147  of   202
     total cpu time spent up to now is      196.0 secs

     Computing kpt #:   148  of   202
     total cpu time spent up to now is      197.4 secs

     Computing kpt #:   149  of   202
     total cpu time spent up to now is      198.7 secs

     Computing kpt #:   150  of   202
     total cpu time spent up to now is      200.0 secs

     Computing kpt #:   151  of   202
     total cpu time spent up to now is      201.3 secs

     Computing kpt #:   152  of   202
     total cpu time spent up to now is      202.7 secs

     Computing kpt #:   153  of   202
     total cpu time spent up to now is      204.0 secs

     Computing kpt #:   154  of   202
     total cpu time spent up to now is      205.3 secs

     Computing kpt #:   155  of   202
     total cpu time spent up to now is      206.6 secs

     Computing kpt #:   156  of   202
     total cpu time spent up to now is      207.9 secs

     Computing kpt #:   157  of   202
     total cpu time spent up to now is      209.2 secs

     Computing kpt #:   158  of   202
     total cpu time spent up to now is      210.5 secs

     Computing kpt #:   159  of   202
     total cpu time spent up to now is      211.8 secs

     Computing kpt #:   160  of   202
     total cpu time spent up to now is      213.1 secs

     Computing kpt #:   161  of   202
     total cpu time spent up to now is      214.4 secs

     Computing kpt #:   162  of   202
     total cpu time spent up to now is      215.7 secs

     Computing kpt #:   163  of   202
     total cpu time spent up to now is      217.0 secs

     Computing kpt #:   164  of   202
     total cpu time spent up to now is      218.2 secs

     Computing kpt #:   165  of   202
     total cpu time spent up to now is      219.5 secs

     Computing kpt #:   166  of   202
     total cpu time spent up to now is      220.8 secs

     Computing kpt #:   167  of   202
     total cpu time spent up to now is      222.1 secs

     Computing kpt #:   168  of   202
     total cpu time spent up to now is      223.4 secs

     Computing kpt #:   169  of   202
     total cpu time spent up to now is      224.8 secs

     Computing kpt #:   170  of   202
     total cpu time spent up to now is      226.1 secs

     Computing kpt #:   171  of   202
     total cpu time spent up to now is      227.6 secs

     Computing kpt #:   172  of   202
     total cpu time spent up to now is      229.0 secs

     Computing kpt #:   173  of   202
     total cpu time spent up to now is      230.4 secs

     Computing kpt #:   174  of   202
     total cpu time spent up to now is      231.8 secs

     Computing kpt #:   175  of   202
     total cpu time spent up to now is      233.2 secs

     Computing kpt #:   176  of   202
     total cpu time spent up to now is      234.6 secs

     Computing kpt #:   177  of   202
     total cpu time spent up to now is      236.1 secs

     Computing kpt #:   178  of   202
     total cpu time spent up to now is      237.5 secs

     Computing kpt #:   179  of   202
     total cpu time spent up to now is      238.9 secs

     Computing kpt #:   180  of   202
     total cpu time spent up to now is      240.4 secs

     Computing kpt #:   181  of   202
     total cpu time spent up to now is      241.8 secs

     Computing kpt #:   182  of   202
     total cpu time spent up to now is      243.2 secs

     Computing kpt #:   183  of   202
     total cpu time spent up to now is      244.6 secs

     Computing kpt #:   184  of   202
     total cpu time spent up to now is      246.0 secs

     Computing kpt #:   185  of   202
     total cpu time spent up to now is      247.4 secs

     Computing kpt #:   186  of   202
     total cpu time spent up to now is      248.9 secs

     Computing kpt #:   187  of   202
     total cpu time spent up to now is      250.3 secs

     Computing kpt #:   188  of   202
     total cpu time spent up to now is      251.9 secs

     Computing kpt #:   189  of   202
     total cpu time spent up to now is      253.4 secs

     Computing kpt #:   190  of   202
     total cpu time spent up to now is      255.1 secs

     Computing kpt #:   191  of   202
     total cpu time spent up to now is      256.6 secs

     Computing kpt #:   192  of   202
     total cpu time spent up to now is      258.1 secs

     Computing kpt #:   193  of   202
     total cpu time spent up to now is      259.5 secs

     Computing kpt #:   194  of   202
     total cpu time spent up to now is      260.9 secs

     Computing kpt #:   195  of   202
     total cpu time spent up to now is      262.3 secs

     Computing kpt #:   196  of   202
     total cpu time spent up to now is      263.7 secs

     Computing kpt #:   197  of   202
     total cpu time spent up to now is      265.1 secs

     Computing kpt #:   198  of   202
     total cpu time spent up to now is      266.6 secs

     Computing kpt #:   199  of   202
     total cpu time spent up to now is      268.0 secs

     Computing kpt #:   200  of   202
     total cpu time spent up to now is      269.4 secs

     Computing kpt #:   201  of   202
     total cpu time spent up to now is      270.9 secs

     Computing kpt #:   202  of   202
     total cpu time spent up to now is      272.6 secs

     ethr =  9.26E-13,  avg # of iterations = 57.8

     total cpu time spent up to now is      272.6 secs

     End of band structure calculation

 ------ SPIN UP ------------


          k = 0.0000 0.0000 0.0000 ( 19031 PWs)   bands (ev):

   -82.0600 -68.4329 -63.9394 -63.9254 -45.6063 -45.3635 -45.2078 -37.4943
   -37.4861 -37.4676 -28.4039 -28.3468 -28.3154 -28.2471 -28.2352 -28.1724
    -8.3479  -7.0211  -6.7351  -6.7174  -6.5872  -6.4378  -6.2041  -5.9597
     3.6923   3.9191   4.3364   4.4123   4.6443   5.0257   5.3471   5.6737
     6.1006   6.1406   6.4435   6.7496   7.0272   7.0504   7.2189   7.5409
     7.5846   7.8118   7.8373   8.2145   8.4423   8.4727   8.5122   9.0010
     9.0713   9.2509   9.4095   9.7531   9.8845  10.2126  10.8627  13.4830
    13.9393  14.0067  14.1605  14.7722  14.9721  15.8411  16.3978  16.6149
    16.6305  17.9362  18.9375  19.3242  19.5078  21.4179  21.7249  21.9565
    22.1646  22.9407  23.1806  23.6591  24.6027  24.6973  24.8866  25.2289

          k = 0.0000 0.0205 0.0000 ( 19033 PWs)   bands (ev):

   -82.0600 -68.4329 -63.9394 -63.9254 -45.6063 -45.3635 -45.2078 -37.4943
   -37.4861 -37.4676 -28.4039 -28.3468 -28.3154 -28.2471 -28.2353 -28.1724
    -8.3465  -7.0215  -6.7353  -6.7206  -6.5877  -6.4361  -6.2039  -5.9591
     3.6943   3.9214   4.3380   4.4133   4.6430   5.0278   5.3489   5.6715
     6.1025   6.1389   6.4283   6.7559   7.0254   7.0478   7.2181   7.5393
     7.5852   7.8192   7.8419   8.2136   8.4248   8.4815   8.5135   9.0016
     9.0725   9.2496   9.4099   9.7512   9.8831  10.2163  10.8636  13.4838
    13.9322  14.0077  14.1676  14.7723  14.9717  15.8406  16.3977  16.6151
    16.6376  17.9365  18.9301  19.3237  19.5105  21.4175  21.7000  21.9651
    22.1842  22.9430  23.1830  23.6566  24.6029  24.6943  24.8827  25.2295

          k = 0.0000 0.0409 0.0000 ( 19031 PWs)   bands (ev):

   -82.0600 -68.4329 -63.9394 -63.9254 -45.6063 -45.3635 -45.2078 -37.4943
   -37.4861 -37.4676 -28.4038 -28.3467 -28.3154 -28.2471 -28.2353 -28.1724
    -8.3423  -7.0227  -6.7356  -6.7299  -6.5891  -6.4314  -6.2035  -5.9574
     3.7004   3.9281   4.3427   4.4164   4.6392   5.0340   5.3543   5.6650
     6.1082   6.1335   6.3892   6.7661   7.0239   7.0391   7.2167   7.5350
     7.5872   7.8397   7.8551   8.2108   8.3907   8.4909   8.5174   9.0034
     9.0738   9.2476   9.4109   9.7456   9.8787  10.2270  10.8660  13.4860
    13.9131  14.0108  14.1863  14.7724  14.9707  15.8391  16.3974  16.6160
    16.6583  17.9374  18.9087  19.3221  19.5180  21.4171  21.6358  21.9901
    22.2322  22.9500  23.1906  23.6493  24.6036  24.6851  24.8708  25.2315

          k = 0.0000 0.0614 0.0000 ( 19029 PWs)   bands (ev):

   -82.0600 -68.4329 -63.9394 -63.9254 -45.6063 -45.3635 -45.2078 -37.4943
   -37.4861 -37.4676 -28.4038 -28.3466 -28.3154 -28.2471 -28.2355 -28.1725
    -8.3352  -7.0250  -6.7441  -6.7363  -6.5914  -6.4244  -6.2029  -5.9546
     3.7104   3.9392   4.3504   4.4214   4.6331   5.0438   5.3633   5.6539
     6.1183   6.1226   6.3378   6.7643   7.0224   7.0312   7.2176   7.5290
     7.5912   7.8686   7.8747   8.2068   8.3494   8.4944   8.5236   9.0062
     9.0688   9.2501   9.4125   9.7365   9.8716  10.2444  10.8701  13.4895
    13.8872  14.0159  14.2120  14.7727  14.9690  15.8367  16.3969  16.6178
    16.6921  17.9388  18.8751  19.3193  19.5284  21.4186  21.5495  22.0297
    22.2912  22.9610  23.2043  23.6375  24.6047  24.6695  24.8505  25.2356

          k = 0.0000 0.0818 0.0000 ( 19035 PWs)   bands (ev):

   -82.0600 -68.4329 -63.9394 -63.9254 -45.6063 -45.3635 -45.2078 -37.4943
   -37.4861 -37.4676 -28.4037 -28.3465 -28.3154 -28.2472 -28.2356 -28.1725
    -8.3254  -7.0291  -6.7615  -6.7372  -6.5945  -6.4163  -6.2022  -5.9507
     3.7244   3.9548   4.3611   4.4283   4.6250   5.0569   5.3759   5.6382
     6.1026   6.1332   6.2848   6.7420   6.9967   7.0522   7.2224   7.5222
     7.5977   7.8982   7.8999   8.2023   8.3057   8.4924   8.5318   9.0101
     9.0514   9.2619   9.4145   9.7242   9.8617  10.2674  10.8757  13.4938
    13.8585  14.0228  14.2409  14.7731  14.9666  15.8333  16.3962  16.6204
    16.7386  17.9408  18.8316  19.3150  19.5397  21.4244  21.4515  22.0814
    22.3497  22.9753  23.2258  23.6216  24.6060  24.6468  24.8215  25.2430

          k = 0.0000 0.1023 0.0000 ( 19029 PWs)   bands (ev):

   -82.0600 -68.4329 -63.9394 -63.9254 -45.6063 -45.3635 -45.2078 -37.4943
   -37.4861 -37.4676 -28.4037 -28.3463 -28.3154 -28.2472 -28.2359 -28.1726
    -8.3130  -7.0357  -6.7802  -6.7383  -6.5982  -6.4077  -6.2013  -5.9460
     3.7422   3.9745   4.3745   4.4368   4.6154   5.0724   5.3918   5.6180
     6.0688   6.1532   6.2392   6.7028   6.9629   7.0830   7.2309   7.5149
     7.6071   7.9233   7.9259   8.1985   8.2660   8.4857   8.5418   9.0149
     9.0209   9.2832   9.4167   9.7092   9.8491  10.2951  10.8829  13.4983
    13.8298  14.0316  14.2705  14.7735  14.9635  15.8292  16.3956  16.6238
    16.7971  17.9432  18.7807  19.3090  19.5499  21.3475  21.4368  22.1430
    22.4020  22.9913  23.2570  23.6023  24.6073  24.6159  24.7842  25.2543

          k = 0.0000 0.1227 0.0000 ( 19029 PWs)   bands (ev):

   -82.0600 -68.4329 -63.9394 -63.9253 -45.6063 -45.3635 -45.2078 -37.4943
   -37.4861 -37.4676 -28.4036 -28.3461 -28.3154 -28.2473 -28.2361 -28.1726
    -8.2979  -7.0458  -6.7984  -6.7397  -6.6024  -6.3995  -6.2003  -5.9405
     3.7638   3.9984   4.3903   4.4468   4.6047   5.0897   5.4104   5.5937
     6.0196   6.1781   6.2047   6.6543   6.9231   7.1167   7.2414   7.5074
     7.6193   7.9368   7.9478   8.1966   8.2389   8.4753   8.5531   8.9804
     9.0204   9.3107   9.4188   9.6918   9.8341  10.3266  10.8914  13.5020
    13.8036  14.0420  14.2995  14.7741  14.9598  15.8244  16.3950  16.6277
    16.8667  17.9460  18.7244  19.3009  19.5575  21.2407  21.4575  22.2124
    22.4453  23.0073  23.2994  23.5808  24.5747  24.6087  24.7400  25.2700

          k = 0.0000 0.1432 0.0000 ( 19013 PWs)   bands (ev):

   -82.0600 -68.4329 -63.9395 -63.9253 -45.6063 -45.3635 -45.2078 -37.4943
   -37.4861 -37.4676 -28.4035 -28.3458 -28.3153 -28.2473 -28.2364 -28.1727
    -8.2805  -7.0606  -6.8142  -6.7413  -6.6069  -6.3921  -6.1993  -5.9343
     3.7891   4.0263   4.4081   4.4579   4.5937   5.1079   5.4300   5.5661
     5.9605   6.1779   6.2075   6.6035   6.8799   7.1478   7.2516   7.5000
     7.6342   7.9244   7.9700   8.1980   8.2321   8.4620   8.5651   8.9337
     9.0265   9.3412   9.4205   9.6727   9.8169  10.3609  10.9012  13.5035
    13.7820  14.0537  14.3268  14.7748  14.9555  15.8190  16.3945  16.6322
    16.9465  17.9490  18.6644  19.2901  19.5618  21.1331  21.4878  22.2879
    22.4787  23.0218  23.3529  23.5584  24.5207  24.6100  24.6914  25.2897

          k = 0.0000 0.1636 0.0000 ( 19013 PWs)   bands (ev):

   -82.0600 -68.4329 -63.9395 -63.9253 -45.6063 -45.3635 -45.2078 -37.4943
   -37.4861 -37.4676 -28.4034 -28.3455 -28.3153 -28.2474 -28.2367 -28.1728
    -8.2608  -7.0805  -6.8265  -6.7432  -6.6114  -6.3857  -6.1984  -5.9277
     3.8177   4.0578   4.4276   4.4694   4.5831   5.1264   5.4476   5.5360
     5.8992   6.1539   6.2406   6.5555   6.8352   7.1721   7.2598   7.4934
     7.6511   7.8902   7.9895   8.2035   8.2438   8.4469   8.5775   8.8843
     9.0331   9.3722   9.4215   9.6525   9.7979  10.3971  10.9121  13.5013
    13.7670  14.0667  14.3516  14.7758  14.9505  15.8131  16.3942  16.6372
    17.0354  17.9523  18.6024  19.2758  19.5622  21.0265  21.5283  22.3682
    22.5026  23.0339  23.4151  23.5381  24.4514  24.6114  24.6413  25.3120

          k = 0.0000 0.1841 0.0000 ( 19019 PWs)   bands (ev):

   -82.0600 -68.4329 -63.9395 -63.9253 -45.6063 -45.3635 -45.2078 -37.4943
   -37.4861 -37.4676 -28.4033 -28.3452 -28.3153 -28.2474 -28.2371 -28.1729
    -8.2390  -7.1056  -6.8346  -6.7453  -6.6160  -6.3806  -6.1975  -5.9208
     3.8496   4.0928   4.4483   4.4804   4.5742   5.1445   5.4582   5.5043
     5.8425   6.1303   6.2762   6.5144   6.7913   7.1862   7.2645   7.4881
     7.6688   7.8426   8.0068   8.2132   8.2640   8.4320   8.5896   8.8350
     9.0401   9.4024   9.4214   9.6318   9.7775  10.4344  10.9239  13.4941
    13.7599  14.0805  14.3733  14.7772  14.9450  15.8070  16.3943  16.6425
    17.1322  17.9558  18.5397  19.2575  19.5589  20.9224  21.5791  22.4519
    22.5183  23.0429  23.4705  23.5348  24.3669  24.5909  24.6130  25.3345

          k = 0.0000 0.2045 0.0000 ( 19019 PWs)   bands (ev):

   -82.0600 -68.4329 -63.9395 -63.9253 -45.6063 -45.3635 -45.2078 -37.4943
   -37.4861 -37.4677 -28.4032 -28.3449 -28.3153 -28.2475 -28.2374 -28.1730
    -8.2154  -7.1353  -6.8390  -6.7476  -6.6204  -6.3768  -6.1966  -5.9137
     3.8844   4.1309   4.4695   4.4891   4.5686   5.1615   5.4552   5.4718
     5.7957   6.1089   6.3128   6.4825   6.7500   7.1875   7.2649   7.4847
     7.6860   7.7896   8.0235   8.2265   8.2823   8.4209   8.6009   8.7886
     9.0472   9.4198   9.4309   9.6115   9.7562  10.4719  10.9363  13.4820
    13.7610  14.0950  14.3914  14.7793  14.9390  15.8008  16.3947  16.6479
    17.2356  17.9593  18.4775  19.2341  19.5523  20.8221  21.6402  22.5273
    22.5379  23.0486  23.4753  23.5917  24.2690  24.5400  24.6149  25.3530

          k = 0.0000 0.2250 0.0000 ( 19009 PWs)   bands (ev):

   -82.0600 -68.4329 -63.9395 -63.9253 -45.6063 -45.3635 -45.2078 -37.4943
   -37.4861 -37.4677 -28.4031 -28.3446 -28.3153 -28.2476 -28.2377 -28.1731
    -8.1904  -7.1684  -6.8402  -6.7499  -6.6245  -6.3741  -6.1959  -5.9067
     3.9217   4.1715   4.4908   4.4936   4.5684   5.1769   5.4340   5.4395
     5.7596   6.0951   6.3483   6.4602   6.7140   7.1751   7.2606   7.4821
     7.7011   7.7365   8.0415   8.2421   8.2904   8.4180   8.6108   8.7473
     9.0545   9.4163   9.4572   9.5922   9.7346  10.5089  10.9490  13.4659
    13.7692  14.1098  14.4056  14.7821  14.9327  15.7945  16.3955  16.6535
    17.3446  17.9628  18.4171  19.2047  19.5429  20.7273  21.7108  22.5310
    22.6249  23.0507  23.4623  23.6753  24.1605  24.4880  24.6173  25.3625

          k = 0.0000 0.2455 0.0000 ( 18997 PWs)   bands (ev):

   -82.0600 -68.4329 -63.9395 -63.9253 -45.6063 -45.3635 -45.2078 -37.4943
   -37.4861 -37.4677 -28.4030 -28.3443 -28.3152 -28.2476 -28.2381 -28.1732
    -8.1643  -7.2037  -6.8390  -6.7524  -6.6282  -6.3726  -6.1953  -5.9000
     3.9610   4.2141   4.4929   4.5114   4.5744   5.1892   5.3969   5.4082
     5.7282   6.0958   6.3794   6.4470   6.6865   7.1498   7.2515   7.4772
     7.6872   7.7133   8.0623   8.2585   8.2859   8.4241   8.6189   8.7131
     9.0619   9.4107   9.4808   9.5745   9.7135  10.5446  10.9617  13.4475
    13.7827  14.1245  14.4157  14.7858  14.9261  15.7885  16.3967  16.6590
    17.4576  17.9663  18.3595  19.1683  19.5316  20.6394  21.7901  22.5309
    22.7117  23.0492  23.4503  23.7657  24.0444  24.4344  24.6203  25.3569

          k = 0.0000 0.2659 0.0000 ( 19005 PWs)   bands (ev):

   -82.0600 -68.4329 -63.9395 -63.9253 -45.6063 -45.3635 -45.2078 -37.4943
   -37.4861 -37.4677 -28.4029 -28.3441 -28.3152 -28.2477 -28.2384 -28.1733
    -8.1376  -7.2398  -6.8363  -6.7548  -6.6316  -6.3720  -6.1948  -5.8936
     4.0017   4.2579   4.4886   4.5307   4.5849   5.1961   5.3520   5.3784
     5.6945   6.1147   6.4019   6.4418   6.6717   7.1141   7.2376   7.4648
     7.6464   7.7221   8.0865   8.2736   8.2747   8.4333   8.6246   8.6875
     9.0694   9.4028   9.5018   9.5591   9.6934  10.5783  10.9740  13.4282
    13.7996  14.1388  14.4220  14.7901  14.9194  15.7828  16.3982  16.6643
    17.5732  17.9698  18.3058  19.1242  19.5192  20.5598  21.8770  22.5282
    22.7965  23.0446  23.4415  23.8593  23.9239  24.3793  24.6241  25.3320

          k = 0.0000 0.2864 0.0000 ( 18997 PWs)   bands (ev):

   -82.0600 -68.4329 -63.9395 -63.9253 -45.6063 -45.3635 -45.2078 -37.4943
   -37.4861 -37.4677 -28.4028 -28.3438 -28.3152 -28.2477 -28.2387 -28.1733
    -8.1110  -7.2755  -6.8326  -6.7571  -6.6345  -6.3721  -6.1943  -5.8878
     4.0430   4.3020   4.4827   4.5479   4.5975   5.1930   5.3096   5.3509
     5.6569   6.1492   6.4124   6.4438   6.6728   7.0706   7.2195   7.4397
     7.6184   7.7279   8.1134   8.2594   8.2897   8.4397   8.6278   8.6714
     9.0771   9.3928   9.5199   9.5462   9.6750  10.6091  10.9857  13.4094
    13.8183  14.1524  14.4249  14.7949  14.9129  15.7775  16.4000  16.6693
    17.6896  17.9735  18.2569  19.0719  19.5065  20.4897  21.9699  22.5239
    22.8771  23.0375  23.4363  23.8023  23.9542  24.3233  24.6291  25.2867

          k = 0.0000 0.3068 0.0000 ( 19013 PWs)   bands (ev):

   -82.0600 -68.4329 -63.9395 -63.9253 -45.6063 -45.3635 -45.2078 -37.4943
   -37.4861 -37.4677 -28.4027 -28.3436 -28.3152 -28.2478 -28.2390 -28.1734
    -8.0853  -7.3095  -6.8286  -6.7592  -6.6369  -6.3728  -6.1940  -5.8826
     4.0836   4.3451   4.4766   4.5622   4.6104   5.1739   5.2796   5.3263
     5.6188   6.1929   6.4113   6.4532   6.6889   7.0222   7.1980   7.4018
     7.6033   7.7314   8.1417   8.2467   8.3030   8.4411   8.6284   8.6640
     9.0850   9.3810   9.5353   9.5358   9.6590  10.6365  10.9963  13.3921
    13.8373  14.1647  14.4250  14.7999  14.9068  15.7729  16.4019  16.6737
    17.8041  17.9782  18.2138  19.0118  19.4943  20.4300  22.0670  22.5187
    22.9504  23.0290  23.4338  23.6840  24.0484  24.2675  24.6361  25.2234

          k = 0.0000 0.3273 0.0000 ( 19001 PWs)   bands (ev):

   -82.0600 -68.4329 -63.9395 -63.9253 -45.6063 -45.3635 -45.2078 -37.4943
   -37.4861 -37.4677 -28.4026 -28.3434 -28.3152 -28.2478 -28.2392 -28.1735
    -8.0616  -7.3406  -6.8247  -6.7611  -6.6389  -6.3737  -6.1937  -5.8782
     4.1221   4.3856   4.4710   4.5732   4.6225   5.1418   5.2616   5.3051
     5.5849   6.2379   6.4031   6.4714   6.7149   6.9712   7.1741   7.3572
     7.5966   7.7333   8.1694   8.2370   8.3139   8.4378   8.6268   8.6631
     9.0930   9.3685   9.5277   9.5477   9.6456  10.6598  11.0055  13.3770
    13.8551  14.1755  14.4231  14.8047  14.9013  15.7689  16.4037  16.6776
    17.9087  17.9895  18.1773  18.9450  19.4833  20.3812  22.1653  22.5136
    23.0111  23.0203  23.4334  23.5752  24.1392  24.2139  24.6463  25.1472

          k = 0.0000 0.3477 0.0000 ( 18991 PWs)   bands (ev):

   -82.0600 -68.4329 -63.9395 -63.9252 -45.6063 -45.3635 -45.2078 -37.4943
   -37.4861 -37.4677 -28.4026 -28.3432 -28.3152 -28.2479 -28.2394 -28.1735
    -8.0409  -7.3671  -6.8213  -6.7626  -6.6405  -6.3747  -6.1935  -5.8747
     4.1563   4.4216   4.4664   4.5801   4.6329   5.1084   5.2477   5.2880
     5.5584   6.2768   6.3927   6.4996   6.7443   6.9200   7.1499   7.3131
     7.5939   7.7343   8.1947   8.2304   8.3223   8.4322   8.6236   8.6657
     9.1005   9.3564   9.5217   9.5574   9.6352  10.6785  11.0130  13.3648
    13.8705  14.1844  14.4202  14.8089  14.8966  15.7657  16.4054  16.6807
    17.9612  18.0460  18.1481  18.8746  19.4741  20.3436  22.2606  22.5090
    23.0123  23.0512  23.4341  23.4856  24.1652  24.2226  24.6622  25.0635

          k = 0.0000 0.3682 0.0000 ( 18987 PWs)   bands (ev):

   -82.0600 -68.4329 -63.9395 -63.9252 -45.6063 -45.3635 -45.2078 -37.4943
   -37.4861 -37.4677 -28.4025 -28.3431 -28.3151 -28.2479 -28.2395 -28.1736
    -8.0248  -7.3876  -6.8186  -6.7637  -6.6415  -6.3755  -6.1934  -5.8722
     4.1838   4.4508   4.4630   4.5831   4.6409   5.0813   5.2347   5.2753
     5.5407   6.3046   6.3834   6.5358   6.7714   6.8713   7.1279   7.2759
     7.5930   7.7347   8.2151   8.2264   8.3280   8.4264   8.6199   8.6692
     9.1070   9.3462   9.5175   9.5643   9.6278  10.6921  11.0185  13.3558
    13.8825  14.1910  14.4173  14.8121  14.8931  15.7634  16.4067  16.6830
    17.9701  18.1269  18.1327  18.8066  19.4671  20.3170  22.3455  22.5054
    23.0060  23.0626  23.4272  23.4351  24.1253  24.2918  24.6870  24.9784

          k = 0.0000 0.3886 0.0000 ( 18997 PWs)   bands (ev):

   -82.0600 -68.4329 -63.9395 -63.9252 -45.6063 -45.3635 -45.2078 -37.4943
   -37.4861 -37.4677 -28.4025 -28.3430 -28.3151 -28.2479 -28.2396 -28.1736
    -8.0144  -7.4006  -6.8169  -6.7644  -6.6422  -6.3761  -6.1933  -5.8706
     4.2018   4.4609   4.4705   4.5833   4.6459   5.0643   5.2246   5.2675
     5.5310   6.3204   6.3772   6.5707   6.7910   6.8317   7.1119   7.2510
     7.5928   7.7348   8.2245   8.2287   8.3312   8.4222   8.6171   8.6720
     9.1114   9.3392   9.5151   9.5684   9.6234  10.7005  11.0219  13.3502
    13.8901  14.1950  14.4151  14.8142  14.8909  15.7620  16.4075  16.6844
    17.9726  18.1139  18.2007  18.7526  19.4628  20.3011  22.4078  22.5031
    23.0019  23.0512  23.4016  23.4360  24.0986  24.3384  24.7225  24.9011

          k = 0.0000 0.4091 0.0000 ( 18992 PWs)   bands (ev):

   -82.0600 -68.4329 -63.9395 -63.9252 -45.6063 -45.3635 -45.2078 -37.4943
   -37.4861 -37.4677 -28.4025 -28.3430 -28.3151 -28.2479 -28.2396 -28.1736
    -8.0108  -7.4051  -6.8163  -6.7647  -6.6424  -6.3763  -6.1933  -5.8701
     4.2082   4.4602   4.4775   4.5830   4.6476   5.0585   5.2207   5.2649
     5.5280   6.3254   6.3751   6.5865   6.7983   6.8150   7.1060   7.2422
     7.5928   7.7349   8.2239   8.2334   8.3322   8.4207   8.6160   8.6730
     9.1130   9.3367   9.5143   9.5698   9.6219  10.7032  11.0230  13.3484
    13.8927  14.1964  14.4143  14.8149  14.8902  15.7615  16.4078  16.6849
    17.9733  18.1095  18.2272  18.7309  19.4614  20.2959  22.4315  22.5023
    23.0006  23.0424  23.3958  23.4363  24.0892  24.3548  24.7485  24.8601

          k = 0.0250 0.4091 0.0003 ( 19004 PWs)   bands (ev):

   -82.0600 -68.4329 -63.9395 -63.9252 -45.6063 -45.3635 -45.2078 -37.4943
   -37.4861 -37.4677 -28.4025 -28.3430 -28.3152 -28.2479 -28.2396 -28.1736
    -8.0096  -7.4045  -6.8185  -6.7632  -6.6431  -6.3761  -6.1924  -5.8718
     4.2089   4.4559   4.4823   4.5848   4.6355   5.0674   5.1840   5.3018
     5.5340   6.2975   6.3879   6.5892   6.7822   6.8501   7.1072   7.2433
     7.5691   7.7591   8.2067   8.2456   8.3243   8.4162   8.6179   8.6799
     9.1090   9.3359   9.5035   9.5768   9.6239  10.7047  11.0193  13.3502
    13.8930  14.1950  14.4192  14.8138  14.8877  15.7610  16.4029  16.6882
    17.9760  18.1129  18.2347  18.7181  19.4735  20.2965  22.3752  22.5486
    22.9846  23.0421  23.3629  23.4771  24.0982  24.3571  24.7499  24.8648

          k = 0.0500 0.4091 0.0006 ( 19000 PWs)   bands (ev):

   -82.0600 -68.4329 -63.9395 -63.9252 -45.6063 -45.3635 -45.2078 -37.4943
   -37.4861 -37.4677 -28.4025 -28.3430 -28.3152 -28.2480 -28.2396 -28.1736
    -8.0060  -7.4030  -6.8245  -6.7593  -6.6453  -6.3753  -6.1899  -5.8769
     4.2110   4.4481   4.4918   4.5758   4.6176   5.0873   5.1394   5.3483
     5.5532   6.2414   6.4044   6.5964   6.7779   6.9046   7.1128   7.2455
     7.5253   7.8053   8.1815   8.2569   8.3027   8.4028   8.6234   8.6981
     9.0972   9.3331   9.4799   9.5879   9.6315  10.7087  11.0083  13.3556
    13.8940  14.1909  14.4336  14.8105  14.8805  15.7594  16.3891  16.6969
    17.9842  18.1230  18.2564  18.6826  19.5073  20.2982  22.2878  22.6038
    22.9435  23.0396  23.3296  23.5301  24.1259  24.3641  24.7540  24.8791

          k = 0.0750 0.4091 0.0009 ( 19010 PWs)   bands (ev):

   -82.0600 -68.4329 -63.9395 -63.9253 -45.6063 -45.3635 -45.2078 -37.4943
   -37.4861 -37.4677 -28.4025 -28.3429 -28.3153 -28.2480 -28.2396 -28.1736
    -8.0000  -7.4005  -6.8334  -6.7538  -6.6488  -6.3739  -6.1861  -5.8853
     4.2141   4.4378   4.5030   4.5310   4.6281   5.0767   5.1392   5.3842
     5.5874   6.1746   6.4180   6.6066   6.7879   6.9569   7.1288   7.2469
     7.4877   7.8485   8.1560   8.2619   8.2747   8.3811   8.6317   8.7224
     9.0786   9.3276   9.4512   9.5949   9.6469  10.7148  10.9905  13.3644
    13.8957  14.1844  14.4562  14.8050  14.8690  15.7568  16.3693  16.7086
    17.9976  18.1401  18.2908  18.6309  19.5569  20.3012  22.1939  22.6353
    22.8946  23.0344  23.3095  23.5725  24.1728  24.3761  24.7596  24.9038

          k = 0.1000 0.4091 0.0012 ( 19010 PWs)   bands (ev):

   -82.0600 -68.4329 -63.9395 -63.9253 -45.6063 -45.3635 -45.2078 -37.4943
   -37.4861 -37.4677 -28.4025 -28.3429 -28.3154 -28.2481 -28.2396 -28.1736
    -7.9918  -7.3969  -6.8443  -6.7475  -6.6537  -6.3717  -6.1811  -5.8967
     4.2176   4.4149   4.4801   4.5196   4.6503   5.0417   5.1745   5.4080
     5.6333   6.1058   6.4296   6.6186   6.8077   6.9887   7.1566   7.2544
     7.4689   7.8748   8.1372   8.2337   8.2733   8.3510   8.6418   8.7472
     9.0547   9.3178   9.4207   9.5996   9.6677  10.7222  10.9663  13.3763
    13.8981  14.1759  14.4857  14.7971  14.8542  15.7533  16.3464  16.7207
    18.0163  18.1642  18.3343  18.5717  19.6164  20.3055  22.0970  22.6240
    22.8621  23.0266  23.2999  23.5991  24.2362  24.3938  24.7653  24.9396

          k = 0.1250 0.4091 0.0015 ( 19006 PWs)   bands (ev):

   -82.0600 -68.4329 -63.9395 -63.9253 -45.6063 -45.3635 -45.2078 -37.4943
   -37.4861 -37.4677 -28.4025 -28.3429 -28.3155 -28.2482 -28.2396 -28.1737
    -7.9815  -7.3924  -6.8568  -6.7406  -6.6597  -6.3688  -6.1756  -5.9110
     4.2211   4.3601   4.4562   4.5383   4.6771   5.0119   5.2138   5.4234
     5.6822   6.0433   6.4398   6.6316   6.8281   7.0004   7.1698   7.2957
     7.4724   7.8744   8.1266   8.2039   8.2772   8.3130   8.6529   8.7674
     9.0284   9.3018   9.3919   9.6050   9.6911  10.7299  10.9366  13.3909
    13.9012  14.1656  14.5199  14.7862  14.8378  15.7489  16.3227  16.7314
    18.0399  18.1944  18.3745  18.5214  19.6813  20.3114  21.9989  22.5665
    22.8544  23.0165  23.2981  23.6107  24.3088  24.4190  24.7692  24.9868

          k = 0.1500 0.4091 0.0018 ( 18998 PWs)   bands (ev):

   -82.0600 -68.4329 -63.9395 -63.9253 -45.6063 -45.3635 -45.2078 -37.4943
   -37.4861 -37.4677 -28.4025 -28.3429 -28.3156 -28.2483 -28.2395 -28.1737
    -7.9693  -7.3869  -6.8706  -6.7335  -6.6667  -6.3649  -6.1698  -5.9277
     4.2235   4.2891   4.4455   4.5621   4.7056   4.9912   5.2521   5.4350
     5.7220   5.9984   6.4489   6.6445   6.8310   7.0127   7.1682   7.3657
     7.4951   7.8493   8.1044   8.1992   8.2631   8.2853   8.6636   8.7778
     9.0041   9.2787   9.3677   9.6126   9.7157  10.7367  10.9024  13.4076
    13.9050  14.1537  14.5563  14.7714  14.8227  15.7436  16.3000  16.7394
    18.0679  18.2291  18.3683  18.5265  19.7484  20.3191  21.9012  22.4828
    22.8547  23.0044  23.3025  23.6109  24.3770  24.4571  24.7687  25.0448

          k = 0.1750 0.4091 0.0021 ( 18988 PWs)   bands (ev):

   -82.0600 -68.4329 -63.9395 -63.9253 -45.6063 -45.3635 -45.2078 -37.4943
   -37.4861 -37.4677 -28.4025 -28.3428 -28.3158 -28.2485 -28.2395 -28.1737
    -7.9553  -7.3805  -6.8855  -6.7263  -6.6742  -6.3603  -6.1642  -5.9464
     4.2024   4.2380   4.4363   4.5905   4.7332   4.9818   5.2856   5.4464
     5.7383   5.9866   6.4572   6.6561   6.8031   7.0403   7.1744   7.4363
     7.5340   7.8115   8.0656   8.1988   8.2266   8.2918   8.6705   8.7754
     8.9871   9.2507   9.3487   9.6228   9.7408  10.7411  10.8653  13.4259
    13.9096  14.1402  14.5910  14.7525  14.8126  15.7375  16.2796  16.7442
    18.0993  18.2570  18.3244  18.5897  19.8156  20.3289  21.8047  22.3880
    22.8501  22.9903  23.3119  23.6043  24.4266  24.5127  24.7599  25.1130

          k = 0.2000 0.4091 0.0024 ( 19008 PWs)   bands (ev):

   -82.0600 -68.4329 -63.9395 -63.9253 -45.6063 -45.3635 -45.2078 -37.4943
   -37.4861 -37.4677 -28.4025 -28.3428 -28.3160 -28.2486 -28.2395 -28.1738
    -7.9400  -7.3732  -6.9011  -6.7195  -6.6816  -6.3550  -6.1594  -5.9664
     4.1313   4.2379   4.4259   4.6224   4.7574   4.9858   5.3091   5.4620
     5.7299   6.0117   6.4646   6.6615   6.7563   7.0721   7.1988   7.4940
     7.5810   7.7764   8.0235   8.1421   8.2377   8.3077   8.6657   8.7650
     8.9792   9.2223   9.3334   9.6350   9.7660  10.7406  10.8276  13.4451
    13.9151  14.1255  14.6174  14.7319  14.8110  15.7308  16.2624  16.7457
    18.1325  18.2232  18.3357  18.6737  19.8815  20.3413  21.7105  22.2886
    22.8363  22.9749  23.3238  23.5961  24.4629  24.5677  24.7417  25.1902

          k = 0.2250 0.4091 0.0027 ( 19018 PWs)   bands (ev):

   -82.0600 -68.4329 -63.9395 -63.9253 -45.6063 -45.3635 -45.2078 -37.4943
   -37.4861 -37.4677 -28.4025 -28.3428 -28.3162 -28.2488 -28.2394 -28.1738
    -7.9236  -7.3652  -6.9174  -6.7145  -6.6874  -6.3492  -6.1558  -5.9871
     4.0584   4.2431   4.4137   4.6550   4.7770   5.0041   5.3171   5.4855
     5.7150   6.0595   6.4709   6.6398   6.7234   7.0958   7.2403   7.5398
     7.6070   7.7656   7.9860   8.0799   8.2427   8.3336   8.6401   8.7585
     8.9780   9.1976   9.3206   9.6483   9.7909  10.7299  10.7949  13.4645
    13.9216  14.1098  14.6267  14.7146  14.8217  15.7236  16.2488  16.7438
    18.1422  18.1829  18.3808  18.7674  19.9451  20.3571  21.6192  22.1871
    22.8130  22.9587  23.3338  23.5927  24.4944  24.5855  24.7326  25.2747

          k = 0.2500 0.4091 0.0030 ( 19016 PWs)   bands (ev):

   -82.0600 -68.4329 -63.9395 -63.9254 -45.6063 -45.3635 -45.2078 -37.4943
   -37.4861 -37.4677 -28.4025 -28.3427 -28.3164 -28.2489 -28.2394 -28.1738
    -7.9064  -7.3563  -6.9340  -6.7141  -6.6886  -6.3430  -6.1541  -6.0074
     3.9887   4.2500   4.4001   4.6838   4.7946   5.0356   5.3086   5.5168
     5.7094   6.1173   6.4737   6.5816   6.7224   7.1130   7.2836   7.5613
     7.6149   7.7723   7.9610   8.0321   8.2398   8.3634   8.5971   8.7578
     8.9799   9.1788   9.3099   9.6615   9.8154  10.7027  10.7741  13.4835
    13.9290  14.0936  14.6154  14.7029  14.8457  15.7160  16.2392  16.7389
    18.0805  18.2134  18.4315  18.8668  20.0058  20.3769  21.5313  22.0847
    22.7816  22.9421  23.3353  23.6021  24.5229  24.5402  24.7563  25.3640

          k = 0.2750 0.4091 0.0033 ( 19014 PWs)   bands (ev):

   -82.0600 -68.4329 -63.9395 -63.9254 -45.6063 -45.3635 -45.2078 -37.4943
   -37.4861 -37.4677 -28.4025 -28.3427 -28.3166 -28.2491 -28.2394 -28.1739
    -7.8889  -7.3469  -6.9507  -6.7189  -6.6844  -6.3366  -6.1549  -6.0263
     3.9236   4.2582   4.3861   4.7020   4.8164   5.0774   5.2878   5.5518
     5.7204   6.1790   6.4583   6.5279   6.7306   7.1280   7.3120   7.5350
     7.6562   7.7479   7.9439   8.0313   8.2321   8.3917   8.5492   8.7572
     8.9832   9.1662   9.3020   9.6732   9.8391  10.6639  10.7609  13.5013
    13.9374  14.0773  14.5916  14.6928  14.8788  15.7083  16.2335  16.7313
    18.0148  18.2504  18.4838  18.9689  20.0632  20.4018  21.4472  21.9815
    22.7442  22.9258  23.3227  23.6305  24.4603  24.5497  24.7916  25.4545

          k = 0.3000 0.4091 0.0037 ( 19010 PWs)   bands (ev):

   -82.0600 -68.4329 -63.9395 -63.9254 -45.6063 -45.3635 -45.2078 -37.4943
   -37.4861 -37.4677 -28.4025 -28.3427 -28.3167 -28.2492 -28.2393 -28.1739
    -7.8714  -7.3369  -6.9673  -6.7258  -6.6780  -6.3303  -6.1592  -6.0423
     3.8638   4.2675   4.3730   4.7056   4.8460   5.1264   5.2609   5.5865
     5.7493   6.2404   6.4001   6.5152   6.7396   7.1415   7.3164   7.5001
     7.6576   7.7400   7.9297   8.0691   8.2220   8.4112   8.5116   8.7543
     8.9868   9.1585   9.2982   9.6821   9.8618  10.6217  10.7484  13.5175
    13.9468  14.0613  14.5631  14.6822  14.9155  15.7005  16.2316  16.7215
    17.9528  18.2871  18.5360  19.0711  20.1170  20.4329  21.3674  21.8778
    22.7032  22.9102  23.2956  23.6787  24.3734  24.5722  24.8244  25.5395

          k = 0.3250 0.4091 0.0040 ( 18992 PWs)   bands (ev):

   -82.0600 -68.4329 -63.9395 -63.9254 -45.6063 -45.3635 -45.2078 -37.4943
   -37.4861 -37.4677 -28.4025 -28.3426 -28.3169 -28.2494 -28.2393 -28.1739
    -7.8545  -7.3267  -6.9836  -6.7330  -6.6710  -6.3241  -6.1671  -6.0547
     3.8100   4.2764   4.3629   4.6965   4.8807   5.1788   5.2345   5.6191
     5.7938   6.2786   6.3483   6.5192   6.7470   7.1509   7.3011   7.4635
     7.5812   7.7991   7.9281   8.1022   8.2155   8.4093   8.5057   8.7499
     8.9891   9.1537   9.3001   9.6871   9.8831  10.5799  10.7343  13.5315
    13.9570  14.0464  14.5338  14.6710  14.9523  15.6930  16.2331  16.7099
    17.8959  18.3221  18.5867  19.1704  20.1673  20.4712  21.2923  21.7733
    22.6609  22.8962  23.2573  23.7432  24.2911  24.5901  24.8521  25.6072

          k = 0.3500 0.4091 0.0043 ( 19006 PWs)   bands (ev):

   -82.0600 -68.4329 -63.9395 -63.9254 -45.6063 -45.3635 -45.2078 -37.4943
   -37.4861 -37.4677 -28.4025 -28.3426 -28.3171 -28.2495 -28.2393 -28.1740
    -7.8385  -7.3164  -6.9991  -6.7398  -6.6643  -6.3183  -6.1783  -6.0632
     3.7626   4.2827   4.3592   4.6783   4.9162   5.1978   5.2475   5.6496
     5.8489   6.2239   6.3878   6.5266   6.7522   7.1493   7.2797   7.4129
     7.5088   7.8556   7.9438   8.1037   8.2202   8.3974   8.5283   8.7468
     8.9879   9.1502   9.3092   9.6872   9.9025  10.5406  10.7182  13.5431
    13.9678  14.0328  14.5056  14.6600  14.9869  15.6858  16.2373  16.6970
    17.8451  18.3543  18.6342  19.2636  20.2143  20.5174  21.2223  21.6681
    22.6196  22.8844  23.2118  23.8199  24.2208  24.6028  24.8748  25.6304

          k = 0.3750 0.4091 0.0046 ( 19004 PWs)   bands (ev):

   -82.0600 -68.4329 -63.9395 -63.9254 -45.6063 -45.3635 -45.2078 -37.4943
   -37.4861 -37.4677 -28.4025 -28.3426 -28.3172 -28.2496 -28.2393 -28.1740
    -7.8240  -7.3064  -7.0135  -6.7459  -6.6580  -6.3129  -6.1914  -6.0686
     3.7219   4.2837   4.3650   4.6535   4.9498   5.1768   5.3075   5.6779
     5.9054   6.1534   6.4486   6.5352   6.7550   7.1290   7.2549   7.3466
     7.4646   7.8885   7.9825   8.0787   8.2283   8.3942   8.5619   8.7480
     8.9813   9.1469   9.3259   9.6817   9.9197  10.5052  10.7011  13.5522
    13.9787  14.0211  14.4797  14.6497  15.0178  15.6793  16.2436  16.6837
    17.8011  18.3830  18.6774  19.3478  20.2584  20.5717  21.1581  21.5625
    22.5811  22.8757  23.1625  23.9027  24.1681  24.6100  24.8929  25.5692

          k = 0.4000 0.4091 0.0049 ( 19010 PWs)   bands (ev):

   -82.0600 -68.4329 -63.9395 -63.9255 -45.6063 -45.3635 -45.2078 -37.4943
   -37.4861 -37.4677 -28.4025 -28.3425 -28.3173 -28.2497 -28.2392 -28.1740
    -7.8114  -7.2970  -7.0264  -6.7511  -6.6526  -6.3082  -6.2046  -6.0718
     3.6882   4.2801   4.3800   4.6239   4.9798   5.1571   5.3734   5.7036
     5.9380   6.1098   6.5087   6.5443   6.7561   7.0935   7.1908   7.3165
     7.4394   7.9025   8.0171   8.0581   8.2324   8.3976   8.5981   8.7564
     8.9687   9.1433   9.3493   9.6707   9.9343  10.4748  10.6842  13.5589
    13.9889  14.0118  14.4568  14.6406  15.0442  15.6736  16.2510  16.6705
    17.7644  18.4074  18.7149  19.4199  20.2993  20.6341  21.1009  21.4571
    22.5473  22.8710  23.1129  23.9770  24.1448  24.6122  24.9069  25.4483

          k = 0.4250 0.4091 0.0052 ( 19008 PWs)   bands (ev):

   -82.0600 -68.4329 -63.9395 -63.9255 -45.6063 -45.3635 -45.2078 -37.4943
   -37.4861 -37.4677 -28.4025 -28.3425 -28.3174 -28.2498 -28.2392 -28.1740
    -7.8012  -7.2888  -7.0373  -6.7553  -6.6481  -6.3041  -6.2166  -6.0737
     3.6619   4.2749   4.4016   4.5914   5.0050   5.1407   5.4428   5.7253
     5.9070   6.1303   6.5527   6.5645   6.7573   7.0520   7.1004   7.3155
     7.4262   7.9087   7.9920   8.0919   8.2350   8.4008   8.6308   8.7736
     8.9503   9.1393   9.3772   9.6549   9.9460  10.4501  10.6690  13.5636
    13.9960  14.0067  14.4378  14.6332  15.0654  15.6689  16.2585  16.6586
    17.7354  18.4269  18.7455  19.4778  20.3361  20.7031  21.0524  21.3534
    22.5195  22.8708  23.0661  24.0100  24.1788  24.6102  24.9166  25.3156

          k = 0.4500 0.4091 0.0055 ( 18996 PWs)   bands (ev):

   -82.0600 -68.4329 -63.9395 -63.9255 -45.6063 -45.3635 -45.2078 -37.4943
   -37.4861 -37.4677 -28.4025 -28.3425 -28.3175 -28.2499 -28.2392 -28.1741
    -7.7936  -7.2824  -7.0456  -6.7583  -6.6448  -6.3010  -6.2260  -6.0747
     3.6429   4.2702   4.4277   4.5574   5.0248   5.1278   5.5144   5.7416
     5.8403   6.1819   6.5620   6.6086   6.7616   7.0109   7.0161   7.3166
     7.4230   7.9112   7.9602   8.1273   8.2376   8.4016   8.6554   8.7989
     8.9274   9.1355   9.4055   9.6365   9.9547  10.4319  10.6569  13.5666
    13.9952  14.0099  14.4235  14.6277  15.0808  15.6655  16.2650  16.6491
    17.7145  18.4412  18.7681  19.5198  20.3662  20.7754  21.0156  21.2548
    22.4988  22.8749  23.0259  24.0077  24.2548  24.6052  24.9209  25.1963

          k = 0.4750 0.4091 0.0058 ( 19008 PWs)   bands (ev):

   -82.0600 -68.4329 -63.9395 -63.9255 -45.6064 -45.3635 -45.2078 -37.4943
   -37.4861 -37.4677 -28.4025 -28.3425 -28.3176 -28.2499 -28.2392 -28.1741
    -7.7889  -7.2782  -7.0509  -6.7601  -6.6428  -6.2989  -6.2321  -6.0752
     3.6315   4.2671   4.4571   4.5231   5.0381   5.1190   5.5854   5.7471
     5.7728   6.2258   6.5696   6.6356   6.7716   6.9495   6.9820   7.3158
     7.4251   7.9119   7.9381   8.1501   8.2398   8.4010   8.6702   8.8275
     8.9022   9.1327   9.4283   9.6202   9.9601  10.4207  10.6491  13.5682
    13.9926  14.0143  14.4146  14.6243  15.0902  15.6633  16.2694  16.6428
    17.7019  18.4500  18.7820  19.5452  20.3864  20.8400  20.9952  21.1707
    22.4861  22.8814  22.9966  24.0008  24.3255  24.5987  24.9186  25.1121

          k = 0.5000 0.4091 0.0061 ( 19012 PWs)   bands (ev):

   -82.0600 -68.4329 -63.9395 -63.9255 -45.6064 -45.3635 -45.2078 -37.4943
   -37.4861 -37.4677 -28.4025 -28.3425 -28.3176 -28.2499 -28.2392 -28.1741
    -7.7873  -7.2768  -7.0527  -6.7608  -6.6421  -6.2982  -6.2342  -6.0754
     3.6277   4.2660   4.4853   4.4932   5.0429   5.1157   5.6316   5.7156
     5.7607   6.2430   6.5730   6.6437   6.7790   6.9234   6.9700   7.3152
     7.4267   7.9121   7.9301   8.1580   8.2406   8.4006   8.6751   8.8458
     8.8855   9.1316   9.4375   9.6133   9.9619  10.4169  10.6464  13.5687
    13.9916  14.0159  14.4116  14.6231  15.0934  15.6626  16.2710  16.6406
    17.6977  18.4529  18.7867  19.5537  20.3936  20.8692  20.9919  21.1312
    22.4818  22.8850  22.9852  23.9980  24.3555  24.5951  24.9152  25.0821

          k = 0.4750 0.3886 0.0058 ( 19014 PWs)   bands (ev):

   -82.0600 -68.4329 -63.9395 -63.9255 -45.6064 -45.3635 -45.2078 -37.4943
   -37.4861 -37.4677 -28.4025 -28.3425 -28.3176 -28.2499 -28.2392 -28.1741
    -7.7898  -7.2773  -7.0507  -6.7598  -6.6421  -6.2986  -6.2338  -6.0750
     3.6334   4.2651   4.4590   4.5251   5.0391   5.1184   5.5643   5.7348
     5.7975   6.2243   6.5617   6.6302   6.7841   6.9393   7.0003   7.3170
     7.4234   7.9063   7.9381   8.1488   8.2416   8.4056   8.6648   8.8284
     8.9062   9.1334   9.4278   9.6207   9.9602  10.4235  10.6506  13.5687
    13.9905  14.0135  14.4164  14.6217  15.0907  15.6628  16.2701  16.6425
    17.7061  18.4460  18.7823  19.5409  20.3729  20.8364  21.0013  21.1826
    22.4804  22.8794  22.9973  23.9968  24.3344  24.5782  24.9258  25.1092

          k = 0.4500 0.3682 0.0055 ( 19014 PWs)   bands (ev):

   -82.0600 -68.4329 -63.9395 -63.9255 -45.6063 -45.3635 -45.2078 -37.4943
   -37.4861 -37.4677 -28.4025 -28.3426 -28.3175 -28.2498 -28.2391 -28.1740
    -7.7977  -7.2784  -7.0450  -6.7572  -6.6422  -6.2996  -6.2327  -6.0737
     3.6504   4.2626   4.4343   4.5655   5.0288   5.1257   5.4589   5.7372
     5.8627   6.1794   6.5309   6.6092   6.7884   6.9805   7.0772   7.3231
     7.4167   7.8910   7.9598   8.1204   8.2440   8.4201   8.6392   8.8054
     8.9362   9.1379   9.4061   9.6366   9.9552  10.4411  10.6636  13.5686
    13.9867  14.0071  14.4299  14.6179  15.0830  15.6636  16.2676  16.6480
    17.7310  18.4251  18.7696  19.5024  20.3166  20.7950  21.0055  21.2991
    22.4777  22.8699  23.0235  23.9894  24.2927  24.5401  24.9280  25.1937

          k = 0.4250 0.3477 0.0052 ( 19015 PWs)   bands (ev):

   -82.0600 -68.4329 -63.9395 -63.9254 -45.6063 -45.3635 -45.2078 -37.4943
   -37.4861 -37.4677 -28.4026 -28.3428 -28.3175 -28.2497 -28.2390 -28.1740
    -7.8112  -7.2785  -7.0363  -6.7529  -6.6421  -6.3013  -6.2309  -6.0717
     3.6780   4.2593   4.4134   4.6091   5.0132   5.1363   5.3494   5.7339
     5.8972   6.1398   6.4930   6.5897   6.7848   7.0464   7.1595   7.3390
     7.4145   7.8728   7.9867   8.0734   8.2473   8.4416   8.6112   8.7851
     8.9610   9.1421   9.3846   9.6514   9.9473  10.4644  10.6868  13.5682
    13.9791  13.9993  14.4489  14.6129  15.0714  15.6651  16.2641  16.6563
    17.7708  18.3899  18.7501  19.4383  20.2405  20.7762  21.0032  21.4342
    22.4767  22.8641  23.0498  23.9697  24.2630  24.5007  24.9117  25.3035

          k = 0.4000 0.3273 0.0049 ( 19012 PWs)   bands (ev):

   -82.0600 -68.4329 -63.9395 -63.9254 -45.6063 -45.3635 -45.2078 -37.4943
   -37.4861 -37.4677 -28.4027 -28.3430 -28.3174 -28.2496 -28.2388 -28.1739
    -7.8311  -7.2757  -7.0256  -6.7471  -6.6419  -6.3038  -6.2284  -6.0691
     3.7151   4.2561   4.3942   4.6527   4.9937   5.1450   5.2479   5.7237
     5.8802   6.1381   6.4567   6.5680   6.7766   7.1313   7.2043   7.3654
     7.4412   7.8588   7.9821   8.0403   8.2519   8.4644   8.5946   8.7652
     8.9782   9.1415   9.3717   9.6603   9.9368  10.4870  10.7207  13.5676
    13.9661  13.9933  14.4683  14.6096  15.0575  15.6676  16.2603  16.6664
    17.8228  18.3415  18.7242  19.3524  20.1622  20.7778  20.9976  21.5672
    22.4820  22.8632  23.0682  23.9431  24.2438  24.4858  24.8879  25.3881

          k = 0.3750 0.3068 0.0046 ( 19012 PWs)   bands (ev):

   -82.0600 -68.4329 -63.9395 -63.9254 -45.6063 -45.3635 -45.2078 -37.4943
   -37.4861 -37.4677 -28.4027 -28.3432 -28.3173 -28.2495 -28.2386 -28.1738
    -7.8575  -7.2686  -7.0136  -6.7403  -6.6414  -6.3070  -6.2252  -6.0661
     3.7598   4.2539   4.3742   4.6917   4.9696   5.1074   5.2062   5.7001
     5.8397   6.1615   6.4252   6.5439   6.7677   7.1923   7.2398   7.3732
     7.5199   7.8510   7.9160   8.0581   8.2586   8.4808   8.6005   8.7439
     8.9870   9.1342   9.3699   9.6625   9.9235  10.5052  10.7631  13.5667
    13.9484  13.9894  14.4808  14.6124  15.0432  15.6714  16.2570  16.6771
    17.8817  18.2824  18.6909  19.2545  20.0909  20.7941  20.9899  21.6860
    22.4982  22.8653  23.0786  23.9204  24.2135  24.5175  24.8644  25.4037

          k = 0.3500 0.2864 0.0043 ( 19020 PWs)   bands (ev):

   -82.0600 -68.4329 -63.9395 -63.9254 -45.6063 -45.3635 -45.2078 -37.4943
   -37.4861 -37.4677 -28.4028 -28.3435 -28.3172 -28.2493 -28.2384 -28.1737
    -7.8901  -7.2562  -7.0008  -6.7327  -6.6405  -6.3112  -6.2210  -6.0629
     3.8095   4.2530   4.3515   4.7205   4.9322   5.0330   5.2309   5.6602
     5.8100   6.1839   6.4002   6.5203   6.7598   7.1704   7.3206   7.3883
     7.6082   7.8157   7.8877   8.0782   8.2664   8.4905   8.6293   8.7204
     8.9855   9.1249   9.3763   9.6589   9.9072  10.5180  10.8092  13.5658
    13.9273  13.9872  14.4811  14.6245  15.0309  15.6768  16.2551  16.6871
    17.9382  18.2171  18.6481  19.1603  20.0283  20.8215  20.9815  21.7817
    22.5282  22.8675  23.0888  23.9000  24.1780  24.5857  24.8514  25.3468

          k = 0.3250 0.2659 0.0040 ( 19019 PWs)   bands (ev):

   -82.0600 -68.4329 -63.9395 -63.9254 -45.6063 -45.3635 -45.2078 -37.4943
   -37.4861 -37.4677 -28.4029 -28.3438 -28.3170 -28.2491 -28.2381 -28.1736
    -7.9282  -7.2385  -6.9878  -6.7250  -6.6391  -6.3163  -6.2158  -6.0595
     3.8604   4.2513   4.3274   4.7339   4.8636   4.9942   5.2736   5.6160
     5.7939   6.1951   6.3809   6.5017   6.7529   7.1260   7.3383   7.4649
     7.6723   7.7692   7.9108   8.0996   8.2717   8.5019   8.6685   8.6968
     8.9715   9.1204   9.3860   9.6512   9.8880  10.5260  10.8532  13.5656
    13.9036  13.9861  14.4700  14.6429  15.0223  15.6843  16.2554  16.6956
    17.9751  18.1510  18.5997  19.0869  19.9728  20.8579  20.9739  21.8495
    22.5707  22.8689  23.1103  23.8663  24.1607  24.6556  24.8707  25.2488

          k = 0.3000 0.2455 0.0037 ( 19021 PWs)   bands (ev):

   -82.0600 -68.4329 -63.9395 -63.9254 -45.6063 -45.3635 -45.2078 -37.4943
   -37.4861 -37.4677 -28.4031 -28.3441 -28.3169 -28.2489 -28.2378 -28.1735
    -7.9705  -7.2159  -6.9745  -6.7178  -6.6370  -6.3222  -6.2098  -6.0561
     3.9076   4.2388   4.3122   4.7236   4.7867   4.9857   5.3239   5.5824
     5.7853   6.1957   6.3630   6.4905   6.7460   7.0680   7.3381   7.5362
     7.6916   7.7827   7.9409   8.1339   8.2716   8.5193   8.6599   8.7232
     8.9463   9.1237   9.3961   9.6410   9.8667  10.5297  10.8904  13.5665
    13.8780  13.9858  14.4519  14.6623  15.0186  15.6940  16.2582  16.7015
    17.9681  18.0876  18.5638  19.0449  19.9226  20.9013  20.9695  21.8904
    22.6179  22.8712  23.1509  23.8096  24.1733  24.6926  24.9451  25.1362

          k = 0.2750 0.2250 0.0033 ( 19022 PWs)   bands (ev):

   -82.0600 -68.4329 -63.9395 -63.9253 -45.6063 -45.3635 -45.2078 -37.4943
   -37.4861 -37.4677 -28.4032 -28.3445 -28.3167 -28.2487 -28.2375 -28.1734
    -8.0154  -7.1897  -6.9608  -6.7118  -6.6339  -6.3290  -6.2034  -6.0522
     3.9451   4.2070   4.3155   4.6679   4.7457   4.9930   5.3689   5.5690
     5.7843   6.1911   6.3438   6.4807   6.7383   7.0092   7.3410   7.5532
     7.7268   7.8272   7.9599   8.1884   8.2659   8.5405   8.6302   8.7689
     8.9145   9.1342   9.4058   9.6295   9.8446  10.5295  10.9175  13.5689
    13.8513  13.9859  14.4298  14.6794  15.0193  15.7060  16.2639  16.7041
    17.9029  18.0262  18.5598  19.0355  19.8761  20.9467  20.9744  21.9105
    22.6601  22.8769  23.2098  23.7387  24.2097  24.7074  24.9884  25.0879

          k = 0.2500 0.2045 0.0030 ( 19022 PWs)   bands (ev):

   -82.0600 -68.4329 -63.9395 -63.9253 -45.6063 -45.3635 -45.2078 -37.4943
   -37.4861 -37.4677 -28.4033 -28.3448 -28.3166 -28.2485 -28.2372 -28.1732
    -8.0617  -7.1612  -6.9462  -6.7077  -6.6297  -6.3365  -6.1974  -6.0473
     3.9665   4.1666   4.3265   4.5993   4.7211   5.0125   5.3952   5.5755
     5.7994   6.1862   6.3249   6.4604   6.7318   6.9657   7.3484   7.5428
     7.7681   7.8742   7.9728   8.2441   8.2669   8.5518   8.6110   8.8082
     8.8823   9.1511   9.4152   9.6182   9.8236  10.5249  10.9328  13.5725
    13.8253  13.9864  14.4056  14.6938  15.0226  15.7202  16.2725  16.7031
    17.7842  17.9750  18.5825  19.0550  19.8323  20.9689  21.0155  21.9177
    22.6914  22.8853  23.2734  23.6744  24.2598  24.7198  24.8858  25.1883

          k = 0.2250 0.1841 0.0027 ( 19023 PWs)   bands (ev):

   -82.0600 -68.4329 -63.9395 -63.9253 -45.6063 -45.3635 -45.2078 -37.4943
   -37.4861 -37.4677 -28.4034 -28.3451 -28.3164 -28.2483 -28.2369 -28.1731
    -8.1077  -7.1322  -6.9300  -6.7057  -6.6243  -6.3446  -6.1925  -6.0409
     3.9659   4.1291   4.3309   4.5494   4.6947   5.0424   5.4057   5.5810
     5.8421   6.1826   6.3088   6.4248   6.7317   6.9462   7.3591   7.5319
     7.7925   7.8970   8.0010   8.2399   8.3232   8.5371   8.6172   8.8235
     8.8709   9.1747   9.4229   9.6101   9.8054  10.5152  10.9365  13.5759
    13.8028  13.9872  14.3800  14.7063  15.0259  15.7364  16.2837  16.6985
    17.6324  17.9391  18.6146  19.0971  19.7905  20.9868  21.0754  21.9190
    22.7087  22.8938  23.3099  23.6488  24.3177  24.7214  24.8001  25.2412

          k = 0.2000 0.1636 0.0024 ( 19031 PWs)   bands (ev):

   -82.0600 -68.4329 -63.9395 -63.9253 -45.6063 -45.3635 -45.2078 -37.4943
   -37.4861 -37.4677 -28.4035 -28.3455 -28.3162 -28.2480 -28.2366 -28.1730
    -8.1523  -7.1048  -6.9111  -6.7058  -6.6181  -6.3536  -6.1896  -6.0325
     3.9419   4.0990   4.3211   4.5259   4.6673   5.0781   5.4140   5.5693
     5.9078   6.1793   6.2942   6.3907   6.7399   6.9477   7.3715   7.5250
     7.7988   7.8935   8.0383   8.2302   8.3696   8.5184   8.6222   8.8153
     8.8936   9.2043   9.4242   9.6107   9.7911  10.4994  10.9304  13.5761
    13.7880  13.9884  14.3535  14.7181  15.0269  15.7539  16.2972  16.6907
    17.4668  17.9172  18.6473  19.1524  19.7499  21.0155  21.1409  21.9198
    22.7067  22.9026  23.2962  23.6812  24.3809  24.6608  24.8011  25.2023

          k = 0.1750 0.1432 0.0021 ( 19031 PWs)   bands (ev):

   -82.0600 -68.4329 -63.9395 -63.9253 -45.6063 -45.3635 -45.2078 -37.4943
   -37.4861 -37.4677 -28.4036 -28.3458 -28.3161 -28.2478 -28.2363 -28.1729
    -8.1942  -7.0807  -6.8886  -6.7076  -6.6116  -6.3637  -6.1888  -6.0221
     3.9019   4.0713   4.3058   4.5173   4.6439   5.1106   5.4295   5.5443
     5.9749   6.1737   6.2768   6.3900   6.7542   6.9628   7.3836   7.5203
     7.7837   7.8856   8.0633   8.2221   8.3938   8.5047   8.6097   8.8250
     8.9249   9.2389   9.4128   9.6256   9.7811  10.4761  10.9178  13.5702
    13.7853  13.9902  14.3260  14.7297  15.0241  15.7718  16.3125  16.6806
    17.3000  17.9072  18.6802  19.2106  19.7095  21.0576  21.2105  21.9232
    22.6773  22.9145  23.2575  23.7375  24.4488  24.5972  24.8388  25.1198

          k = 0.1500 0.1227 0.0018 ( 19014 PWs)   bands (ev):

   -82.0600 -68.4329 -63.9395 -63.9253 -45.6063 -45.3635 -45.2078 -37.4943
   -37.4861 -37.4677 -28.4037 -28.3460 -28.3159 -28.2477 -28.2360 -28.1727
    -8.2325  -7.0612  -6.8625  -6.7104  -6.6052  -6.3748  -6.1901  -6.0101
     3.8562   4.0410   4.2969   4.5065   4.6305   5.1297   5.4473   5.5229
     6.0229   6.1640   6.2683   6.4346   6.7722   6.9855   7.3930   7.5146
     7.7485   7.8807   8.0711   8.2123   8.4077   8.4809   8.5934   8.8502
     8.9644   9.2756   9.3877   9.6539   9.7758  10.4442  10.9025  13.5573
    13.7960  13.9926  14.2977  14.7411  15.0175  15.7891  16.3290  16.6691
    17.1402  17.9059  18.7157  19.2632  19.6684  21.1133  21.2836  21.9309
    22.6181  22.9300  23.2212  23.7777  24.5106  24.5753  24.8847  25.0306

          k = 0.1250 0.1023 0.0015 ( 19015 PWs)   bands (ev):

   -82.0600 -68.4329 -63.9395 -63.9253 -45.6063 -45.3635 -45.2078 -37.4943
   -37.4861 -37.4677 -28.4037 -28.3463 -28.3158 -28.2475 -28.2358 -28.1726
    -8.2664  -7.0465  -6.8335  -6.7137  -6.5993  -6.3872  -6.1927  -5.9976
     3.8112   4.0089   4.2974   4.4874   4.6277   5.1298   5.4351   5.5414
     6.0481   6.1545   6.2784   6.5125   6.7939   7.0110   7.3937   7.5062
     7.7048   7.8759   8.0591   8.2015   8.4236   8.4459   8.5808   8.8772
     9.0131   9.3057   9.3580   9.6885   9.7767  10.4038  10.8882  13.5400
    13.8177  13.9954  14.2689  14.7516  15.0079  15.8048  16.3461  16.6571
    16.9940  17.9104  18.7556  19.3048  19.6268  21.1797  21.3603  21.9424
    22.5359  22.9451  23.1955  23.7848  24.5290  24.6350  24.9068  24.9757

          k = 0.1000 0.0818 0.0012 ( 19014 PWs)   bands (ev):

   -82.0600 -68.4329 -63.9394 -63.9254 -45.6063 -45.3635 -45.2078 -37.4943
   -37.4861 -37.4677 -28.4038 -28.3465 -28.3156 -28.2474 -28.2356 -28.1726
    -8.2950  -7.0360  -6.8036  -6.7169  -6.5945  -6.4006  -6.1960  -5.9855
     3.7709   3.9787   4.3048   4.4644   4.6309   5.1128   5.4050   5.5843
     6.0627   6.1482   6.3040   6.6025   6.8229   7.0359   7.3730   7.5007
     7.6655   7.8683   8.0199   8.1983   8.4174   8.4428   8.5664   8.9021
     9.0651   9.2907   9.3630   9.7189   9.7886  10.3567  10.8770  13.5219
    13.8464  13.9987  14.2400  14.7603  14.9971  15.8181  16.3626  16.6454
    16.8669  17.9175  18.8000  19.3325  19.5861  21.2507  21.4412  21.9558
    22.4411  22.9546  23.1808  23.7632  24.5444  24.7186  24.8474  25.0200

          k = 0.0750 0.0614 0.0009 ( 19023 PWs)   bands (ev):

   -82.0600 -68.4329 -63.9394 -63.9254 -45.6063 -45.3635 -45.2078 -37.4943
   -37.4861 -37.4677 -28.4038 -28.3466 -28.3155 -28.2472 -28.2355 -28.1725
    -8.3178  -7.0289  -6.7755  -6.7195  -6.5908  -6.4140  -6.1992  -5.9749
     3.7375   3.9534   4.3155   4.4428   4.6357   5.0852   5.3787   5.6242
     6.0762   6.1443   6.3421   6.6791   6.8675   7.0571   7.3254   7.5056
     7.6366   7.8583   7.9571   8.2033   8.4062   8.4622   8.5481   8.9267
     9.1083   9.2518   9.3860   9.7369   9.8152  10.3069  10.8696  13.5058
    13.8780  14.0018  14.2120  14.7665  14.9868  15.8284  16.3772  16.6348
    16.7637  17.9248  18.8468  19.3445  19.5505  21.3175  21.5267  21.9678
    22.3435  22.9557  23.1756  23.7277  24.5657  24.7709  24.8070  25.0871

          k = 0.0500 0.0409 0.0006 ( 19022 PWs)   bands (ev):

   -82.0600 -68.4329 -63.9394 -63.9254 -45.6063 -45.3635 -45.2078 -37.4943
   -37.4861 -37.4676 -28.4039 -28.3467 -28.3155 -28.2472 -28.2353 -28.1724
    -8.3344  -7.0244  -6.7524  -6.7207  -6.5886  -6.4260  -6.2018  -5.9667
     3.7127   3.9345   4.3261   4.4260   4.6401   5.0559   5.3606   5.6525
     6.0888   6.1420   6.3874   6.7246   6.9300   7.0706   7.2686   7.5179
     7.6148   7.8477   7.8878   8.2096   8.4125   8.4775   8.5282   8.9535
     9.1195   9.2332   9.4016   9.7460   9.8478  10.2605  10.8653  13.4934
    13.9079  14.0045  14.1867  14.7702  14.9788  15.8356  16.3886  16.6258
    16.6884  17.9309  18.8910  19.3414  19.5250  21.3714  21.6138  21.9729
    22.2539  22.9503  23.1765  23.6927  24.5856  24.7332  24.8499  25.1559

          k = 0.0250 0.0205 0.0003 ( 19027 PWs)   bands (ev):

   -82.0600 -68.4329 -63.9394 -63.9254 -45.6063 -45.3635 -45.2078 -37.4943
   -37.4861 -37.4676 -28.4039 -28.3468 -28.3154 -28.2471 -28.2353 -28.1724
    -8.3445  -7.0219  -6.7387  -6.7192  -6.5875  -6.4346  -6.2035  -5.9615
     3.6974   3.9230   4.3337   4.4157   4.6432   5.0339   5.3503   5.6686
     6.0976   6.1409   6.4271   6.7444   6.9912   7.0676   7.2296   7.5323
     7.5955   7.8317   7.8412   8.2134   8.4294   8.4804   8.5144   8.9827
     9.0926   9.2433   9.4082   9.7512   9.8741  10.2258  10.8633  13.4857
    13.9306  14.0061  14.1678  14.7718  14.9738  15.8398  16.3955  16.6188
    16.6439  17.9349  18.9246  19.3303  19.5117  21.4060  21.6902  21.9657
    22.1884  22.9436  23.1793  23.6679  24.5985  24.7061  24.8778  25.2089

          k = 0.0000 0.0000 0.0000 ( 19031 PWs)   bands (ev):

   -82.0600 -68.4329 -63.9394 -63.9254 -45.6063 -45.3635 -45.2078 -37.4943
   -37.4861 -37.4676 -28.4039 -28.3468 -28.3154 -28.2471 -28.2352 -28.1724
    -8.3479  -7.0211  -6.7351  -6.7174  -6.5872  -6.4378  -6.2041  -5.9597
     3.6923   3.9191   4.3364   4.4123   4.6443   5.0257   5.3471   5.6737
     6.1006   6.1406   6.4435   6.7496   7.0272   7.0504   7.2189   7.5409
     7.5846   7.8118   7.8373   8.2145   8.4423   8.4727   8.5122   9.0010
     9.0713   9.2509   9.4095   9.7531   9.8845  10.2126  10.8627  13.4830
    13.9393  14.0067  14.1605  14.7722  14.9721  15.8411  16.3978  16.6149
    16.6305  17.9362  18.9375  19.3242  19.5078  21.4179  21.7249  21.9565
    22.1646  22.9407  23.1806  23.6591  24.6027  24.6973  24.8866  25.2289

          k = 0.0001 0.0000 0.0232 ( 19034 PWs)   bands (ev):

   -82.0600 -68.4329 -63.9394 -63.9254 -45.6063 -45.3635 -45.2078 -37.4943
   -37.4861 -37.4676 -28.4039 -28.3470 -28.3153 -28.2475 -28.2348 -28.1724
    -8.3456  -7.0218  -6.7405  -6.7150  -6.5859  -6.4376  -6.2039  -5.9603
     3.6951   3.9227   4.3362   4.4153   4.6278   5.0390   5.3530   5.6653
     6.0457   6.1748   6.4673   6.7515   7.0217   7.0563   7.2147   7.5422
     7.5799   7.7968   7.8542   8.2053   8.4425   8.4745   8.5184   8.9974
     9.0684   9.2522   9.4114   9.7463   9.8801  10.2252  10.8629  13.4861
    13.9361  14.0079  14.1597  14.7708  14.9697  15.8411  16.3948  16.6173
    16.6374  17.9363  18.9179  19.3450  19.5083  21.4205  21.7215  21.9446
    22.1630  22.9413  23.1957  23.6565  24.5807  24.6973  24.9113  25.2258

          k = 0.0001 0.0000 0.0465 ( 19017 PWs)   bands (ev):

   -82.0600 -68.4329 -63.9394 -63.9254 -45.6063 -45.3635 -45.2078 -37.4943
   -37.4861 -37.4676 -28.4038 -28.3475 -28.3150 -28.2487 -28.2336 -28.1723
    -8.3386  -7.0240  -6.7518  -6.7129  -6.5818  -6.4372  -6.2036  -5.9623
     3.7036   3.9331   4.3359   4.4242   4.5861   5.0693   5.3722   5.6368
     5.9761   6.1967   6.5236   6.7601   7.0131   7.0675   7.2036   7.5354
     7.5749   7.7755   7.8821   8.1820   8.4417   8.4686   8.5446   8.9866
     9.0600   9.2561   9.4164   9.7278   9.8692  10.2591  10.8634  13.4952
    13.9274  14.0111  14.1576  14.7665  14.9628  15.8412  16.3858  16.6191
    16.6630  17.9364  18.8689  19.3976  19.5097  21.4277  21.7094  21.9129
    22.1584  22.9432  23.2391  23.6492  24.5296  24.6954  24.9707  25.2180

          k = 0.0002 0.0000 0.0697 ( 18997 PWs)   bands (ev):

   -82.0600 -68.4329 -63.9393 -63.9255 -45.6063 -45.3635 -45.2078 -37.4943
   -37.4861 -37.4676 -28.4037 -28.3484 -28.3145 -28.2503 -28.2319 -28.1722
    -8.3270  -7.0275  -6.7658  -6.7148  -6.5749  -6.4363  -6.2030  -5.9655
     3.7174   3.9496   4.3360   4.4379   4.5333   5.1001   5.4075   5.5822
     5.9253   6.2005   6.5788   6.7830   7.0108   7.0799   7.1883   7.5081
     7.5765   7.7585   7.9138   8.1521   8.4354   8.4547   8.5872   8.9687
     9.0468   9.2624   9.4237   9.7021   9.8555  10.3070  10.8642  13.5100
    13.9150  14.0146  14.1542  14.7594  14.9512  15.8411  16.3717  16.6189
    16.7078  17.9366  18.8058  19.4660  19.5122  21.4373  21.6832  21.8733
    22.1519  22.9465  23.3061  23.6382  24.4671  24.6886  25.0445  25.2102

          k = 0.0002 0.0000 0.0930 ( 19007 PWs)   bands (ev):

   -82.0600 -68.4329 -63.9393 -63.9255 -45.6063 -45.3635 -45.2078 -37.4943
   -37.4861 -37.4676 -28.4035 -28.3496 -28.3138 -28.2522 -28.2300 -28.1720
    -8.3108  -7.0321  -6.7815  -6.7219  -6.5652  -6.4349  -6.2019  -5.9699
     3.7361   3.9704   4.3373   4.4526   4.4833   5.1206   5.4529   5.5100
     5.8991   6.1935   6.6073   6.8183   7.0286   7.0927   7.1716   7.4692
     7.5693   7.7522   7.9481   8.1207   8.4135   8.4472   8.6363   8.9437
     9.0295   9.2706   9.4321   9.6745   9.8409  10.3623  10.8656  13.5302
    13.9006  14.0173  14.1498  14.7495  14.9352  15.8408  16.3531  16.6174
    16.7698  17.9368  18.7382  19.5140  19.5421  21.4435  21.6381  21.8401
    22.1463  22.9514  23.3911  23.6254  24.4005  24.6733  25.1166  25.2132

          k = 0.0003 0.0000 0.1162 ( 19008 PWs)   bands (ev):

   -82.0600 -68.4329 -63.9392 -63.9256 -45.6063 -45.3635 -45.2078 -37.4943
   -37.4861 -37.4676 -28.4033 -28.3510 -28.3129 -28.2542 -28.2280 -28.1718
    -8.2901  -7.0376  -6.7989  -6.7344  -6.5530  -6.4329  -6.2003  -5.9753
     3.7592   3.9921   4.3405   4.4263   4.4856   5.1285   5.3976   5.5373
     5.8906   6.1797   6.6118   6.8406   7.0808   7.1068   7.1553   7.4263
     7.5452   7.7583   7.9831   8.0908   8.3810   8.4443   8.6860   8.9125
     9.0097   9.2801   9.4406   9.6494   9.8262  10.4209  10.8675  13.5553
    13.8857  14.0185  14.1448  14.7367  14.9149  15.8403  16.3312  16.6144
    16.8473  17.9369  18.6707  19.5185  19.6174  21.4292  21.5867  21.8196
    22.1458  22.9581  23.4854  23.6164  24.3321  24.6458  25.1608  25.2519

          k = 0.0003 0.0000 0.1395 ( 19013 PWs)   bands (ev):

   -82.0600 -68.4329 -63.9391 -63.9257 -45.6063 -45.3635 -45.2078 -37.4943
   -37.4861 -37.4676 -28.4030 -28.3527 -28.3119 -28.2563 -28.2259 -28.1715
    -8.2650  -7.0439  -6.8184  -6.7515  -6.5386  -6.4303  -6.1980  -5.9817
     3.7861   4.0091   4.3462   4.3941   4.5124   5.1246   5.2999   5.6106
     5.8914   6.1611   6.6045   6.8423   7.1134   7.1271   7.1788   7.3867
     7.5065   7.7708   8.0126   8.0681   8.3444   8.4429   8.7315   8.8765
     8.9893   9.2898   9.4485   9.6290   9.8118  10.4801  10.8704  13.5843
    13.8716  14.0176  14.1396  14.7210  14.8907  15.8396  16.3068  16.6098
    16.9386  17.9370  18.6058  19.5234  19.6911  21.3677  21.5585  21.8084
    22.1559  22.9668  23.5524  23.6457  24.2629  24.6039  25.1801  25.3215

          k = 0.0004 0.0000 0.1627 ( 19014 PWs)   bands (ev):

   -82.0600 -68.4329 -63.9389 -63.9259 -45.6063 -45.3635 -45.2078 -37.4943
   -37.4861 -37.4676 -28.4027 -28.3546 -28.3108 -28.2584 -28.2238 -28.1713
    -8.2356  -7.0506  -6.8411  -6.7717  -6.5226  -6.4272  -6.1951  -5.9889
     3.8159   4.0144   4.3525   4.3855   4.5442   5.1048   5.2098   5.6861
     5.8952   6.1398   6.5931   6.8342   7.1056   7.1237   7.2615   7.3644
     7.4589   7.7824   8.0138   8.0738   8.3076   8.4438   8.7645   8.8419
     8.9711   9.2984   9.4554   9.6146   9.7984  10.5380  10.8742  13.6164
    13.8598  14.0144  14.1346  14.7021  14.8631  15.8386  16.2809  16.6034
    17.0422  17.9369  18.5449  19.5289  19.7608  21.2664  21.5488  21.8027
    22.1825  22.9775  23.5542  23.7497  24.1934  24.5476  25.1977  25.3941

          k = 0.0005 0.0000 0.1860 ( 19012 PWs)   bands (ev):

   -82.0600 -68.4329 -63.9388 -63.9260 -45.6063 -45.3635 -45.2078 -37.4943
   -37.4861 -37.4676 -28.4022 -28.3567 -28.3095 -28.2606 -28.2217 -28.1710
    -8.2020  -7.0575  -6.8687  -6.7927  -6.5054  -6.4240  -6.1916  -5.9968
     3.8477   4.0045   4.3555   4.4094   4.5798   5.0507   5.1536   5.7560
     5.8967   6.1192   6.5824   6.8239   7.0780   7.1269   7.2987   7.3735
     7.4349   7.7883   7.9940   8.0988   8.2744   8.4482   8.7582   8.8326
     8.9592   9.3041   9.4616   9.6065   9.7864  10.5932  10.8793  13.6504
    13.8515  14.0088  14.1300  14.6798  14.8328  15.8374  16.2544  16.5953
    17.1560  17.9368  18.4890  19.5350  19.8254  21.1458  21.5386  21.7999
    22.2299  22.9903  23.5422  23.8752  24.1249  24.4792  25.2151  25.4608

          k = 0.0005 0.0000 0.2092 ( 19003 PWs)   bands (ev):

   -82.0600 -68.4329 -63.9386 -63.9261 -45.6063 -45.3635 -45.2078 -37.4943
   -37.4861 -37.4676 -28.4017 -28.3588 -28.3082 -28.2628 -28.2196 -28.1708
    -8.1644  -7.0646  -6.9025  -6.8123  -6.4873  -6.4208  -6.1876  -6.0053
     3.8803   3.9824   4.3607   4.4571   4.6184   4.9707   5.1282   5.8111
     5.8930   6.1038   6.5763   6.8146   7.0460   7.1245   7.2967   7.3285
     7.5063   7.7863   7.9741   8.1205   8.2489   8.4568   8.7169   8.8413
     8.9591   9.3057   9.4675   9.6046   9.7758  10.6447  10.8859  13.6846
    13.8485  14.0009  14.1259  14.6535  14.8010  15.8363  16.2280  16.5853
    17.2784  17.9368  18.4385  19.5415  19.8837  21.0153  21.5220  21.7978
    22.2995  23.0054  23.5293  23.9939  24.0729  24.4014  25.2261  25.5193

          k = 0.0006 0.0000 0.2325 ( 19006 PWs)   bands (ev):

   -82.0600 -68.4329 -63.9385 -63.9263 -45.6063 -45.3635 -45.2078 -37.4943
   -37.4861 -37.4676 -28.4011 -28.3611 -28.3068 -28.2650 -28.2177 -28.1705
    -8.1229  -7.0717  -6.9430  -6.8297  -6.4687  -6.4177  -6.1832  -6.0141
     3.9118   3.9546   4.3693   4.5198   4.6578   4.8938   5.1116   5.8293
     5.8962   6.0971   6.5771   6.8078   7.0143   7.1175   7.2385   7.3264
     7.5834   7.7771   7.9593   8.1331   8.2354   8.4688   8.6677   8.8433
     8.9711   9.3025   9.4737   9.6079   9.7667  10.6912  10.8947  13.7169
    13.8525  13.9912  14.1222  14.6224  14.7690  15.8352  16.2023  16.5738
    17.4072  17.9370  18.3943  19.5479  19.9352  20.8794  21.5002  21.7951
    22.3897  23.0227  23.5179  23.9708  24.1699  24.3169  25.2218  25.5694

          k = 0.0006 0.0000 0.2557 ( 19000 PWs)   bands (ev):

   -82.0600 -68.4329 -63.9383 -63.9265 -45.6063 -45.3635 -45.2078 -37.4943
   -37.4861 -37.4676 -28.4004 -28.3634 -28.3053 -28.2671 -28.2158 -28.1702
    -8.0778  -7.0788  -6.9891  -6.8447  -6.4501  -6.4146  -6.1787  -6.0231
     3.9230   3.9434   4.3807   4.5887   4.6899   4.8399   5.0987   5.8018
     5.9105   6.0991   6.5850   6.8042   6.9879   7.1078   7.1586   7.3476
     7.6371   7.7673   7.9528   8.1349   8.2368   8.4807   8.6180   8.8410
     8.9889   9.2953   9.4809   9.6145   9.7591  10.7317  10.9061  13.7453
    13.8653  13.9802  14.1187  14.5863  14.7382  15.8343  16.1780  16.5609
    17.5398  17.9380  18.3571  19.5534  19.9790  20.7412  21.4766  21.7905
    22.4972  23.0427  23.5088  23.9048  24.2285  24.3167  25.1939  25.6121

          k = 0.0007 0.0000 0.2790 ( 19003 PWs)   bands (ev):

   -82.0600 -68.4329 -63.9381 -63.9266 -45.6063 -45.3635 -45.2078 -37.4943
   -37.4861 -37.4676 -28.3996 -28.3658 -28.3037 -28.2693 -28.2141 -28.1700
    -8.0292  -7.0869  -7.0389  -6.8576  -6.4323  -6.4113  -6.1745  -6.0321
     3.8971   3.9661   4.3947   4.6417   4.7029   4.8417   5.0901   5.7544
     5.9112   6.1075   6.5955   6.8041   6.9709   7.0747   7.0973   7.3765
     7.6516   7.7678   7.9557   8.1293   8.2518   8.4851   8.5748   8.8396
     9.0071   9.2864   9.4890   9.6216   9.7534  10.7650  10.9207  13.7693
    13.8865  13.9687  14.1155  14.5450  14.7096  15.8336  16.1554  16.5471
    17.6719  17.9413  18.3284  19.5567  20.0143  20.6036  21.4550  21.7834
    22.6178  23.0660  23.5028  23.8382  24.1383  24.4708  25.1380  25.6484

          k = 0.0007 0.0000 0.3022 ( 19004 PWs)   bands (ev):

   -82.0600 -68.4329 -63.9380 -63.9268 -45.6063 -45.3635 -45.2078 -37.4943
   -37.4861 -37.4676 -28.3987 -28.3681 -28.3021 -28.2715 -28.2125 -28.1698
    -7.9774  -7.1082  -7.0792  -6.8689  -6.4183  -6.4048  -6.1709  -6.0408
     3.8742   3.9819   4.4113   4.6303   4.7438   4.8983   5.0881   5.6984
     5.8925   6.1189   6.5998   6.8058   6.9648   6.9957   7.0885   7.4107
     7.6341   7.7747   7.9635   8.1214   8.2760   8.4684   8.5524   8.8403
     9.0232   9.2787   9.4976   9.6263   9.7506  10.7909  10.9385  13.7906
    13.9133  13.9574  14.1124  14.4994  14.6837  15.8333  16.1349  16.5328
    17.7936  17.9520  18.3120  19.5554  20.0398  20.4708  21.4386  21.7729
    22.7463  23.0940  23.5005  23.7740  24.0487  24.6294  25.0549  25.6795

          k = 0.0008 0.0000 0.3255 ( 19019 PWs)   bands (ev):

   -82.0601 -68.4329 -63.9378 -63.9269 -45.6063 -45.3635 -45.2078 -37.4943
   -37.4861 -37.4676 -28.3978 -28.3705 -28.3004 -28.2736 -28.2110 -28.1696
    -7.9227  -7.1610  -7.0906  -6.8785  -6.4128  -6.3910  -6.1681  -6.0488
     3.8564   3.9877   4.4302   4.6007   4.7909   4.9805   5.0961   5.6396
     5.8577   6.1290   6.5870   6.8038   6.9309   6.9703   7.0867   7.4478
     7.6054   7.7776   7.9677   8.1144   8.3002   8.4362   8.5520   8.8419
     9.0360   9.2753   9.5059   9.6260   9.7517  10.8099  10.9583  13.8118
    13.9379  13.9507  14.1098  14.4510  14.6605  15.8331  16.1167  16.5186
    17.8753  17.9894  18.3167  19.5454  20.0538  20.3493  21.4300  21.7587
    22.8746  23.1309  23.5022  23.7145  23.9616  24.7900  24.9496  25.7062

          k = 0.0009 0.0000 0.3487 ( 19018 PWs)   bands (ev):

   -82.0601 -68.4329 -63.9377 -63.9271 -45.6063 -45.3635 -45.2078 -37.4943
   -37.4861 -37.4676 -28.3967 -28.3727 -28.2987 -28.2757 -28.2098 -28.1695
    -7.8652  -7.2217  -7.0961  -6.8866  -6.4106  -6.3752  -6.1666  -6.0558
     3.8442   3.9828   4.4501   4.5789   4.8285   5.0696   5.1189   5.5835
     5.8124   6.1327   6.5488   6.7951   6.8974   6.9724   7.0998   7.4820
     7.5798   7.7767   7.9631   8.1094   8.3017   8.4222   8.5600   8.8422
     9.0447   9.2786   9.5133   9.6198   9.7564  10.8235  10.9784  13.8346
    13.9341  13.9716  14.1084  14.4013  14.6402  15.8332  16.1011  16.5051
    17.9019  18.0499  18.3603  19.5203  20.0527  20.2493  21.4305  21.7403
    22.9874  23.1870  23.5075  23.6642  23.8788  24.8193  24.9590  25.7288

          k = 0.0009 0.0000 0.3720 ( 19019 PWs)   bands (ev):

   -82.0601 -68.4329 -63.9376 -63.9272 -45.6063 -45.3635 -45.2078 -37.4943
   -37.4861 -37.4676 -28.3956 -28.3748 -28.2970 -28.2777 -28.2087 -28.1693
    -7.8054  -7.2851  -7.1002  -6.8932  -6.4094  -6.3604  -6.1663  -6.0616
     3.8381   3.9689   4.4693   4.5671   4.8577   5.1349   5.1732   5.5388
     5.7623   6.1240   6.4902   6.7891   6.8854   6.9664   7.1300   7.4923
     7.5812   7.7741   7.9497   8.1061   8.2690   8.4394   8.5721   8.8402
     9.0489   9.2893   9.5188   9.6089   9.7634  10.8329  10.9970  13.8592
    13.9262  13.9934  14.1091  14.3524  14.6229  15.8334  16.0881  16.4929
    17.9092  18.0861  18.4528  19.4725  20.0331  20.1834  21.4403  21.7178
    23.0657  23.2727  23.5104  23.6364  23.8024  24.6825  25.1205  25.7466

          k = 0.0010 0.0000 0.3952 ( 19020 PWs)   bands (ev):

   -82.0601 -68.4329 -63.9375 -63.9273 -45.6063 -45.3635 -45.2078 -37.4943
   -37.4861 -37.4676 -28.3945 -28.3766 -28.2953 -28.2796 -28.2079 -28.1692
    -7.7435  -7.3502  -7.1032  -6.8984  -6.4086  -6.3476  -6.1671  -6.0660
     3.8380   3.9488   4.4856   4.5633   4.8818   5.1785   5.2337   5.5200
     5.7161   6.0944   6.4300   6.7919   6.8811   6.9543   7.1693   7.4718
     7.6168   7.7720   7.9290   8.1045   8.2245   8.4648   8.5866   8.8362
     9.0491   9.3058   9.5216   9.5962   9.7708  10.8395  11.0126  13.8842
    13.9209  14.0073  14.1134  14.3066  14.6089  15.8337  16.0779  16.4827
    17.9119  18.0983  18.5775  19.3969  20.0036  20.1501  21.4580  21.6919
    23.1136  23.3684  23.4966  23.6567  23.7363  24.5351  25.2799  25.7572

          k = 0.0010 0.0000 0.4185 ( 19022 PWs)   bands (ev):

   -82.0601 -68.4329 -63.9374 -63.9273 -45.6063 -45.3635 -45.2078 -37.4943
   -37.4861 -37.4676 -28.3936 -28.3782 -28.2938 -28.2813 -28.2073 -28.1692
    -7.6799  -7.4162  -7.1054  -6.9021  -6.4081  -6.3376  -6.1685  -6.0690
     3.8434   3.9265   4.4978   4.5635   4.9026   5.2186   5.2580   5.5311
     5.6928   6.0389   6.3861   6.8014   6.8771   6.9416   7.2083   7.4446
     7.6608   7.7723   7.9026   8.1057   8.1821   8.4857   8.6010   8.8318
     9.0469   9.3243   9.5206   9.5850   9.7770  10.8437  11.0244  13.9019
    13.9247  14.0117  14.1217  14.2669  14.5984  15.8340  16.0705  16.4750
    17.9131  18.1007  18.7147  19.2960  19.9804  20.1335  21.4810  21.6642
    23.1456  23.4389  23.4761  23.6586  23.7566  24.3831  25.4305  25.7552

          k = 0.0011 0.0000 0.4417 ( 19026 PWs)   bands (ev):

   -82.0601 -68.4329 -63.9373 -63.9274 -45.6063 -45.3635 -45.2078 -37.4943
   -37.4861 -37.4676 -28.3929 -28.3792 -28.2927 -28.2826 -28.2069 -28.1691
    -7.6150  -7.4827  -7.1067  -6.9043  -6.4078  -6.3311  -6.1698  -6.0707
     3.8526   3.9060   4.5055   4.5647   4.9186   5.2368   5.2702   5.5345
     5.7194   5.9675   6.3629   6.8127   6.8710   6.9329   7.2386   7.4218
     7.6969   7.7783   7.8738   8.1114   8.1482   8.4985   8.6117   8.8284
     9.0444   9.3393   9.5170   9.5782   9.7812  10.8461  11.0317  13.9045
    13.9417  14.0083  14.1314  14.2376  14.5920  15.8342  16.0661  16.4701
    17.9137  18.1003  18.8490  19.1821  19.9684  20.1246  21.5033  21.6396
    23.1661  23.4411  23.5074  23.6065  23.8725  24.2357  25.5630  25.7304

          k = 0.0011 0.0000 0.4650 ( 19016 PWs)   bands (ev):

   -82.0601 -68.4329 -63.9373 -63.9274 -45.6063 -45.3635 -45.2078 -37.4943
   -37.4861 -37.4676 -28.3926 -28.3796 -28.2922 -28.2831 -28.2068 -28.1691
    -7.5499  -7.5483  -7.1071  -6.9050  -6.4077  -6.3289  -6.1703  -6.0713
     3.8589   3.8958   4.5081   4.5652   4.9248   5.2354   5.2812   5.5291
     5.7524   5.9244   6.3560   6.8184   6.8672   6.9299   7.2507   7.4123
     7.7107   7.7856   7.8575   8.1223   8.1273   8.5028   8.6157   8.8272
     9.0433   9.3452   9.5149   9.5761   9.7826  10.8469  11.0342  13.9042
    13.9512  14.0046  14.1363  14.2261  14.5898  15.8343  16.0646  16.4685
    17.9138  18.0999  18.9307  19.1069  19.9649  20.1217  21.5138  21.6285
    23.1735  23.4338  23.5473  23.5642  23.9553  24.1451  25.6521  25.6817

          k = 0.0261 0.0205 0.4653 ( 19021 PWs)   bands (ev):

   -82.0601 -68.4329 -63.9373 -63.9274 -45.6063 -45.3635 -45.2078 -37.4943
   -37.4861 -37.4676 -28.3926 -28.3796 -28.2922 -28.2831 -28.2068 -28.1691
    -7.5515  -7.5433  -7.1061  -6.9055  -6.4101  -6.3318  -6.1703  -6.0708
     3.8613   3.9023   4.5027   4.5674   4.9208   5.2371   5.2733   5.5474
     5.7498   5.9316   6.3537   6.7958   6.8527   6.9598   7.2393   7.4042
     7.6998   7.7852   7.8612   8.1268   8.1420   8.5012   8.6213   8.8261
     9.0370   9.3452   9.5134   9.5770   9.7845  10.8454  11.0352  13.8860
    13.9586  14.0142  14.1406  14.2311  14.5885  15.8326  16.0674  16.4695
    17.9097  18.0988  18.9355  19.1132  19.9549  20.1316  21.4953  21.6269
    23.1513  23.4388  23.4892  23.6255  23.9432  24.1793  25.6333  25.7083

          k = 0.0511 0.0409 0.4656 ( 19018 PWs)   bands (ev):

   -82.0601 -68.4329 -63.9373 -63.9274 -45.6063 -45.3635 -45.2078 -37.4943
   -37.4861 -37.4676 -28.3927 -28.3797 -28.2922 -28.2831 -28.2068 -28.1691
    -7.5503  -7.5343  -7.1032  -6.9068  -6.4176  -6.3397  -6.1706  -6.0696
     3.8694   3.9204   4.4863   4.5751   4.9098   5.2329   5.2669   5.5878
     5.7467   5.9525   6.3451   6.7471   6.8402   7.0002   7.2039   7.3865
     7.6784   7.7769   7.8755   8.1311   8.1835   8.4979   8.6362   8.8230
     9.0204   9.3439   9.5107   9.5796   9.7886  10.8408  11.0384  13.8540
    13.9634  14.0354  14.1555  14.2454  14.5846  15.8275  16.0757  16.4723
    17.8993  18.0946  18.9420  19.1380  19.9321  20.1548  21.4451  21.6194
    23.0939  23.3735  23.4995  23.6918  23.9424  24.2469  25.6090  25.7534

          k = 0.0761 0.0614 0.4659 ( 19017 PWs)   bands (ev):

   -82.0601 -68.4329 -63.9374 -63.9274 -45.6063 -45.3635 -45.2078 -37.4943
   -37.4861 -37.4676 -28.3928 -28.3798 -28.2923 -28.2831 -28.2067 -28.1690
    -7.5458  -7.5225  -7.0990  -6.9084  -6.4309  -6.3507  -6.1716  -6.0679
     3.8840   3.9475   4.4598   4.5889   4.8946   5.2126   5.2821   5.6179
     5.7590   5.9869   6.3277   6.7035   6.8247   7.0267   7.1477   7.3699
     7.6582   7.7623   7.8959   8.1368   8.2300   8.4960   8.6547   8.8188
     9.0003   9.3383   9.5100   9.5840   9.7913  10.8331  11.0439  13.8217
    13.9629  14.0554  14.1815  14.2685  14.5787  15.8191  16.0897  16.4769
    17.8875  18.0861  18.9348  19.1920  19.9078  20.1827  21.3721  21.6041
    23.0139  23.2687  23.5355  23.7604  23.9826  24.3108  25.5827  25.8017

          k = 0.1011 0.0818 0.4662 ( 19031 PWs)   bands (ev):

   -82.0601 -68.4329 -63.9374 -63.9274 -45.6063 -45.3635 -45.2078 -37.4943
   -37.4861 -37.4676 -28.3929 -28.3799 -28.2923 -28.2832 -28.2066 -28.1690
    -7.5381  -7.5079  -7.0943  -6.9094  -6.4505  -6.3628  -6.1736  -6.0659
     3.9041   3.9813   4.4267   4.6080   4.8788   5.1892   5.3079   5.6153
     5.7958   6.0364   6.3021   6.6741   6.7997   7.0314   7.0896   7.3593
     7.6424   7.7471   7.9147   8.1430   8.2670   8.4988   8.6709   8.8125
     8.9866   9.3269   9.5116   9.5905   9.7899  10.8223  11.0517  13.7919
    13.9599  14.0717  14.2130  14.2999  14.5715  15.8080  16.1092  16.4831
    17.8781  18.0740  18.9074  19.2759  19.8893  20.2113  21.2845  21.5817
    22.9192  23.1518  23.5654  23.8355  24.0603  24.3529  25.5435  25.7878

          k = 0.1261 0.1023 0.4665 ( 19024 PWs)   bands (ev):

   -82.0601 -68.4329 -63.9374 -63.9274 -45.6063 -45.3635 -45.2078 -37.4943
   -37.4861 -37.4676 -28.3931 -28.3800 -28.2924 -28.2832 -28.2064 -28.1689
    -7.5278  -7.4910  -7.0902  -6.9086  -6.4758  -6.3747  -6.1768  -6.0642
     3.9275   4.0200   4.3914   4.6299   4.8656   5.1663   5.3368   5.5947
     5.8330   6.1022   6.2761   6.6511   6.7662   7.0013   7.0636   7.3539
     7.6299   7.7327   7.9262   8.1500   8.2900   8.5043   8.6845   8.7995
     8.9886   9.3099   9.5137   9.5976   9.7845  10.8086  11.0607  13.7653
    13.9562  14.0859  14.2445  14.3371  14.5642  15.7943  16.1340  16.4904
    17.8716  18.0618  18.8631  19.3819  19.8808  20.2395  21.1896  21.5542
    22.8148  23.0317  23.5839  23.9185  24.1622  24.3637  25.4720  25.7312

          k = 0.1511 0.1227 0.4668 ( 19023 PWs)   bands (ev):

   -82.0601 -68.4329 -63.9374 -63.9274 -45.6063 -45.3635 -45.2078 -37.4944
   -37.4861 -37.4676 -28.3932 -28.3802 -28.2925 -28.2832 -28.2063 -28.1688
    -7.5157  -7.4719  -7.0880  -6.9053  -6.5049  -6.3862  -6.1811  -6.0632
     3.9507   4.0622   4.3589   4.6502   4.8571   5.1442   5.3602   5.5765
     5.8529   6.1756   6.2640   6.6152   6.7409   6.9574   7.0644   7.3516
     7.6180   7.7176   7.9278   8.1586   8.3036   8.5053   8.7011   8.7775
     9.0055   9.2880   9.5147   9.6010   9.7787  10.7921  11.0687  13.7425
    13.9526  14.0984  14.2750  14.3752  14.5588  15.7786  16.1632  16.4987
    17.8647  18.0546  18.8084  19.5014  19.8843  20.2677  21.0938  21.5235
    22.7052  22.9142  23.5882  24.0081  24.2692  24.3454  25.3714  25.7216

          k = 0.1761 0.1432 0.4671 ( 19025 PWs)   bands (ev):

   -82.0601 -68.4329 -63.9375 -63.9274 -45.6063 -45.3635 -45.2078 -37.4944
   -37.4861 -37.4677 -28.3934 -28.3804 -28.2926 -28.2833 -28.2061 -28.1686
    -7.5025  -7.4508  -7.0885  -6.8993  -6.5353  -6.3975  -6.1863  -6.0631
     3.9698   4.1058   4.3345   4.6635   4.8521   5.1243   5.3685   5.5761
     5.8546   6.2148   6.2989   6.5695   6.7312   6.9171   7.0812   7.3503
     7.6034   7.6993   7.9220   8.1696   8.3141   8.4997   8.7197   8.7534
     9.0272   9.2620   9.5141   9.5943   9.7786  10.7732  11.0724  13.7241
    13.9491  14.1090  14.3045  14.4096  14.5575  15.7613  16.1959  16.5074
    17.8514  18.0570  18.7528  19.6259  19.9010  20.2972  21.0028  21.4907
    22.5940  22.8023  23.5766  24.0992  24.2694  24.4052  25.2702  25.7497

          k = 0.2011 0.1636 0.4674 ( 19024 PWs)   bands (ev):

   -82.0601 -68.4329 -63.9375 -63.9274 -45.6063 -45.3635 -45.2078 -37.4944
   -37.4861 -37.4677 -28.3936 -28.3807 -28.2927 -28.2834 -28.2059 -28.1685
    -7.4891  -7.4281  -7.0915  -6.8922  -6.5638  -6.4087  -6.1921  -6.0644
     3.9821   4.1468   4.3245   4.6664   4.8429   5.1103   5.3631   5.5920
     5.8490   6.2151   6.3612   6.5479   6.7231   6.8862   7.1128   7.3481
     7.5821   7.6778   7.9161   8.1814   8.3236   8.4932   8.7060   8.7613
     9.0436   9.2329   9.5121   9.5749   9.7875  10.7523  11.0683  13.7107
    13.9448  14.1177  14.3316  14.4381  14.5627  15.7430  16.2304  16.5165
    17.8283  18.0666  18.7087  19.7436  19.9351  20.3301  20.9216  21.4568
    22.4846  22.6972  23.5478  24.1436  24.2386  24.5110  25.1879  25.7985

          k = 0.2261 0.1841 0.4677 ( 19023 PWs)   bands (ev):

   -82.0601 -68.4329 -63.9375 -63.9274 -45.6063 -45.3635 -45.2078 -37.4944
   -37.4861 -37.4677 -28.3938 -28.3809 -28.2928 -28.2834 -28.2057 -28.1684
    -7.4765  -7.4043  -7.0962  -6.8868  -6.5870  -6.4198  -6.1981  -6.0671
     3.9867   4.1786   4.3349   4.6587   4.8193   5.1060   5.3554   5.6038
     5.8554   6.2044   6.4009   6.5722   6.7095   6.8723   7.1548   7.3431
     7.5489   7.6608   7.9163   8.1913   8.3309   8.4932   8.6743   8.7850
     9.0474   9.2027   9.5087   9.5460   9.8033  10.7294  11.0533  13.7026
    13.9389  14.1245  14.3532  14.4627  14.5750  15.7241  16.2652  16.5256
    17.7963  18.0731  18.6903  19.8338  19.9987  20.3697  20.8543  21.4230
    22.3795  22.5988  23.5003  24.0629  24.3141  24.6024  25.1357  25.8407

          k = 0.2511 0.2045 0.4680 ( 19038 PWs)   bands (ev):

   -82.0601 -68.4329 -63.9376 -63.9274 -45.6063 -45.3635 -45.2078 -37.4944
   -37.4861 -37.4677 -28.3940 -28.3811 -28.2929 -28.2835 -28.2055 -28.1682
    -7.4651  -7.3802  -7.1012  -6.8864  -6.6014  -6.4307  -6.2039  -6.0715
     3.9854   4.1985   4.3647   4.6409   4.7813   5.1075   5.3501   5.5970
     5.8904   6.1910   6.4275   6.6030   6.7094   6.8764   7.2005   7.3336
     7.5058   7.6571   7.9234   8.1959   8.3339   8.5027   8.6459   8.8042
     9.0350   9.1740   9.5013   9.5156   9.8222  10.7044  11.0255  13.6997
    13.9310  14.1295  14.3662  14.4875  14.5925  15.7053  16.2984  16.5346
    17.7585  18.0662  18.7084  19.8866  20.0914  20.4212  20.8040  21.3906
    22.2808  22.5064  23.4324  23.9635  24.3973  24.6715  25.1210  25.8433

          k = 0.2761 0.2250 0.4683 ( 19033 PWs)   bands (ev):

   -82.0601 -68.4329 -63.9376 -63.9274 -45.6063 -45.3635 -45.2078 -37.4944
   -37.4861 -37.4677 -28.3942 -28.3813 -28.2930 -28.2836 -28.2053 -28.1681
    -7.4553  -7.3572  -7.1051  -6.8932  -6.6051  -6.4412  -6.2091  -6.0776
     3.9815   4.2104   4.4024   4.6117   4.7414   5.1047   5.3429   5.5828
     5.9514   6.1842   6.4493   6.6025   6.7450   6.8932   7.2402   7.3199
     7.4651   7.6686   7.9347   8.1924   8.3339   8.5153   8.6320   8.8152
     9.0067   9.1489   9.4721   9.5042   9.8418  10.6769  10.9840  13.7011
    13.9214  14.1321  14.3708  14.5139  14.6135  15.6869  16.3285  16.5436
    17.7183  18.0442  18.7630  19.9172  20.1868  20.4909  20.7727  21.3614
    22.1896  22.4196  23.3437  23.8693  24.4636  24.7242  25.1415  25.8204

          k = 0.3011 0.2455 0.4686 ( 19024 PWs)   bands (ev):

   -82.0601 -68.4329 -63.9377 -63.9274 -45.6063 -45.3635 -45.2078 -37.4944
   -37.4861 -37.4677 -28.3944 -28.3815 -28.2931 -28.2836 -28.2051 -28.1679
    -7.4476  -7.3365  -7.1067  -6.9064  -6.5991  -6.4510  -6.2133  -6.0852
     3.9782   4.2182   4.4328   4.5730   4.7132   5.0874   5.3313   5.5785
     6.0262   6.1891   6.4506   6.6106   6.7893   6.9147   7.2547   7.3165
     7.4376   7.6935   7.9466   8.1792   8.3345   8.5184   8.6450   8.8176
     8.9671   9.1282   9.4354   9.4982   9.8611  10.6468  10.9293  13.7056
    13.9112  14.1317  14.3689  14.5401  14.6366  15.6694  16.3540  16.5521
    17.6797  18.0128  18.8451  19.9345  20.2682  20.5814  20.7609  21.3374
    22.1072  22.3377  23.2382  23.7838  24.5050  24.7768  25.1816  25.7955

          k = 0.3261 0.2659 0.4689 ( 19039 PWs)   bands (ev):

   -82.0601 -68.4329 -63.9377 -63.9274 -45.6063 -45.3635 -45.2078 -37.4944
   -37.4861 -37.4677 -28.3945 -28.3817 -28.2932 -28.2837 -28.2050 -28.1678
    -7.4418  -7.3195  -7.1056  -6.9230  -6.5867  -6.4597  -6.2161  -6.0942
     3.9781   4.2228   4.4370   4.5391   4.7025   5.0512   5.3224   5.5870
     6.1029   6.2077   6.4249   6.6486   6.8304   6.9319   7.2406   7.3321
     7.4246   7.7262   7.9542   8.1602   8.3368   8.5142   8.6778   8.8158
     8.9232   9.1114   9.3973   9.4910   9.8797  10.6139  10.8632  13.7117
    13.9019  14.1280  14.3627  14.5637  14.6615  15.6533  16.3743  16.5597
    17.6473  17.9778  18.9438  19.9399  20.3362  20.6858  20.7665  21.3206
    22.0347  22.2605  23.1242  23.7031  24.5276  24.8342  25.2236  25.7830

          k = 0.3511 0.2864 0.4692 ( 19037 PWs)   bands (ev):

   -82.0601 -68.4329 -63.9377 -63.9275 -45.6063 -45.3635 -45.2078 -37.4944
   -37.4861 -37.4677 -28.3947 -28.3819 -28.2933 -28.2838 -28.2048 -28.1677
    -7.4381  -7.3067  -7.1024  -6.9390  -6.5717  -6.4672  -6.2173  -6.1043
     3.9826   4.2230   4.4098   4.5182   4.7084   5.0010   5.3216   5.6033
     6.1667   6.2437   6.3871   6.7042   6.8687   6.9415   7.2274   7.3448
     7.4232   7.7570   7.9517   8.1447   8.3392   8.5123   8.7035   8.8269
     8.8823   9.0982   9.3581   9.4818   9.8976  10.5786  10.7887  13.7179
    13.8944  14.1214  14.3535  14.5828  14.6874  15.6388  16.3892  16.5658
    17.6252  17.9424  19.0506  19.9329  20.3983  20.7743  20.8031  21.3126
    21.9734  22.1887  23.0119  23.6207  24.5460  24.8857  25.2602  25.7919

          k = 0.3761 0.3068 0.4695 ( 19036 PWs)   bands (ev):

   -82.0601 -68.4329 -63.9377 -63.9275 -45.6063 -45.3635 -45.2078 -37.4944
   -37.4861 -37.4677 -28.3948 -28.3821 -28.2934 -28.2838 -28.2047 -28.1676
    -7.4360  -7.2979  -7.0988  -6.9512  -6.5571  -6.4731  -6.2166  -6.1150
     3.9924   4.2158   4.3751   4.4956   4.7248   4.9470   5.3270   5.6241
     6.2055   6.2940   6.3516   6.7659   6.9002   6.9528   7.2243   7.3483
     7.4305   7.7753   7.9378   8.1399   8.3404   8.5120   8.7026   8.8473
     8.8731   9.0884   9.3180   9.4698   9.9150  10.5420  10.7097  13.7235
    13.8892  14.1123  14.3432  14.5967  14.7130  15.6262  16.3993  16.5699
    17.6157  17.9073  19.1594  19.9132  20.4599  20.8008  20.9007  21.3123
    21.9242  22.1239  22.9127  23.5308  24.5712  24.9171  25.2981  25.8200

          k = 0.4012 0.3273 0.4698 ( 19020 PWs)   bands (ev):

   -82.0601 -68.4329 -63.9377 -63.9275 -45.6064 -45.3635 -45.2078 -37.4944
   -37.4861 -37.4677 -28.3949 -28.3822 -28.2934 -28.2839 -28.2045 -28.1675
    -7.4353  -7.2925  -7.0969  -6.9577  -6.5450  -6.4770  -6.2143  -6.1257
     4.0076   4.1993   4.3495   4.4662   4.7432   4.8982   5.3346   5.6478
     6.2214   6.3051   6.3663   6.8266   6.9166   6.9792   7.2286   7.3473
     7.4413   7.7745   7.9198   8.1435   8.3420   8.4998   8.6992   8.8263
     8.9354   9.0828   9.2774   9.4541   9.9318  10.5057  10.6311  13.7282
    13.8860  14.1015  14.3333  14.6055  14.7368  15.6159  16.4055  16.5721
    17.6195  17.8723  19.2662  19.8814  20.5231  20.8203  20.9917  21.3158
    21.8863  22.0684  22.8390  23.4302  24.6078  24.9220  25.3472  25.8344

          k = 0.4262 0.3477 0.4702 ( 19016 PWs)   bands (ev):

   -82.0601 -68.4329 -63.9378 -63.9276 -45.6064 -45.3635 -45.2078 -37.4944
   -37.4861 -37.4677 -28.3950 -28.3823 -28.2935 -28.2839 -28.2044 -28.1674
    -7.4354  -7.2895  -7.0973  -6.9588  -6.5364  -6.4790  -6.2108  -6.1357
     4.0274   4.1759   4.3348   4.4340   4.7581   4.8599   5.3419   5.6730
     6.2095   6.2993   6.4120   6.8794   6.9290   7.0110   7.2297   7.3543
     7.4509   7.7574   7.9047   8.1499   8.3453   8.4659   8.7147   8.8131
     8.9996   9.0855   9.2375   9.4338   9.9478  10.4717  10.5591  13.7323
    13.8839  14.0903  14.3255  14.6101  14.7573  15.6078  16.4088  16.5729
    17.6351  17.8368  19.3683  19.8383  20.5868  20.8311  21.0704  21.3165
    21.8572  22.0236  22.8035  23.3187  24.6555  24.9064  25.4072  25.7647

          k = 0.4512 0.3682 0.4705 ( 19000 PWs)   bands (ev):

   -82.0601 -68.4329 -63.9378 -63.9276 -45.6064 -45.3635 -45.2078 -37.4944
   -37.4861 -37.4677 -28.3950 -28.3824 -28.2935 -28.2839 -28.2044 -28.1673
    -7.4359  -7.2879  -7.0992  -6.9567  -6.5312  -6.4795  -6.2069  -6.1442
     4.0502   4.1510   4.3256   4.4054   4.7666   4.8349   5.3474   5.6966
     6.1828   6.3045   6.4489   6.9174   6.9460   7.0388   7.2165   7.3789
     7.4559   7.7343   7.8929   8.1570   8.3497   8.4210   8.7428   8.8054
     9.0433   9.1099   9.2005   9.4093   9.9618  10.4422  10.5014  13.7356
    13.8825  14.0802  14.3202  14.6117  14.7729  15.6020  16.4101  16.5729
    17.6602  17.8005  19.4636  19.7853  20.6476  20.8298  21.1362  21.3096
    21.8356  21.9883  22.8146  23.1998  24.7099  24.8802  25.4692  25.6821

          k = 0.4762 0.3886 0.4708 ( 18992 PWs)   bands (ev):

   -82.0601 -68.4329 -63.9378 -63.9276 -45.6064 -45.3635 -45.2078 -37.4944
   -37.4861 -37.4677 -28.3950 -28.3825 -28.2935 -28.2840 -28.2043 -28.1673
    -7.4364  -7.2873  -7.1010  -6.9542  -6.5286  -6.4794  -6.2037  -6.1501
     4.0734   4.1283   4.3181   4.3871   4.7685   4.8230   5.3507   5.7141
     6.1606   6.3095   6.4727   6.9409   6.9596   7.0613   7.1957   7.4120
     7.4531   7.7153   7.8848   8.1640   8.3542   8.3821   8.7694   8.7993
     9.0610   9.1497   9.1719   9.3847   9.9719  10.4198  10.4655  13.7379
    13.8816  14.0731  14.3174  14.6119  14.7827  15.5985  16.4105  16.5728
    17.6916  17.7636  19.5487  19.7255  20.6984  20.8175  21.1870  21.2947
    21.8229  21.9629  22.8703  23.0803  24.7637  24.8485  25.5217  25.6181

          k = 0.5012 0.4091 0.4711 ( 18992 PWs)   bands (ev):

   -82.0601 -68.4329 -63.9378 -63.9276 -45.6064 -45.3635 -45.2078 -37.4944
   -37.4861 -37.4677 -28.3950 -28.3825 -28.2935 -28.2840 -28.2043 -28.1673
    -7.4366  -7.2871  -7.1018  -6.9531  -6.5279  -6.4792  -6.2024  -6.1523
     4.0878   4.1145   4.3147   4.3812   4.7682   4.8200   5.3518   5.7206
     6.1522   6.3113   6.4809   6.9511   6.9624   7.0714   7.1849   7.4368
     7.4410   7.7079   7.8818   8.1674   8.3597   8.3627   8.7839   8.7930
     9.0672   9.1557   9.1729   9.3729   9.9757  10.4109  10.4539  13.7388
    13.8813  14.0705  14.3165  14.6118  14.7861  15.5974  16.4105  16.5727
    17.7260  17.7277  19.5998  19.6828  20.7222  20.8071  21.2103  21.2835
    21.8191  21.9531  22.9411  22.9889  24.8092  24.8118  25.5489  25.5876

 ------ SPIN DOWN ----------


          k = 0.0000 0.0000 0.0000 ( 19031 PWs)   bands (ev):

   -84.8566 -63.9138 -63.8975 -63.8717 -48.8719 -48.2738 -47.9156 -32.6851
   -32.6712 -32.6574 -28.3636 -28.3178 -28.2831 -28.2096 -28.1912 -28.1460
    -8.3334  -7.0070  -6.7645  -6.7084  -6.6376  -6.4406  -6.1958  -5.9676
     3.2586   3.2922   3.5340   3.9295   4.0465   4.4658   4.7534   5.3110
     5.3194   5.7797   5.7988   6.2848   6.4702   6.7344   7.1265   7.2432
     7.2896   7.6458   7.9610   8.0029   8.1057   8.3065   8.8271   9.0002
     9.2449   9.3514   9.5360   9.7766   9.8814  13.5173  13.8034  14.0171
    14.2699  14.8281  14.9152  16.6141  16.6763  16.8502  17.1150  17.6741
    17.8907  18.1874  19.0232  19.4897  19.7185  21.6002  21.8114  22.1628
    22.3349  23.0584  23.1692  24.2158  24.7542  24.9190  25.2076  25.5698

          k = 0.0000 0.0205 0.0000 ( 19033 PWs)   bands (ev):

   -84.8566 -63.9138 -63.8975 -63.8717 -48.8719 -48.2738 -47.9156 -32.6851
   -32.6712 -32.6574 -28.3636 -28.3178 -28.2831 -28.2096 -28.1913 -28.1460
    -8.3320  -7.0073  -6.7671  -6.7086  -6.6378  -6.4397  -6.1956  -5.9674
     3.2601   3.2931   3.5348   3.9298   4.0500   4.4652   4.7538   5.3126
     5.3174   5.7764   5.7963   6.2854   6.4681   6.7341   7.1288   7.2451
     7.2783   7.6463   7.9635   7.9947   8.1088   8.3233   8.8270   8.9929
     9.2473   9.3481   9.5362   9.7737   9.8830  13.5186  13.7994  14.0182
    14.2735  14.8274  14.9146  16.6188  16.6763  16.8511  17.1169  17.6756
    17.8906  18.1869  19.0188  19.4889  19.7190  21.6006  21.7898  22.1706
    22.3488  23.0615  23.1725  24.2146  24.7550  24.9159  25.2031  25.5688

          k = 0.0000 0.0409 0.0000 ( 19031 PWs)   bands (ev):

   -84.8566 -63.9138 -63.8975 -63.8717 -48.8719 -48.2738 -47.9156 -32.6851
   -32.6712 -32.6574 -28.3635 -28.3177 -28.2831 -28.2097 -28.1913 -28.1461
    -8.3278  -7.0083  -6.7746  -6.7094  -6.6381  -6.4370  -6.1950  -5.9668
     3.2647   3.2959   3.5375   3.9309   4.0604   4.4634   4.7551   5.3116
     5.3175   5.7667   5.7887   6.2871   6.4622   6.7334   7.1355   7.2468
     7.2514   7.6435   7.9709   7.9797   8.1179   8.3659   8.8267   8.9722
     9.2535   9.3382   9.5368   9.7654   9.8875  13.5226  13.7882  14.0215
    14.2838  14.8255  14.9129  16.6325  16.6761  16.8537  17.1225  17.6801
    17.8904  18.1855  19.0059  19.4864  19.7203  21.6024  21.7318  22.1934
    22.3833  23.0706  23.1829  24.2113  24.7572  24.9066  25.1895  25.5663

          k = 0.0000 0.0614 0.0000 ( 19029 PWs)   bands (ev):

   -84.8566 -63.9138 -63.8975 -63.8717 -48.8719 -48.2738 -47.9156 -32.6851
   -32.6712 -32.6574 -28.3635 -28.3176 -28.2831 -28.2097 -28.1914 -28.1461
    -8.3208  -7.0103  -6.7861  -6.7106  -6.6387  -6.4332  -6.1940  -5.9658
     3.2723   3.3006   3.5417   3.9332   4.0771   4.4603   4.7571   5.3019
     5.3254   5.7508   5.7764   6.2899   6.4528   6.7323   7.1453   7.2002
     7.2631   7.6285   7.9738   7.9826   8.1329   8.4215   8.8262   8.9408
     9.2619   9.3222   9.5374   9.7528   9.8938  13.5290  13.7710  14.0269
    14.2993  14.8223  14.9101  16.6543  16.6758  16.8583  17.1322  17.6876
    17.8899  18.1831  18.9851  19.4822  19.7216  21.6070  21.6503  22.2299
    22.4247  23.0852  23.2020  24.2058  24.7607  24.8907  25.1664  25.5637

          k = 0.0000 0.0818 0.0000 ( 19035 PWs)   bands (ev):

   -84.8566 -63.9138 -63.8975 -63.8717 -48.8719 -48.2738 -47.9156 -32.6851
   -32.6712 -32.6574 -28.3634 -28.3175 -28.2831 -28.2097 -28.1916 -28.1462
    -8.3110  -7.0142  -6.8003  -6.7124  -6.6394  -6.4286  -6.1927  -5.9643
     3.2829   3.3071   3.5473   3.9372   4.0994   4.4562   4.7600   5.2884
     5.3361   5.7295   5.7597   6.2935   6.4408   6.7309   7.1430   7.1564
     7.2816   7.5976   7.9841   7.9979   8.1533   8.4807   8.8254   8.9021
     9.2712   9.3006   9.5376   9.7369   9.9013  13.5374  13.7500  14.0344
    14.3183  14.8181  14.9062  16.6752  16.6826  16.8649  17.1467  17.6982
    17.8894  18.1798  18.9577  19.4760  19.7223  21.5551  21.6163  22.2781
    22.4622  23.1035  23.2327  24.1982  24.7650  24.8677  25.1336  25.5631

          k = 0.0000 0.1023 0.0000 ( 19029 PWs)   bands (ev):

   -84.8566 -63.9138 -63.8975 -63.8717 -48.8719 -48.2738 -47.9156 -32.6851
   -32.6712 -32.6574 -28.3634 -28.3173 -28.2831 -28.2097 -28.1918 -28.1462
    -8.2986  -7.0208  -6.8152  -6.7147  -6.6402  -6.4240  -6.1911  -5.9625
     3.2962   3.3154   3.5540   3.9434   4.1266   4.4510   4.7636   5.2714
     5.3490   5.7036   5.7393   6.2977   6.4269   6.7294   7.0786   7.1675
     7.3076   7.5546   8.0077   8.0164   8.1781   8.5364   8.8242   8.8599
     9.2741   9.2810   9.5371   9.7184   9.9095  13.5470  13.7275  14.0439
    14.3389  14.8134  14.9012  16.6744  16.7150  16.8740  17.1669  17.7119
    17.8890  18.1756  18.9247  19.4678  19.7213  21.4521  21.6322  22.3362
    22.4904  23.1231  23.2776  24.1887  24.7698  24.8366  25.0911  25.5663

          k = 0.0000 0.1227 0.0000 ( 19029 PWs)   bands (ev):

   -84.8566 -63.9139 -63.8975 -63.8717 -48.8719 -48.2738 -47.9156 -32.6851
   -32.6712 -32.6574 -28.3633 -28.3171 -28.2831 -28.2098 -28.1920 -28.1463
    -8.2836  -7.0314  -6.8290  -6.7174  -6.6409  -6.4198  -6.1895  -5.9603
     3.3121   3.3254   3.5614   3.9521   4.1582   4.4450   4.7679   5.2507
     5.3633   5.6742   5.7158   6.3022   6.4119   6.7279   7.0092   7.1780
     7.3414   7.5056   8.0374   8.0382   8.2064   8.5813   8.8206   8.8224
     9.2431   9.2918   9.5356   9.6980   9.9181  13.5560  13.7064  14.0551
    14.3594  14.8084  14.8953  16.6731  16.7483  16.8860  17.1943  17.7288
    17.8887  18.1705  18.8875  19.4572  19.7179  21.3450  21.6562  22.4024
    22.5074  23.1422  23.3370  24.1774  24.7746  24.7960  25.0399  25.5745

          k = 0.0000 0.1432 0.0000 ( 19013 PWs)   bands (ev):

   -84.8566 -63.9139 -63.8975 -63.8717 -48.8719 -48.2738 -47.9156 -32.6851
   -32.6712 -32.6574 -28.3632 -28.3169 -28.2830 -28.2098 -28.1923 -28.1464
    -8.2663  -7.0473  -6.8399  -6.7206  -6.6416  -6.4164  -6.1877  -5.9578
     3.3305   3.3371   3.5693   3.9633   4.1934   4.4383   4.7731   5.2267
     5.3777   5.6431   5.6901   6.3064   6.3966   6.7264   6.9366   7.1880
     7.3820   7.4554   8.0609   8.0701   8.2369   8.6031   8.7959   8.8197
     9.2084   9.3045   9.5330   9.6763   9.9269  13.5613  13.6910  14.0680
    14.3782  14.8039  14.8884  16.6714  16.7792  16.9010  17.2304  17.7491
    17.8887  18.1645  18.8474  19.4440  19.7117  21.2363  21.6894  22.4752
    22.5138  23.1604  23.4091  24.1647  24.7438  24.7792  24.9822  25.5882

          k = 0.0000 0.1636 0.0000 ( 19013 PWs)   bands (ev):

   -84.8566 -63.9139 -63.8975 -63.8717 -48.8719 -48.2738 -47.9156 -32.6851
   -32.6712 -32.6574 -28.3631 -28.3166 -28.2830 -28.2099 -28.1926 -28.1465
    -8.2466  -7.0687  -6.8469  -6.7241  -6.6421  -6.4140  -6.1860  -5.9551
     3.3502   3.3510   3.5772   3.9771   4.2315   4.4310   4.7793   5.1996
     5.3900   5.6127   5.6633   6.3099   6.3815   6.7245   6.8635   7.1978
     7.4067   7.4284   8.0864   8.0987   8.2683   8.5913   8.7970   8.8159
     9.1704   9.3201   9.5289   9.6541   9.9360  13.5585  13.6863  14.0823
    14.3939  14.8004  14.8808  16.6692  16.8053  16.9185  17.2764  17.7729
    17.8891  18.1577  18.8055  19.4275  19.7023  21.1277  21.7324  22.5114
    22.5532  23.1778  23.4909  24.1512  24.6779  24.7833  24.9206  25.6065

          k = 0.0000 0.1841 0.0000 ( 19019 PWs)   bands (ev):

   -84.8566 -63.9139 -63.8975 -63.8717 -48.8719 -48.2738 -47.9156 -32.6851
   -32.6712 -32.6574 -28.3629 -28.3164 -28.2830 -28.2099 -28.1929 -28.1466
    -8.2249  -7.0955  -6.8498  -6.7279  -6.6425  -6.4127  -6.1844  -5.9520
     3.3647   3.3733   3.5849   3.9934   4.2714   4.4233   4.7867   5.1695
     5.3965   5.5872   5.6363   6.3116   6.3670   6.7179   6.7963   7.2075
     7.3614   7.4796   8.1138   8.1199   8.2993   8.5561   8.8104   8.8158
     9.1300   9.3394   9.5231   9.6322   9.9453  13.5460  13.6940  14.0978
    14.4054  14.7988  14.8723  16.6664  16.8260  16.9369  17.3323  17.8006
    17.8901  18.1502  18.7630  19.4074  19.6898  21.0210  21.7854  22.5025
    22.6353  23.1944  23.5795  24.1373  24.5969  24.7871  24.8579  25.6271

          k = 0.0000 0.2045 0.0000 ( 19019 PWs)   bands (ev):

   -84.8566 -63.9139 -63.8975 -63.8717 -48.8719 -48.2738 -47.9156 -32.6851
   -32.6712 -32.6574 -28.3628 -28.3161 -28.2830 -28.2100 -28.1932 -28.1467
    -8.2015  -7.1266  -6.8493  -6.7318  -6.6428  -6.4126  -6.1829  -5.9489
     3.3802   3.3970   3.5921   4.0121   4.3120   4.4155   4.7959   5.1371
     5.3925   5.5715   5.6099   6.3099   6.3534   6.6853   6.7593   7.2173
     7.3203   7.5347   8.1289   8.1430   8.3289   8.5154   8.8027   8.8385
     9.0881   9.3625   9.5148   9.6121   9.9547  13.5272  13.7111  14.1141
    14.4118  14.7996  14.8633  16.6630  16.8424  16.9541  17.3966  17.8326
    17.8916  18.1424  18.7209  19.3829  19.6748  20.9175  21.8483  22.4888
    22.7203  23.2102  23.6722  24.1241  24.5013  24.7907  24.7954  25.6455

          k = 0.0000 0.2250 0.0000 ( 19009 PWs)   bands (ev):

   -84.8566 -63.9139 -63.8975 -63.8717 -48.8719 -48.2738 -47.9156 -32.6851
   -32.6712 -32.6574 -28.3627 -28.3159 -28.2829 -28.2101 -28.1935 -28.1468
    -8.1765  -7.1607  -6.8460  -6.7358  -6.6429  -6.4136  -6.1816  -5.9456
     3.3963   3.4218   3.5987   4.0327   4.3520   4.4076   4.8071   5.1028
     5.3762   5.5680   5.5851   6.3025   6.3408   6.6263   6.7563   7.2271
     7.2841   7.5927   8.1210   8.1736   8.3563   8.4806   8.7918   8.8594
     9.0457   9.3889   9.5034   9.5951   9.9640  13.5058  13.7340  14.1310
    14.4127  14.8029  14.8539  16.6590  16.8558  16.9691  17.4663  17.8695
    17.8938  18.1346  18.6800  19.3534  19.6576  20.8187  21.9206  22.4721
    22.8071  23.2250  23.7665  24.1130  24.3934  24.7329  24.7943  25.6551

          k = 0.0000 0.2455 0.0000 ( 18997 PWs)   bands (ev):

   -84.8566 -63.9139 -63.8975 -63.8717 -48.8719 -48.2738 -47.9156 -32.6851
   -32.6712 -32.6574 -28.3626 -28.3156 -28.2829 -28.2101 -28.1938 -28.1469
    -8.1505  -7.1966  -6.8410  -6.7397  -6.6429  -6.4155  -6.1805  -5.9424
     3.4128   3.4470   3.6045   4.0549   4.3898   4.4000   4.8207   5.0675
     5.3510   5.5622   5.5738   6.2859   6.3294   6.5689   6.7642   7.2367
     7.2532   7.6528   8.0937   8.2051   8.3806   8.4571   8.7769   8.8770
     9.0041   9.4174   9.4890   9.5821   9.9731  13.4841  13.7602  14.1479
    14.4084  14.8085  14.8443  16.6546  16.8671  16.9813  17.5375  17.8966
    17.9115  18.1281  18.6411  19.3181  19.6391  20.7263  22.0015  22.4539
    22.8945  23.2386  23.8584  24.1069  24.2762  24.6702  24.7982  25.6476

          k = 0.0000 0.2659 0.0000 ( 19005 PWs)   bands (ev):

   -84.8566 -63.9139 -63.8975 -63.8717 -48.8719 -48.2738 -47.9156 -32.6851
   -32.6712 -32.6574 -28.3625 -28.3153 -28.2829 -28.2102 -28.1941 -28.1469
    -8.1240  -7.2330  -6.8348  -6.7434  -6.6428  -6.4182  -6.1795  -5.9393
     3.4292   3.4720   3.6095   4.0779   4.3928   4.4241   4.8366   5.0321
     5.3227   5.5417   5.5840   6.2568   6.3193   6.5230   6.7773   7.2278
     7.2459   7.7140   8.0493   8.2370   8.4016   8.4449   8.7569   8.8917
     8.9648   9.4464   9.4723   9.5730   9.9819  13.4634  13.7880  14.1646
    14.3994  14.8159  14.8346  16.6499  16.8768  16.9912  17.6061  17.8999
    17.9569  18.1261  18.6050  19.2765  19.6200  20.6416  22.0899  22.4352
    22.9810  23.2508  23.9390  24.1142  24.1529  24.6069  24.8028  25.6166

          k = 0.0000 0.2864 0.0000 ( 18997 PWs)   bands (ev):

   -84.8566 -63.9139 -63.8975 -63.8717 -48.8719 -48.2738 -47.9156 -32.6851
   -32.6712 -32.6574 -28.3624 -28.3151 -28.2829 -28.2102 -28.1943 -28.1470
    -8.0975  -7.2688  -6.8281  -6.7469  -6.6426  -6.4215  -6.1788  -5.9363
     3.4450   3.4961   3.6135   4.1011   4.3861   4.4537   4.8540   4.9978
     5.2963   5.5239   5.5949   6.2153   6.3105   6.4911   6.7941   7.2084
     7.2545   7.7753   7.9935   8.2684   8.4190   8.4402   8.7318   8.9040
     8.9288   9.4551   9.4745   9.5669   9.9901  13.4445  13.8163  14.1806
    14.3869  14.8244  14.8252  16.6451  16.8852  16.9989  17.6684  17.9036
    17.9976  18.1376  18.5724  19.2281  19.6013  20.5660  22.1844  22.4171
    23.0646  23.2616  23.9893  24.0271  24.1527  24.5435  24.8088  25.5612

          k = 0.0000 0.3068 0.0000 ( 19013 PWs)   bands (ev):

   -84.8566 -63.9139 -63.8975 -63.8717 -48.8719 -48.2738 -47.9156 -32.6851
   -32.6712 -32.6574 -28.3623 -28.3149 -28.2829 -28.2102 -28.1946 -28.1471
    -8.0720  -7.3028  -6.8214  -6.7499  -6.6424  -6.4250  -6.1782  -5.9337
     3.4597   3.5186   3.6167   4.1234   4.3802   4.4780   4.8709   4.9658
     5.2758   5.5089   5.6040   6.1660   6.3031   6.4708   6.8134   7.1952
     7.2622   7.8355   7.9326   8.2978   8.4330   8.4393   8.7025   8.8970
     8.9145   9.4389   9.5003   9.5628   9.9975  13.4279  13.8440  14.1954
    14.3720  14.8164  14.8331  16.6404  16.8924  17.0048  17.7225  17.9074
    18.0189  18.1766  18.5437  19.1733  19.5838  20.5008  22.2831  22.4004
    23.1429  23.2707  23.9027  24.0058  24.2247  24.4811  24.8171  25.4861

          k = 0.0000 0.3273 0.0000 ( 19001 PWs)   bands (ev):

   -84.8566 -63.9139 -63.8975 -63.8717 -48.8719 -48.2738 -47.9156 -32.6851
   -32.6712 -32.6574 -28.3622 -28.3147 -28.2828 -28.2103 -28.1948 -28.1472
    -8.0483  -7.3337  -6.8152  -6.7525  -6.6422  -6.4284  -6.1777  -5.9314
     3.4728   3.5387   3.6191   4.1440   4.3751   4.4971   4.8849   4.9374
     5.2641   5.4966   5.6099   6.1154   6.2970   6.4580   6.8333   7.1883
     7.2689   7.8718   7.8928   8.3232   8.4398   8.4441   8.6715   8.8692
     8.9234   9.4247   9.5228   9.5601  10.0039  13.4140  13.8698  14.2084
    14.3563  14.8086  14.8413  16.6361  16.8984  17.0092  17.7681  17.9112
    18.0203  18.2408  18.5195  19.1129  19.5683  20.4468  22.3831  22.3858
    23.2116  23.2781  23.7849  24.0076  24.3084  24.4216  24.8292  25.3984

          k = 0.0000 0.3477 0.0000 ( 18991 PWs)   bands (ev):

   -84.8566 -63.9139 -63.8975 -63.8717 -48.8719 -48.2738 -47.9156 -32.6851
   -32.6712 -32.6574 -28.3622 -28.3146 -28.2828 -28.2103 -28.1950 -28.1472
    -8.0278  -7.3601  -6.8098  -6.7546  -6.6420  -6.4315  -6.1774  -5.9295
     3.4837   3.5554   3.6208   4.1615   4.3711   4.5114   4.8942   4.9137
     5.2618   5.4871   5.6121   6.0698   6.2922   6.4499   6.8515   7.1870
     7.2742   7.8163   7.9448   8.3420   8.4405   8.4532   8.6424   8.8457
     8.9306   9.4133   9.5410   9.5584  10.0092  13.4029  13.8923  14.2191
    14.3412  14.8019  14.8483  16.6324  16.9032  17.0125  17.8055  17.9145
    18.0122  18.3152  18.5002  19.0499  19.5554  20.4046  22.3739  22.4800
    23.2642  23.2838  23.6823  24.0055  24.3678  24.3888  24.8479  25.3049

          k = 0.0000 0.3682 0.0000 ( 18987 PWs)   bands (ev):

   -84.8566 -63.9139 -63.8975 -63.8717 -48.8719 -48.2738 -47.9156 -32.6851
   -32.6712 -32.6574 -28.3621 -28.3145 -28.2828 -28.2103 -28.1951 -28.1473
    -8.0117  -7.3805  -6.8058  -6.7562  -6.6419  -6.4339  -6.1772  -5.9282
     3.4920   3.5680   3.6218   4.1750   4.3681   4.5212   4.8959   4.8987
     5.2665   5.4803   5.6109   6.0338   6.2888   6.4448   6.8659   7.1898
     7.2782   7.7708   7.9881   8.3521   8.4412   8.4614   8.6188   8.8272
     8.9359   9.4050   9.5545   9.5574  10.0130  13.3949  13.9102  14.2272
    14.3287  14.7969  14.8536  16.6296  16.9066  17.0146  17.8347  17.9172
    18.0013  18.3868  18.4861  18.9895  19.5458  20.3744  22.3650  22.5663
    23.2878  23.2915  23.6075  24.0029  24.3237  24.4558  24.8763  25.2124

          k = 0.0000 0.3886 0.0000 ( 18997 PWs)   bands (ev):

   -84.8566 -63.9139 -63.8975 -63.8717 -48.8719 -48.2738 -47.9156 -32.6851
   -32.6712 -32.6574 -28.3621 -28.3144 -28.2828 -28.2103 -28.1952 -28.1473
    -8.0014  -7.3934  -6.8032  -6.7571  -6.6418  -6.4355  -6.1771  -5.9273
     3.4971   3.5758   3.6224   4.1836   4.3663   4.5270   4.8849   4.9000
     5.2730   5.4763   5.6084   6.0108   6.2868   6.4420   6.8751   7.1937
     7.2806   7.7406   8.0177   8.3548   8.4415   8.4680   8.6037   8.8150
     8.9392   9.4000   9.5568   9.5627  10.0154  13.3900  13.9217  14.2322
    14.3203  14.7938  14.8569  16.6278  16.9087  17.0159  17.8544  17.9189
    17.9918  18.4419  18.4775  18.9421  19.5398  20.3564  22.3596  22.6296
    23.2903  23.2922  23.5698  24.0011  24.2943  24.5004  24.9142  25.1312

          k = 0.0000 0.4091 0.0000 ( 18992 PWs)   bands (ev):

   -84.8566 -63.9139 -63.8975 -63.8717 -48.8719 -48.2738 -47.9156 -32.6851
   -32.6712 -32.6574 -28.3621 -28.3144 -28.2828 -28.2104 -28.1952 -28.1473
    -7.9978  -7.3979  -6.8023  -6.7574  -6.6418  -6.4360  -6.1770  -5.9270
     3.4989   3.5785   3.6226   4.1865   4.3657   4.5289   4.8811   4.9002
     5.2760   5.4749   5.6072   6.0030   6.2861   6.4410   6.8783   7.1955
     7.2815   7.7300   8.0284   8.3548   8.4416   8.4707   8.5985   8.8108
     8.9404   9.3984   9.5566   9.5655  10.0162  13.3884  13.9257  14.2339
    14.3173  14.7927  14.8581  16.6272  16.9094  17.0163  17.8617  17.9195
    17.9879  18.4635  18.4747  18.9232  19.5378  20.3503  22.3578  22.6536
    23.2869  23.2911  23.5604  24.0005  24.2839  24.5159  24.9389  25.0913

          k = 0.0250 0.4091 0.0003 ( 19004 PWs)   bands (ev):

   -84.8566 -63.9139 -63.8975 -63.8717 -48.8719 -48.2738 -47.9156 -32.6851
   -32.6712 -32.6574 -28.3621 -28.3144 -28.2828 -28.2104 -28.1952 -28.1473
    -7.9966  -7.3974  -6.8049  -6.7559  -6.6430  -6.4348  -6.1762  -5.9287
     3.4996   3.5754   3.6217   4.1872   4.3661   4.5331   4.8565   4.9153
     5.2766   5.4697   5.6199   6.0082   6.2903   6.4422   6.8733   7.1982
     7.2801   7.7310   8.0148   8.3498   8.4473   8.4754   8.6005   8.8119
     8.9459   9.3957   9.5213   9.5969  10.0116  13.3897  13.9263  14.2307
    14.3240  14.7909  14.8569  16.6281  16.9101  17.0161  17.8486  17.9271
    17.9915  18.4598  18.4879  18.9099  19.5520  20.3508  22.3348  22.6697
    23.2507  23.3127  23.5602  23.9967  24.2922  24.5227  24.9469  25.0914

          k = 0.0500 0.4091 0.0006 ( 19000 PWs)   bands (ev):

   -84.8566 -63.9139 -63.8975 -63.8717 -48.8719 -48.2738 -47.9156 -32.6851
   -32.6712 -32.6574 -28.3621 -28.3144 -28.2829 -28.2104 -28.1952 -28.1473
    -7.9929  -7.3959  -6.8120  -6.7520  -6.6465  -6.4311  -6.1738  -5.9336
     3.5016   3.5663   3.6192   4.1889   4.3680   4.5441   4.8169   4.9310
     5.2755   5.4614   5.6502   6.0245   6.3023   6.4458   6.8590   7.2062
     7.2760   7.7342   7.9785   8.3362   8.4523   8.4928   8.6080   8.8166
     8.9620   9.3876   9.4793   9.6275   9.9980  13.3935  13.9279  14.2227
    14.3426  14.7857  14.8535  16.6308  16.9121  17.0153  17.8207  17.9389
    18.0033  18.4605  18.5142  18.8745  19.5909  20.3522  22.2776  22.7057
    23.1956  23.3263  23.5597  23.9866  24.3141  24.5426  24.9708  25.0918

          k = 0.0750 0.4091 0.0009 ( 19010 PWs)   bands (ev):

   -84.8566 -63.9139 -63.8975 -63.8717 -48.8719 -48.2738 -47.9156 -32.6851
   -32.6712 -32.6574 -28.3621 -28.3144 -28.2830 -28.2105 -28.1951 -28.1473
    -7.9868  -7.3934  -6.8224  -6.7469  -6.6520  -6.4254  -6.1700  -5.9418
     3.5040   3.5528   3.6152   4.1906   4.3711   4.5572   4.7762   4.9441
     5.2681   5.4595   5.6865   6.0525   6.3207   6.4520   6.8367   7.2181
     7.2699   7.7400   7.9285   8.3149   8.4511   8.5114   8.6246   8.8287
     8.9871   9.3727   9.4370   9.6524   9.9766  13.3998  13.9305  14.2121
    14.3699  14.7774  14.8476  16.6353  16.9148  17.0142  17.7871  17.9462
    18.0241  18.4675  18.5465  18.8282  19.6465  20.3547  22.2032  22.7438
    23.1254  23.3338  23.5593  23.9721  24.3437  24.5742  25.0096  25.0928

          k = 0.1000 0.4091 0.0012 ( 19010 PWs)   bands (ev):

   -84.8566 -63.9138 -63.8976 -63.8717 -48.8719 -48.2738 -47.9156 -32.6851
   -32.6712 -32.6574 -28.3621 -28.3144 -28.2831 -28.2106 -28.1951 -28.1473
    -7.9785  -7.3900  -6.8352  -6.7411  -6.6591  -6.4180  -6.1649  -5.9529
     3.5038   3.5384   3.6101   4.1918   4.3725   4.5662   4.7466   4.9565
     5.2538   5.4664   5.7217   6.0921   6.3426   6.4622   6.8087   7.2283
     7.2668   7.7490   7.8720   8.2859   8.4458   8.5191   8.6480   8.8532
     9.0196   9.3475   9.3992   9.6708   9.9494  13.4084  13.9338  14.2000
    14.4040  14.7670  14.8392  16.6416  16.9173  17.0128  17.7515  17.9488
    18.0528  18.4800  18.5730  18.7888  19.7118  20.3583  22.1209  22.7726
    23.0460  23.3372  23.5595  23.9547  24.3769  24.6142  25.0549  25.1009

          k = 0.1250 0.4091 0.0015 ( 19006 PWs)   bands (ev):

   -84.8566 -63.9138 -63.8976 -63.8717 -48.8719 -48.2738 -47.9156 -32.6851
   -32.6712 -32.6574 -28.3621 -28.3143 -28.2832 -28.2107 -28.1951 -28.1473
    -7.9680  -7.3856  -6.8500  -6.7350  -6.6673  -6.4093  -6.1588  -5.9669
     3.4938   3.5305   3.6049   4.1925   4.3644   4.5694   4.7380   4.9694
     5.2369   5.4799   5.7526   6.1408   6.3628   6.4795   6.7780   7.2231
     7.2795   7.7611   7.8147   8.2490   8.4360   8.5164   8.6696   8.8927
     9.0582   9.3099   9.3701   9.6819   9.9187  13.4189  13.9378  14.1865
    14.4429  14.7557  14.8282  16.6498  16.9187  17.0115  17.7158  17.9479
    18.0876  18.4966  18.5704  18.7838  19.7818  20.3631  22.0351  22.7800
    22.9691  23.3369  23.5608  23.9353  24.4124  24.6582  25.0694  25.1489

          k = 0.1500 0.4091 0.0018 ( 18998 PWs)   bands (ev):

   -84.8566 -63.9138 -63.8976 -63.8717 -48.8719 -48.2738 -47.9156 -32.6851
   -32.6712 -32.6574 -28.3621 -28.3143 -28.2833 -28.2108 -28.1951 -28.1473
    -7.9556  -7.3803  -6.8664  -6.7290  -6.6761  -6.3998  -6.1520  -5.9834
     3.4734   3.5294   3.6008   4.1930   4.3393   4.5763   4.7472   4.9830
     5.2233   5.4976   5.7786   6.1938   6.3755   6.5082   6.7476   7.2050
     7.3041   7.7507   7.7865   8.2040   8.4208   8.5063   8.6869   8.9425
     9.1017   9.2663   9.3459   9.6850   9.8870  13.4311  13.9423  14.1718
    14.4838  14.7452  14.8148  16.6598  16.9177  17.0105  17.6816  17.9445
    18.1274  18.5088  18.5392  18.8227  19.8534  20.3695  21.9486  22.7459
    22.9173  23.3319  23.5644  23.9146  24.4500  24.7007  25.0607  25.2232

          k = 0.1750 0.4091 0.0021 ( 18988 PWs)   bands (ev):

   -84.8566 -63.9138 -63.8976 -63.8717 -48.8719 -48.2738 -47.9156 -32.6851
   -32.6712 -32.6574 -28.3621 -28.3143 -28.2835 -28.2110 -28.1950 -28.1473
    -7.9414  -7.3740  -6.8841  -6.7237  -6.6843  -6.3897  -6.1448  -6.0022
     3.4488   3.5279   3.5995   4.1938   4.2984   4.5935   4.7634   4.9976
     5.2187   5.5184   5.7999   6.2456   6.3784   6.5490   6.7206   7.1806
     7.3326   7.7012   7.8081   8.1511   8.3997   8.4894   8.7031   8.9911
     9.1489   9.2267   9.3230   9.6800   9.8567  13.4445  13.9472  14.1560
    14.5224  14.7389  14.7993  16.6715  16.9132  17.0101  17.6500  17.9392
    18.1705  18.4657  18.5505  18.8862  19.9246  20.3778  21.8626  22.6671
    22.8963  23.3211  23.5712  23.8940  24.4895  24.7327  25.0440  25.3041

          k = 0.2000 0.4091 0.0024 ( 19008 PWs)   bands (ev):

   -84.8566 -63.9138 -63.8976 -63.8717 -48.8719 -48.2738 -47.9156 -32.6851
   -32.6712 -32.6574 -28.3621 -28.3142 -28.2837 -28.2111 -28.1950 -28.1474
    -7.9258  -7.3670  -6.9027  -6.7207  -6.6902  -6.3794  -6.1376  -6.0227
     3.4230   3.5225   3.6018   4.1953   4.2496   4.6173   4.7785   5.0133
     5.2281   5.5420   5.8166   6.2904   6.3755   6.5970   6.7003   7.1519
     7.3600   7.6584   7.8374   8.0912   8.3732   8.4655   8.7216   9.0197
     9.1883   9.2159   9.3015   9.6678   9.8287  13.4588  13.9524  14.1397
    14.5521  14.7414  14.7832  16.6848  16.9048  17.0104  17.6218  17.9320
    18.2147  18.4068  18.5789  18.9616  19.9944  20.3884  21.7784  22.5674
    22.8848  23.3038  23.5809  23.8761  24.5302  24.7378  25.0303  25.3853

          k = 0.2250 0.4091 0.0027 ( 19018 PWs)   bands (ev):

   -84.8566 -63.9137 -63.8976 -63.8717 -48.8719 -48.2738 -47.9156 -32.6851
   -32.6712 -32.6574 -28.3621 -28.3142 -28.2838 -28.2113 -28.1950 -28.1474
    -7.9089  -7.3591  -6.9221  -6.7226  -6.6910  -6.3691  -6.1305  -6.0445
     3.3973   3.5130   3.6071   4.1944   4.2029   4.6409   4.7897   5.0314
     5.2539   5.5681   5.8284   6.3175   6.3793   6.6418   6.6926   7.1199
     7.3815   7.6302   7.8681   8.0291   8.3423   8.4350   8.7439   9.0088
     9.2018   9.2627   9.2862   9.6503   9.8028  13.4733  13.9577  14.1231
    14.5664  14.7470  14.7778  16.6995  16.8922  17.0108  17.5979  17.9232
    18.2530  18.3554  18.6115  19.0432  20.0618  20.4018  21.6966  22.4600
    22.8719  23.2808  23.5900  23.8655  24.5710  24.6997  25.0345  25.4643

          k = 0.2500 0.4091 0.0030 ( 19016 PWs)   bands (ev):

   -84.8566 -63.9137 -63.8976 -63.8717 -48.8719 -48.2738 -47.9156 -32.6851
   -32.6712 -32.6574 -28.3621 -28.3142 -28.2840 -28.2115 -28.1949 -28.1474
    -7.8913  -7.3505  -6.9419  -6.7290  -6.6870  -6.3591  -6.1242  -6.0667
     3.3724   3.5001   3.6138   4.1524   4.2013   4.6575   4.7993   5.0535
     5.2948   5.5963   5.8347   6.3189   6.4008   6.6585   6.7170   7.0856
     7.3931   7.6221   7.8733   7.9912   8.3090   8.3986   8.7702   8.9677
     9.2151   9.2797   9.3265   9.6302   9.7779  13.4876  13.9631  14.1068
    14.5655  14.7323  14.8061  16.7153  16.8761  17.0109  17.5787  17.9127
    18.2542  18.3445  18.6471  19.1284  20.1265  20.4190  21.6176  22.3494
    22.8550  23.2540  23.5918  23.8691  24.6105  24.6252  25.0554  25.5420

          k = 0.2750 0.4091 0.0033 ( 19014 PWs)   bands (ev):

   -84.8566 -63.9137 -63.8976 -63.8717 -48.8719 -48.2738 -47.9156 -32.6851
   -32.6712 -32.6574 -28.3621 -28.3141 -28.2842 -28.2116 -28.1949 -28.1474
    -7.8732  -7.3412  -6.9619  -6.7372  -6.6807  -6.3495  -6.1201  -6.0877
     3.3490   3.4849   3.6204   4.1121   4.2044   4.6623   4.8114   5.0804
     5.3479   5.6253   5.8357   6.3117   6.4263   6.6595   6.7558   7.0496
     7.3967   7.6341   7.8149   8.0134   8.2772   8.3578   8.7993   8.9137
     9.2084   9.3035   9.3860   9.6099   9.7528  13.5011  13.9685  14.0914
    14.5549  14.7108  14.8486  16.7320  16.8570  17.0101  17.5645  17.9002
    18.2146  18.3779  18.6851  19.2146  20.1881  20.4409  21.5418  22.2374
    22.8339  23.2255  23.5797  23.8935  24.5321  24.6501  25.0805  25.6206

          k = 0.3000 0.4091 0.0037 ( 19010 PWs)   bands (ev):

   -84.8566 -63.9137 -63.8976 -63.8717 -48.8719 -48.2738 -47.9156 -32.6851
   -32.6712 -32.6574 -28.3621 -28.3141 -28.2844 -28.2118 -28.1948 -28.1474
    -7.8552  -7.3314  -6.9818  -6.7457  -6.6737  -6.3405  -6.1254  -6.0996
     3.3275   3.4681   3.6258   4.0792   4.2075   4.6557   4.8273   5.1123
     5.4089   5.6523   5.8341   6.3070   6.4468   6.6625   6.7873   7.0127
     7.4002   7.6587   7.7285   8.0543   8.2552   8.3145   8.8286   8.8554
     9.1932   9.3343   9.4427   9.5912   9.7278  13.5135  13.9737  14.0775
    14.5395  14.6879  14.8948  16.7492  16.8358  17.0080  17.5556  17.8855
    18.1715  18.4179  18.7246  19.2997  20.2464  20.4688  21.4695  22.1252
    22.8093  23.1975  23.5522  23.9399  24.4389  24.6864  25.1011  25.6994

          k = 0.3250 0.4091 0.0040 ( 18992 PWs)   bands (ev):

   -84.8566 -63.9136 -63.8977 -63.8717 -48.8719 -48.2738 -47.9156 -32.6852
   -32.6712 -32.6574 -28.3621 -28.3140 -28.2846 -28.2119 -28.1948 -28.1474
    -7.8376  -7.3211  -7.0012  -6.7538  -6.6667  -6.3322  -6.1434  -6.0989
     3.3082   3.4502   3.6296   4.0542   4.2102   4.6419   4.8447   5.1482
     5.4736   5.6715   5.8368   6.3084   6.4594   6.6697   6.8073   6.9763
     7.4106   7.6255   7.6962   8.0790   8.2575   8.2739   8.7899   8.8619
     9.1785   9.3608   9.4930   9.5750   9.7049  13.5243  13.9787  14.0655
    14.5223  14.6650  14.9407  16.7665  16.8138  17.0043  17.5518  17.8682
    18.1332  18.4560  18.7646  19.3814  20.3011  20.5038  21.4007  22.0133
    22.7823  23.1717  23.5127  24.0053  24.3539  24.7196  25.1131  25.7697

          k = 0.3500 0.4091 0.0043 ( 19006 PWs)   bands (ev):

   -84.8566 -63.9136 -63.8977 -63.8718 -48.8719 -48.2738 -47.9156 -32.6852
   -32.6712 -32.6574 -28.3621 -28.3140 -28.2848 -28.2121 -28.1948 -28.1475
    -7.8210  -7.3106  -7.0200  -6.7613  -6.6599  -6.3246  -6.1638  -6.0953
     3.2915   3.4320   3.6316   4.0368   4.2122   4.6252   4.8616   5.1868
     5.5370   5.6757   5.8536   6.3164   6.4636   6.6803   6.8160   6.9420
     7.4300   7.5250   7.7273   8.0754   8.2242   8.3073   8.7267   8.8884
     9.1680   9.3781   9.5321   9.5619   9.6891  13.5332  13.9835  14.0556
    14.5050  14.6429  14.9839  16.7811  16.7946  16.9989  17.5530  17.8482
    18.1014  18.4898  18.8037  19.4570  20.3519  20.5472  21.3355  21.9028
    22.7545  23.1495  23.4653  24.0858  24.2820  24.7488  25.1146  25.8047

          k = 0.3750 0.4091 0.0046 ( 19004 PWs)   bands (ev):

   -84.8566 -63.9136 -63.8977 -63.8718 -48.8719 -48.2738 -47.9156 -32.6852
   -32.6712 -32.6574 -28.3621 -28.3140 -28.2849 -28.2122 -28.1947 -28.1475
    -7.8059  -7.3002  -7.0376  -6.7679  -6.6537  -6.3179  -6.1832  -6.0916
     3.2775   3.4144   3.6322   4.0260   4.2132   4.6086   4.8769   5.2265
     5.5918   5.6671   5.8876   6.3306   6.4601   6.6929   6.8151   6.9122
     7.4173   7.4633   7.7534   8.0612   8.1835   8.3715   8.6644   8.9078
     9.1647   9.3839   9.5407   9.5651   9.6874  13.5402  13.9883  14.0476
    14.4888  14.6225  15.0226  16.7680  16.8039  16.9919  17.5587  17.8258
    18.0762  18.5188  18.8405  19.5243  20.3986  20.5996  21.2738  21.7950
    22.7273  23.1316  23.4145  24.1751  24.2281  24.7732  25.1049  25.7680

          k = 0.4000 0.4091 0.0049 ( 19010 PWs)   bands (ev):

   -84.8566 -63.9136 -63.8977 -63.8718 -48.8719 -48.2738 -47.9156 -32.6852
   -32.6712 -32.6574 -28.3621 -28.3140 -28.2850 -28.2123 -28.1947 -28.1475
    -7.7927  -7.2902  -7.0535  -6.7735  -6.6483  -6.3120  -6.2005  -6.0884
     3.2662   3.3981   3.6318   4.0203   4.2132   4.5938   4.8900   5.2657
     5.6135   5.6728   5.9332   6.3501   6.4506   6.7052   6.8069   6.8895
     7.3190   7.4966   7.7658   8.0539   8.1477   8.4385   8.6078   8.9158
     9.1716   9.3786   9.5209   9.5813   9.6998  13.5453  13.9931  14.0412
    14.4744  14.6044  15.0559  16.7492  16.8203  16.9836  17.5683  17.8020
    18.0572  18.5424  18.8733  19.5811  20.4406  20.6606  21.2155  21.6924
    22.7025  23.1188  23.3643  24.1752  24.2874  24.7924  25.0823  25.6765

          k = 0.4250 0.4091 0.0052 ( 19008 PWs)   bands (ev):

   -84.8566 -63.9136 -63.8977 -63.8718 -48.8719 -48.2738 -47.9156 -32.6852
   -32.6712 -32.6574 -28.3621 -28.3139 -28.2851 -28.2124 -28.1947 -28.1475
    -7.7818  -7.2813  -7.0672  -6.7779  -6.6439  -6.3070  -6.2150  -6.0858
     3.2577   3.3841   3.6310   4.0180   4.2125   4.5818   4.9007   5.3025
     5.5950   5.7043   5.9823   6.3734   6.4375   6.7153   6.7938   6.8755
     7.2269   7.5362   7.7596   8.0588   8.1211   8.4806   8.5787   8.9105
     9.1890   9.3646   9.4966   9.5942   9.7176  13.5488  13.9982  14.0357
    14.4625  14.5894  15.0826  16.7332  16.8357  16.9746  17.5806  17.7781
    18.0436  18.5607  18.9007  19.6259  20.4767  20.7287  21.1598  21.5989
    22.6815  23.1110  23.3186  24.1444  24.3977  24.8057  25.0438  25.5757

          k = 0.4500 0.4091 0.0055 ( 18996 PWs)   bands (ev):

   -84.8566 -63.9136 -63.8977 -63.8718 -48.8719 -48.2738 -47.9156 -32.6852
   -32.6712 -32.6575 -28.3621 -28.3139 -28.2852 -28.2125 -28.1947 -28.1475
    -7.7738  -7.2739  -7.0780  -6.7811  -6.6406  -6.3031  -6.2261  -6.0840
     3.2518   3.3734   3.6301   4.0177   4.2115   4.5731   4.9086   5.3346
     5.5699   5.7318   6.0265   6.3976   6.4243   6.7221   6.7792   6.8695
     7.1498   7.5783   7.7368   8.0641   8.1137   8.4605   8.6120   8.8942
     9.2144   9.3444   9.4742   9.6042   9.7334  13.5510  14.0033  14.0309
    14.4536  14.5782  15.1022  16.7211  16.8490  16.9659  17.5938  17.7562
    18.0345  18.5737  18.9213  19.6581  20.5051  20.8004  21.1058  21.5212
    22.6656  23.1079  23.2811  24.1233  24.5130  24.8124  24.9864  25.4929

          k = 0.4750 0.4091 0.0058 ( 19008 PWs)   bands (ev):

   -84.8566 -63.9136 -63.8977 -63.8718 -48.8719 -48.2738 -47.9156 -32.6852
   -32.6712 -32.6575 -28.3621 -28.3139 -28.2852 -28.2125 -28.1947 -28.1475
    -7.7689  -7.2691  -7.0849  -6.7831  -6.6385  -6.3006  -6.2331  -6.0829
     3.2483   3.3666   3.6295   4.0180   4.2106   4.5678   4.9136   5.3581
     5.5496   5.7490   6.0574   6.4092   6.4225   6.7257   6.7670   6.8687
     7.0969   7.6210   7.7033   8.0592   8.1264   8.4282   8.6559   8.8740
     9.2424   9.3208   9.4586   9.6107   9.7438  13.5522  14.0078  14.0267
    14.4482  14.5713  15.1142  16.7135  16.8584  16.9593  17.6050  17.7399
    18.0294  18.5815  18.9341  19.6774  20.5235  20.8680  21.0540  21.4682
    22.6556  23.1077  23.2560  24.1112  24.6249  24.8073  24.9179  25.4414

          k = 0.5000 0.4091 0.0061 ( 19012 PWs)   bands (ev):

   -84.8566 -63.9136 -63.8977 -63.8718 -48.8719 -48.2738 -47.9156 -32.6852
   -32.6712 -32.6575 -28.3621 -28.3139 -28.2853 -28.2125 -28.1947 -28.1475
    -7.7672  -7.2674  -7.0873  -6.7837  -6.6379  -6.2997  -6.2355  -6.0825
     3.2472   3.3642   3.6292   4.0182   4.2102   4.5661   4.9153   5.3671
     5.5414   5.7548   6.0685   6.4066   6.4292   6.7268   6.7620   6.8691
     7.0777   7.6586   7.6684   8.0561   8.1345   8.4146   8.6749   8.8638
     9.2594   9.3055   9.4531   9.6129   9.7474  13.5526  14.0100  14.0247
    14.4463  14.5689  15.1183  16.7109  16.8619  16.9567  17.6095  17.7335
    18.0277  18.5841  18.9384  19.6838  20.5298  20.9043  21.0241  21.4492
    22.6522  23.1081  23.2469  24.1072  24.6948  24.7847  24.8830  25.4244

          k = 0.4750 0.3886 0.0058 ( 19014 PWs)   bands (ev):

   -84.8566 -63.9136 -63.8977 -63.8718 -48.8719 -48.2738 -47.9156 -32.6852
   -32.6712 -32.6575 -28.3622 -28.3139 -28.2852 -28.2125 -28.1947 -28.1475
    -7.7699  -7.2682  -7.0844  -6.7828  -6.6379  -6.3005  -6.2345  -6.0830
     3.2494   3.3680   3.6299   4.0180   4.2102   4.5693   4.9109   5.3524
     5.5470   5.7535   6.0529   6.4041   6.4282   6.7243   6.7678   6.8747
     7.0968   7.6163   7.6996   8.0591   8.1270   8.4343   8.6625   8.8733
     9.2423   9.3175   9.4613   9.6105   9.7455  13.5533  14.0063  14.0258
    14.4492  14.5696  15.1142  16.7144  16.8582  16.9590  17.6054  17.7413
    18.0315  18.5783  18.9339  19.6735  20.5067  20.8688  21.0649  21.4742
    22.6501  23.1053  23.2558  24.1107  24.6259  24.7776  24.9436  25.4328

          k = 0.4500 0.3682 0.0055 ( 19014 PWs)   bands (ev):

   -84.8566 -63.9136 -63.8977 -63.8718 -48.8719 -48.2738 -47.9156 -32.6852
   -32.6712 -32.6574 -28.3622 -28.3140 -28.2852 -28.2125 -28.1946 -28.1475
    -7.7782  -7.2699  -7.0762  -6.7800  -6.6382  -6.3028  -6.2315  -6.0844
     3.2553   3.3796   3.6317   4.0181   4.2102   4.5781   4.8983   5.3158
     5.5573   5.7486   6.0115   6.3787   6.4458   6.7150   6.7830   6.8897
     7.1500   7.5598   7.7280   8.0662   8.1125   8.4763   8.6410   8.8922
     9.2137   9.3322   9.4848   9.6037   9.7401  13.5552  13.9976  14.0269
    14.4570  14.5719  15.1025  16.7244  16.8481  16.9650  17.5959  17.7612
    18.0431  18.5606  18.9211  19.6422  20.4425  20.8289  21.1177  21.5475
    22.6445  23.1001  23.2763  24.1195  24.5257  24.7448  25.0306  25.4647

          k = 0.4250 0.3477 0.0052 ( 19015 PWs)   bands (ev):

   -84.8566 -63.9136 -63.8977 -63.8718 -48.8719 -48.2738 -47.9156 -32.6852
   -32.6712 -32.6574 -28.3622 -28.3141 -28.2852 -28.2124 -28.1945 -28.1474
    -7.7925  -7.2705  -7.0641  -6.7754  -6.6386  -6.3064  -6.2268  -6.0865
     3.2626   3.3994   3.6343   4.0198   4.2104   4.5890   4.8792   5.2694
     5.5627   5.7376   5.9580   6.3425   6.4732   6.6977   6.8018   6.9129
     7.2264   7.5011   7.7553   8.0628   8.1118   8.4995   8.6473   8.9065
     9.1893   9.3387   9.5195   9.5938   9.7327  13.5581  13.9856  14.0266
    14.4670  14.5770  15.0846  16.7396  16.8336  16.9726  17.5858  17.7869
    18.0629  18.5308  18.9019  19.5899  20.3551  20.8119  21.1502  21.6569
    22.6382  23.0964  23.2978  24.1285  24.4488  24.7023  25.0813  25.5223

          k = 0.4000 0.3273 0.0049 ( 19012 PWs)   bands (ev):

   -84.8566 -63.9136 -63.8977 -63.8718 -48.8719 -48.2738 -47.9156 -32.6852
   -32.6712 -32.6574 -28.3623 -28.3143 -28.2851 -28.2123 -28.1944 -28.1474
    -7.8134  -7.2679  -7.0493  -6.7692  -6.6390  -6.3111  -6.2209  -6.0891
     3.2695   3.4267   3.6371   4.0255   4.2111   4.5950   4.8591   5.2213
     5.5553   5.7163   5.9102   6.3042   6.5020   6.6735   6.8186   6.9429
     7.3091   7.4532   7.7868   8.0407   8.1330   8.4893   8.6902   8.9106
     9.1758   9.3359   9.5538   9.5863   9.7265  13.5617  13.9711  14.0252
    14.4759  14.5862  15.0631  16.7582  16.8167  16.9802  17.5782  17.8130
    18.0900  18.4898  18.8779  19.5186  20.2651  20.8115  21.1678  21.7825
    22.6342  23.0944  23.3138  24.1308  24.4063  24.6694  25.0945  25.5748

          k = 0.3750 0.3068 0.0046 ( 19012 PWs)   bands (ev):

   -84.8566 -63.9136 -63.8977 -63.8718 -48.8719 -48.2738 -47.9156 -32.6852
   -32.6712 -32.6574 -28.3624 -28.3145 -28.2850 -28.2121 -28.1942 -28.1473
    -7.8407  -7.2606  -7.0333  -6.7618  -6.6394  -6.3169  -6.2137  -6.0920
     3.2749   3.4583   3.6389   4.0391   4.2123   4.5855   4.8474   5.1766
     5.5260   5.6866   5.8826   6.2663   6.5267   6.6463   6.8320   6.9742
     7.3556   7.4542   7.8259   8.0121   8.1622   8.4768   8.7305   8.9099
     9.1756   9.3237   9.5536   9.6080   9.7275  13.5656  13.9537  14.0231
    14.4808  14.5995  15.0408  16.7767  16.8001  16.9867  17.5747  17.8358
    18.1194  18.4429  18.8491  19.4353  20.1834  20.8212  21.1786  21.9070
    22.6361  23.0906  23.3262  24.1224  24.3891  24.6652  25.0887  25.5789

          k = 0.3500 0.2864 0.0043 ( 19020 PWs)   bands (ev):

   -84.8566 -63.9137 -63.8976 -63.8718 -48.8719 -48.2738 -47.9156 -32.6851
   -32.6712 -32.6574 -28.3625 -28.3147 -28.2849 -28.2119 -28.1940 -28.1472
    -7.8743  -7.2478  -7.0168  -6.7532  -6.6398  -6.3239  -6.2054  -6.0949
     3.2788   3.4899   3.6382   4.0643   4.2136   4.5541   4.8486   5.1400
     5.4692   5.6604   5.8750   6.2294   6.5390   6.6259   6.8436   7.0001
     7.3412   7.5236   7.8713   7.9859   8.1920   8.4794   8.7420   8.9174
     9.1858   9.3022   9.5350   9.6352   9.7428  13.5697  13.9330  14.0210
    14.4809  14.6149  15.0210  16.7742  16.8038  16.9915  17.5760  17.8526
    18.1367  18.4030  18.8140  19.3519  20.1130  20.8373  21.1886  22.0175
    22.6471  23.0818  23.3439  24.1001  24.3856  24.6957  25.0826  25.5280

          k = 0.3250 0.2659 0.0040 ( 19019 PWs)   bands (ev):

   -84.8566 -63.9137 -63.8976 -63.8717 -48.8719 -48.2738 -47.9156 -32.6851
   -32.6712 -32.6574 -28.3626 -28.3150 -28.2848 -28.2117 -28.1938 -28.1471
    -7.9131  -7.2294  -7.0004  -6.7441  -6.6399  -6.3321  -6.1961  -6.0974
     3.2813   3.5171   3.6332   4.1033   4.2147   4.5063   4.8515   5.1201
     5.3940   5.6421   5.8793   6.1943   6.5286   6.6247   6.8552   7.0168
     7.3200   7.6000   7.9009   7.9872   8.2190   8.5022   8.7247   8.9335
     9.1993   9.2746   9.5122   9.6548   9.7705  13.5741  13.9087  14.0192
    14.4765  14.6301  15.0062  16.7562  16.8219  16.9940  17.5818  17.8607
    18.1223  18.3859  18.7726  19.2838  20.0526  20.8576  21.2018  22.1040
    22.6695  23.0688  23.3744  24.0593  24.3979  24.7430  25.0941  25.4474

          k = 0.3000 0.2455 0.0037 ( 19021 PWs)   bands (ev):

   -84.8566 -63.9137 -63.8976 -63.8717 -48.8719 -48.2738 -47.9156 -32.6851
   -32.6712 -32.6574 -28.3627 -28.3153 -28.2846 -28.2115 -28.1936 -28.1470
    -7.9559  -7.2063  -6.9846  -6.7350  -6.6396  -6.3413  -6.1862  -6.0989
     3.2825   3.5368   3.6236   4.1518   4.2155   4.4560   4.8372   5.1268
     5.3160   5.6279   5.8884   6.1625   6.5052   6.6346   6.8691   7.0250
     7.3006   7.6679   7.8901   8.0390   8.2436   8.5425   8.6947   8.9470
     9.1974   9.2569   9.4894   9.6727   9.8004  13.5791  13.8805  14.0180
    14.4679  14.6438  14.9976  16.7380  16.8387  16.9941  17.5908  17.8544
    18.0794  18.3812  18.7333  19.2436  20.0002  20.8811  21.2215  22.1610
    22.7023  23.0571  23.4169  24.0039  24.4288  24.7826  25.1297  25.3679

          k = 0.2750 0.2250 0.0033 ( 19022 PWs)   bands (ev):

   -84.8566 -63.9138 -63.8976 -63.8717 -48.8719 -48.2738 -47.9156 -32.6851
   -32.6712 -32.6574 -28.3628 -28.3156 -28.2845 -28.2113 -28.1933 -28.1469
    -8.0013  -7.1793  -6.9694  -6.7264  -6.6387  -6.3514  -6.1768  -6.0984
     3.2824   3.5460   3.6117   4.1829   4.2264   4.4233   4.7994   5.1502
     5.2554   5.6152   5.8970   6.1366   6.4823   6.6427   6.8878   7.0276
     7.2829   7.7245   7.8673   8.1061   8.2676   8.5921   8.6658   8.9502
     9.1643   9.2660   9.4709   9.6922   9.8243  13.5853  13.8486  14.0171
    14.4553  14.6564  14.9943  16.7215  16.8526  16.9916  17.5987  17.8242
    18.0365  18.3561  18.7140  19.2359  19.9541  20.9075  21.2501  22.1905
    22.7403  23.0513  23.4601  23.9505  24.4739  24.8061  25.1443  25.3453

          k = 0.2500 0.2045 0.0030 ( 19022 PWs)   bands (ev):

   -84.8566 -63.9138 -63.8976 -63.8717 -48.8719 -48.2738 -47.9156 -32.6851
   -32.6712 -32.6574 -28.3629 -28.3159 -28.2843 -28.2111 -28.1930 -28.1468
    -8.0477  -7.1500  -6.9544  -6.7190  -6.6371  -6.3619  -6.1698  -6.0941
     3.2810   3.5411   3.6025   4.1686   4.2455   4.4357   4.7473   5.1357
     5.2621   5.6025   5.9011   6.1203   6.4648   6.6447   6.9123   7.0270
     7.2683   7.7694   7.8424   8.1664   8.2932   8.6187   8.6706   8.9393
     9.1222   9.2852   9.4609   9.7129   9.8382  13.5932  13.8139  14.0166
    14.4392  14.6695  14.9940  16.7075  16.8623  16.9871  17.5946  17.7731
    18.0107  18.3017  18.7205  19.2579  19.9131  20.9380  21.2885  22.1996
    22.7765  23.0513  23.4797  23.9278  24.5272  24.8177  25.1003  25.4061

          k = 0.2250 0.1841 0.0027 ( 19023 PWs)   bands (ev):

   -84.8566 -63.9138 -63.8975 -63.8717 -48.8719 -48.2738 -47.9156 -32.6851
   -32.6712 -32.6574 -28.3630 -28.3162 -28.2841 -28.2108 -28.1928 -28.1466
    -8.0938  -7.1200  -6.9392  -6.7135  -6.6347  -6.3726  -6.1666  -6.0848
     3.2782   3.5223   3.5979   4.1326   4.2457   4.4863   4.6966   5.0940
     5.3175   5.5891   5.8992   6.1171   6.4526   6.6425   6.9404   7.0266
     7.2595   7.7991   7.8214   8.2033   8.3227   8.6078   8.7214   8.9135
     9.0849   9.3095   9.4612   9.7327   9.8413  13.6025  13.7780  14.0162
    14.4206  14.6843  14.9939  16.6962  16.8669  16.9807  17.5541  17.7344
    17.9937  18.2387  18.7415  19.3014  19.8763  20.9749  21.3366  22.1968
    22.8047  23.0527  23.4561  23.9580  24.5834  24.8163  25.0607  25.4606

          k = 0.2000 0.1636 0.0024 ( 19031 PWs)   bands (ev):

   -84.8566 -63.9138 -63.8975 -63.8717 -48.8719 -48.2738 -47.9156 -32.6851
   -32.6712 -32.6574 -28.3631 -28.3165 -28.2839 -28.2106 -28.1925 -28.1465
    -8.1383  -7.0914  -6.9227  -6.7099  -6.6318  -6.3830  -6.1674  -6.0707
     3.2741   3.4954   3.5939   4.0894   4.2357   4.5232   4.6769   5.0629
     5.3778   5.5744   5.8946   6.1284   6.4422   6.6413   6.9637   7.0342
     7.2588   7.7809   7.8390   8.2094   8.3498   8.6022   8.7695   8.8797
     9.0588   9.3385   9.4724   9.7472   9.8365  13.6121  13.7441  14.0160
    14.4003  14.7012  14.9920  16.6879  16.8648  16.9723  17.4719  17.7253
    17.9711  18.1906  18.7679  19.3559  19.8429  21.0211  21.3933  22.1892
    22.8181  23.0505  23.4035  24.0277  24.6344  24.8046  25.0596  25.4434

          k = 0.1750 0.1432 0.0021 ( 19031 PWs)   bands (ev):

   -84.8566 -63.9138 -63.8975 -63.8717 -48.8719 -48.2738 -47.9156 -32.6851
   -32.6712 -32.6574 -28.3632 -28.3167 -28.2838 -28.2104 -28.1922 -28.1464
    -8.1802  -7.0661  -6.9037  -6.7082  -6.6289  -6.3932  -6.1708  -6.0537
     3.2689   3.4649   3.5879   4.0479   4.2175   4.5120   4.7080   5.0530
     5.4280   5.5601   5.8921   6.1537   6.4298   6.6468   6.9735   7.0577
     7.2664   7.7517   7.8610   8.1925   8.3557   8.6080   8.7857   8.8651
     9.0485   9.3688   9.4950   9.7477   9.8330  13.6169  13.7189  14.0161
    14.3791  14.7200  14.9870  16.6822  16.8549  16.9601  17.3755  17.7271
    17.9392  18.1677  18.7978  19.4110  19.8123  21.0791  21.4567  22.1813
    22.8051  23.0467  23.3478  24.1069  24.6628  24.8152  25.0918  25.3747

          k = 0.1500 0.1227 0.0018 ( 19014 PWs)   bands (ev):

   -84.8566 -63.9138 -63.8975 -63.8717 -48.8719 -48.2738 -47.9156 -32.6851
   -32.6712 -32.6574 -28.3633 -28.3170 -28.2836 -28.2102 -28.1920 -28.1463
    -8.2184  -7.0456  -6.8815  -6.7078  -6.6266  -6.4030  -6.1757  -6.0354
     3.2631   3.4332   3.5794   4.0122   4.1904   4.4876   4.7452   5.0704
     5.4552   5.5549   5.8934   6.1912   6.4146   6.6607   6.9788   7.0886
     7.2808   7.7248   7.8777   8.1625   8.3308   8.6154   8.7626   8.8847
     9.0581   9.3938   9.5293   9.7285   9.8393  13.6087  13.7122  14.0163
    14.3577  14.7399  14.9787  16.6786  16.8357  16.9417  17.2862  17.7261
    17.9086  18.1632  18.8316  19.4586  19.7843  21.1500  21.5248  22.1758
    22.7557  23.0502  23.3004  24.1720  24.6684  24.8690  25.1340  25.3005

          k = 0.1250 0.1023 0.0015 ( 19015 PWs)   bands (ev):

   -84.8566 -63.9138 -63.8975 -63.8717 -48.8719 -48.2738 -47.9156 -32.6851
   -32.6712 -32.6574 -28.3634 -28.3172 -28.2835 -28.2100 -28.1918 -28.1462
    -8.2521  -7.0306  -6.8565  -6.7083  -6.6255  -6.4124  -6.1809  -6.0174
     3.2574   3.4017   3.5692   3.9837   4.1568   4.4709   4.7642   5.1119
     5.4501   5.5715   5.8955   6.2345   6.4017   6.6790   6.9928   7.1162
     7.2979   7.7050   7.8883   8.1273   8.2825   8.5946   8.7560   8.9054
     9.0860   9.4093   9.5688   9.6996   9.8513  13.5883  13.7236  14.0167
    14.3365  14.7601  14.9676  16.6764  16.8044  16.9169  17.2169  17.7179
    17.8898  18.1672  18.8694  19.4931  19.7597  21.2330  21.5946  22.1736
    22.6758  23.0629  23.2592  24.2107  24.6784  24.9453  25.1307  25.2850

          k = 0.1000 0.0818 0.0012 ( 19014 PWs)   bands (ev):

   -84.8566 -63.9138 -63.8975 -63.8717 -48.8719 -48.2738 -47.9156 -32.6851
   -32.6712 -32.6574 -28.3634 -28.3174 -28.2834 -28.2099 -28.1916 -28.1462
    -8.2807  -7.0203  -6.8303  -6.7090  -6.6260  -6.4211  -6.1859  -6.0009
     3.2529   3.3714   3.5585   3.9623   4.1217   4.4633   4.7679   5.1638
     5.4261   5.6041   5.8933   6.2697   6.4016   6.6965   7.0239   7.1348
     7.3118   7.6952   7.8933   8.0926   8.2250   8.5375   8.7758   8.9242
     9.1238   9.4144   9.5910   9.6864   9.8635  13.5652  13.7437  14.0171
    14.3162  14.7798  14.9546  16.6749  16.7597  16.8921  17.1709  17.7046
    17.8833  18.1735  18.9103  19.5114  19.7402  21.3246  21.6625  22.1742
    22.5811  23.0781  23.2207  24.2251  24.7000  25.0176  25.0782  25.3441

          k = 0.0750 0.0614 0.0009 ( 19023 PWs)   bands (ev):

   -84.8566 -63.9138 -63.8975 -63.8717 -48.8719 -48.2738 -47.9156 -32.6851
   -32.6712 -32.6574 -28.3635 -28.3176 -28.2833 -28.2098 -28.1914 -28.1461
    -8.3034  -7.0137  -6.8052  -6.7096  -6.6284  -6.4289  -6.1901  -5.9870
     3.2507   3.3434   3.5486   3.9471   4.0905   4.4618   4.7644   5.2132
     5.3971   5.6454   5.8830   6.2846   6.4209   6.7104   7.0737   7.1431
     7.3181   7.6911   7.8976   8.0624   8.1719   8.4643   8.7995   8.9462
     9.1633   9.4081   9.5766   9.7099   9.8731  13.5450  13.7656  14.0174
    14.2980  14.7978  14.9410  16.6724  16.7092  16.8728  17.1431  17.6915
    17.8839  18.1794  18.9512  19.5138  19.7276  21.4190  21.7236  22.1756
    22.4862  23.0869  23.1881  24.2255  24.7246  24.9950  25.1110  25.4218

          k = 0.0500 0.0409 0.0006 ( 19022 PWs)   bands (ev):

   -84.8566 -63.9138 -63.8975 -63.8717 -48.8719 -48.2738 -47.9156 -32.6851
   -32.6712 -32.6574 -28.3635 -28.3177 -28.2832 -28.2097 -28.1913 -28.1461
    -8.3200  -7.0097  -6.7839  -6.7095  -6.6322  -6.4351  -6.1932  -5.9764
     3.2517   3.3190   3.5407   3.9371   4.0665   4.4632   4.7591   5.2543
     5.3684   5.6924   5.8622   6.2863   6.4465   6.7217   7.1255   7.1534
     7.3158   7.6793   7.9125   8.0376   8.1329   8.3902   8.8160   8.9711
     9.2002   9.3897   9.5543   9.7430   9.8788  13.5298  13.7850  14.0174
    14.2832  14.8131  14.9284  16.6541  16.6799  16.8599  17.1267  17.6817
    17.8870  18.1839  18.9877  19.5053  19.7213  21.5069  21.7719  22.1742
    22.4052  23.0807  23.1713  24.2213  24.7433  24.9512  25.1639  25.4959

          k = 0.0250 0.0205 0.0003 ( 19027 PWs)   bands (ev):

   -84.8566 -63.9138 -63.8975 -63.8717 -48.8719 -48.2738 -47.9156 -32.6851
   -32.6712 -32.6574 -28.3636 -28.3177 -28.2831 -28.2097 -28.1913 -28.1460
    -8.3301  -7.0077  -6.7696  -6.7088  -6.6359  -6.4392  -6.1951  -5.9699
     3.2556   3.3003   3.5357   3.9314   4.0516   4.4650   4.7549   5.2871
     5.3416   5.7412   5.8311   6.2852   6.4643   6.7307   7.1290   7.2078
     7.3042   7.6576   7.9410   8.0163   8.1118   8.3306   8.8246   8.9920
     9.2308   9.3649   9.5404   9.7676   9.8811  13.5204  13.7985  14.0172
    14.2734  14.8240  14.9189  16.6250  16.6768  16.8526  17.1179  17.6759
    17.8897  18.1865  19.0137  19.4945  19.7190  21.5740  21.8018  22.1676
    22.3523  23.0656  23.1687  24.2173  24.7522  24.9263  25.1967  25.5499

          k = 0.0000 0.0000 0.0000 ( 19031 PWs)   bands (ev):

   -84.8566 -63.9138 -63.8975 -63.8717 -48.8719 -48.2738 -47.9156 -32.6851
   -32.6712 -32.6574 -28.3636 -28.3178 -28.2831 -28.2096 -28.1912 -28.1460
    -8.3334  -7.0070  -6.7645  -6.7084  -6.6376  -6.4406  -6.1958  -5.9676
     3.2586   3.2922   3.5340   3.9295   4.0465   4.4658   4.7534   5.3110
     5.3194   5.7797   5.7988   6.2848   6.4702   6.7344   7.1265   7.2432
     7.2896   7.6458   7.9610   8.0029   8.1057   8.3065   8.8271   9.0002
     9.2449   9.3514   9.5360   9.7766   9.8814  13.5173  13.8034  14.0171
    14.2699  14.8281  14.9152  16.6141  16.6763  16.8502  17.1150  17.6741
    17.8907  18.1874  19.0232  19.4897  19.7185  21.6002  21.8114  22.1628
    22.3349  23.0584  23.1692  24.2158  24.7542  24.9190  25.2076  25.5698

          k = 0.0001 0.0000 0.0232 ( 19034 PWs)   bands (ev):

   -84.8566 -63.9138 -63.8975 -63.8717 -48.8719 -48.2738 -47.9156 -32.6851
   -32.6712 -32.6574 -28.3636 -28.3179 -28.2830 -28.2100 -28.1910 -28.1460
    -8.3311  -7.0073  -6.7692  -6.7102  -6.6329  -6.4401  -6.1963  -5.9682
     3.2578   3.2943   3.5338   3.9332   4.0482   4.4564   4.7581   5.3063
     5.3309   5.7476   5.8148   6.2897   6.4712   6.7425   7.1228   7.2350
     7.2990   7.6456   7.9143   8.0358   8.1155   8.3128   8.8204   8.9984
     9.2407   9.3548   9.5380   9.7788   9.8800  13.5204  13.8024  14.0160
    14.2689  14.8266  14.9129  16.6217  16.6769  16.8503  17.1163  17.6707
    17.8915  18.1879  19.0099  19.5043  19.7186  21.6033  21.8070  22.1473
    22.3360  23.0601  23.1836  24.2125  24.7319  24.9212  25.2344  25.5656

          k = 0.0001 0.0000 0.0465 ( 19017 PWs)   bands (ev):

   -84.8566 -63.9138 -63.8976 -63.8717 -48.8719 -48.2738 -47.9156 -32.6851
   -32.6712 -32.6574 -28.3637 -28.3181 -28.2827 -28.2110 -28.1902 -28.1458
    -8.3241  -7.0082  -6.7816  -6.7160  -6.6204  -6.4387  -6.1978  -5.9701
     3.2558   3.3003   3.5334   3.9440   4.0531   4.4309   4.7703   5.3045
     5.3514   5.6918   5.8283   6.3016   6.4716   6.7659   7.1154   7.2191
     7.3150   7.6456   7.8566   8.0358   8.1634   8.3304   8.8013   8.9913
     9.2320   9.3631   9.5424   9.7855   9.8758  13.5295  13.7995  14.0129
    14.2658  14.8222  14.9059  16.6440  16.6789  16.8509  17.1202  17.6610
    17.8936  18.1893  18.9745  19.5431  19.7191  21.6126  21.7922  22.1081
    22.3367  23.0640  23.2255  24.2029  24.6771  24.9272  25.3023  25.5536

          k = 0.0002 0.0000 0.0697 ( 18997 PWs)   bands (ev):

   -84.8566 -63.9138 -63.8976 -63.8717 -48.8719 -48.2738 -47.9156 -32.6851
   -32.6712 -32.6574 -28.3638 -28.3185 -28.2823 -28.2124 -28.1890 -28.1455
    -8.3125  -7.0096  -6.7983  -6.7261  -6.6031  -6.4367  -6.1999  -5.9731
     3.2531   3.3094   3.5324   3.9615   4.0613   4.3948   4.7865   5.3068
     5.3727   5.6288   5.8378   6.3158   6.4671   6.7990   7.1134   7.2009
     7.3232   7.6482   7.8074   8.0118   8.2236   8.3597   8.7717   8.9752
     9.2259   9.3736   9.5459   9.7971   9.8693  13.5445  13.7950  14.0081
    14.2608  14.8148  14.8945  16.6752  16.6858  16.8520  17.1279  17.6464
    17.8959  18.1917  18.9262  19.5965  19.7204  21.6269  21.7617  22.0602
    22.3344  23.0688  23.2900  24.1882  24.6083  24.9350  25.3910  25.5364

          k = 0.0002 0.0000 0.0930 ( 19007 PWs)   bands (ev):

   -84.8566 -63.9137 -63.8977 -63.8717 -48.8719 -48.2738 -47.9156 -32.6851
   -32.6712 -32.6574 -28.3639 -28.3191 -28.2816 -28.2142 -28.1876 -28.1451
    -8.2963  -7.0116  -6.8171  -6.7404  -6.5831  -6.4344  -6.2022  -5.9772
     3.2502   3.3213   3.5307   3.9844   4.0728   4.3539   4.8041   5.3095
     5.3818   5.5789   5.8460   6.3295   6.4564   6.8277   7.1284   7.1814
     7.3154   7.6580   7.7646   7.9866   8.2698   8.4062   8.7337   8.9488
     9.2263   9.3851   9.5460   9.8130   9.8611  13.5651  13.7894  14.0017
    14.2537  14.8045  14.8786  16.6837  16.7253  16.8541  17.1412  17.6284
    17.8976  18.1950  18.8720  19.6545  19.7248  21.6439  21.7090  22.0185
    22.3305  23.0743  23.3703  24.1702  24.5362  24.9414  25.4872  25.5179

          k = 0.0003 0.0000 0.1162 ( 19008 PWs)   bands (ev):

   -84.8566 -63.9136 -63.8978 -63.8717 -48.8719 -48.2738 -47.9156 -32.6851
   -32.6712 -32.6574 -28.3640 -28.3198 -28.2808 -28.2163 -28.1861 -28.1446
    -8.2756  -7.0141  -6.8367  -6.7590  -6.5620  -6.4323  -6.2040  -5.9823
     3.2474   3.3354   3.5280   4.0107   4.0872   4.3139   4.8219   5.2997
     5.3687   5.5671   5.8541   6.3406   6.4428   6.8377   7.1503   7.1781
     7.2924   7.6771   7.7215   7.9703   8.2962   8.4702   8.6891   8.9136
     9.2330   9.3965   9.5423   9.8295   9.8542  13.5907  13.7835  13.9942
    14.2448  14.7913  14.8585  16.6884  16.7718  16.8590  17.1636  17.6088
    17.8977  18.1990  18.8166  19.6974  19.7469  21.6234  21.6691  21.9907
    22.3292  23.0806  23.4590  24.1516  24.4655  24.9419  25.5022  25.5835

          k = 0.0003 0.0000 0.1395 ( 19013 PWs)   bands (ev):

   -84.8566 -63.9135 -63.8979 -63.8717 -48.8719 -48.2738 -47.9156 -32.6851
   -32.6712 -32.6574 -28.3642 -28.3207 -28.2799 -28.2185 -28.1845 -28.1440
    -8.2505  -7.0172  -6.8566  -6.7817  -6.5406  -6.4306  -6.2050  -5.9884
     3.2447   3.3512   3.5243   4.0362   4.1027   4.2822   4.8391   5.2527
     5.3641   5.5876   5.8623   6.3454   6.4333   6.8269   7.1271   7.2250
     7.2746   7.6721   7.7019   7.9677   8.3097   8.5428   8.6403   8.8729
     9.2436   9.4068   9.5360   9.8320   9.8619  13.6210  13.7779  13.9857
    14.2343  14.7753  14.8344  16.6932  16.8085  16.8723  17.1996  17.5894
    17.8958  18.2035  18.7626  19.7087  19.8000  21.5244  21.6834  21.9755
    22.3362  23.0880  23.5484  24.1361  24.3993  24.9323  25.4948  25.6725

          k = 0.0004 0.0000 0.1627 ( 19014 PWs)   bands (ev):

   -84.8566 -63.9134 -63.8980 -63.8717 -48.8719 -48.2738 -47.9156 -32.6851
   -32.6712 -32.6574 -28.3644 -28.3216 -28.2788 -28.2209 -28.1829 -28.1434
    -8.2211  -7.0208  -6.8766  -6.8085  -6.5194  -6.4294  -6.2045  -5.9954
     3.2423   3.3682   3.5195   4.0554   4.1132   4.2711   4.8553   5.1855
     5.3730   5.6185   5.8705   6.3399   6.4349   6.8019   7.0934   7.2152
     7.3299   7.6178   7.7244   7.9791   8.3163   8.5871   8.6207   8.8292
     9.2557   9.4147   9.5293   9.8229   9.8805  13.6551  13.7735  13.9765
    14.2223  14.7563  14.8069  16.6982  16.8246  16.8981  17.2525  17.5728
    17.8917  18.2085  18.7119  19.7117  19.8588  21.4078  21.6938  21.9678
    22.3582  23.0967  23.6292  24.1279  24.3415  24.9098  25.4971  25.7504

          k = 0.0005 0.0000 0.1860 ( 19012 PWs)   bands (ev):

   -84.8566 -63.9133 -63.8981 -63.8717 -48.8719 -48.2738 -47.9156 -32.6851
   -32.6712 -32.6574 -28.3645 -28.3227 -28.2776 -28.2233 -28.1814 -28.1427
    -8.1876  -7.0250  -6.8968  -6.8385  -6.4988  -6.4287  -6.2025  -6.0030
     3.2405   3.3858   3.5138   4.0609   4.1149   4.2911   4.8688   5.1204
     5.3853   5.6478   5.8787   6.3269   6.4473   6.7691   7.0532   7.1913
     7.4037   7.5634   7.7392   8.0016   8.3190   8.5412   8.6933   8.7848
     9.2672   9.4188   9.5244   9.8129   9.8986  13.6923  13.7712  13.9670
    14.2092  14.7342  14.7767  16.7030  16.8281  16.9248  17.3197  17.5640
    17.8856  18.2136  18.6653  19.7134  19.9146  21.2805  21.6959  21.9634
    22.4002  23.1067  23.6899  24.1252  24.3036  24.8754  25.5060  25.8149

          k = 0.0005 0.0000 0.2092 ( 19003 PWs)   bands (ev):

   -84.8565 -63.9131 -63.8982 -63.8718 -48.8719 -48.2738 -47.9156 -32.6851
   -32.6712 -32.6574 -28.3647 -28.3238 -28.2762 -28.2258 -28.1798 -28.1421
    -8.1500  -7.0302  -6.9185  -6.8703  -6.4794  -6.4280  -6.1989  -6.0113
     3.2393   3.4029   3.5076   4.0472   4.1180   4.3361   4.8760   5.0699
     5.3976   5.6690   5.8871   6.3132   6.4645   6.7334   7.0113   7.1707
     7.4466   7.5356   7.7433   8.0298   8.3192   8.5035   8.7398   8.7666
     9.2765   9.4183   9.5224   9.8040   9.9140  13.7308  13.7725  13.9573
    14.1954  14.7083  14.7449  16.7074  16.8268  16.9458  17.3853  17.5766
    17.8781  18.2187  18.6239  19.7147  19.9653  21.1458  21.6895  21.9600
    22.4643  23.1180  23.7223  24.1082  24.3113  24.8335  25.5133  25.8659

          k = 0.0006 0.0000 0.2325 ( 19006 PWs)   bands (ev):

   -84.8565 -63.9130 -63.8984 -63.8718 -48.8719 -48.2738 -47.9156 -32.6851
   -32.6712 -32.6573 -28.3648 -28.3249 -28.2747 -28.2283 -28.1784 -28.1414
    -8.1086  -7.0370  -6.9443  -6.8998  -6.4618  -6.4268  -6.1939  -6.0199
     3.2388   3.4187   3.5013   4.0231   4.1225   4.3948   4.8725   5.0435
     5.4080   5.6784   5.8956   6.3030   6.4813   6.6990   6.9727   7.1520
     7.4148   7.5728   7.7363   8.0574   8.3170   8.4837   8.6998   8.8344
     9.2826   9.4134   9.5233   9.7971   9.9256  13.7621  13.7853  13.9478
    14.1812  14.6777  14.7133  16.7113  16.8229  16.9617  17.4215  17.6323
    17.8714  18.2235  18.5883  19.7159  20.0097  21.0060  21.6766  21.9568
    22.5491  23.1309  23.7281  24.0654  24.3698  24.7921  25.5072  25.9051

          k = 0.0006 0.0000 0.2557 ( 19000 PWs)   bands (ev):

   -84.8565 -63.9129 -63.8985 -63.8718 -48.8719 -48.2738 -47.9156 -32.6851
   -32.6712 -32.6573 -28.3649 -28.3261 -28.2732 -28.2309 -28.1770 -28.1407
    -8.0635  -7.0479  -6.9756  -6.9229  -6.4476  -6.4233  -6.1878  -6.0288
     3.2391   3.4315   3.4963   3.9973   4.1238   4.4599   4.8616   5.0425
     5.4150   5.6747   5.9037   6.2977   6.4927   6.6709   6.9408   7.1332
     7.3662   7.6118   7.7209   8.0795   8.3138   8.4876   8.6636   8.8990
     9.2850   9.4052   9.5257   9.7926   9.9333  13.7741  13.8207  13.9395
    14.1671  14.6422  14.6828  16.7146  16.8173  16.9742  17.4278  17.7196
    17.8738  18.2277  18.5593  19.7166  20.0469  20.8632  21.6606  21.9534
    22.6512  23.1453  23.7158  24.0094  24.4474  24.7659  25.4767  25.9334

          k = 0.0007 0.0000 0.2790 ( 19003 PWs)   bands (ev):

   -84.8565 -63.9127 -63.8986 -63.8718 -48.8719 -48.2738 -47.9156 -32.6851
   -32.6712 -32.6573 -28.3650 -28.3273 -28.2715 -28.2334 -28.1758 -28.1401
    -8.0151  -7.0701  -7.0041  -6.9403  -6.4394  -6.4151  -6.1810  -6.0378
     3.2401   3.4394   3.4943   3.9733   4.1197   4.5261   4.8554   5.0578
     5.4175   5.6595   5.9092   6.2969   6.4941   6.6540   6.9167   7.1129
     7.3233   7.6200   7.7068   8.0956   8.3131   8.5133   8.6338   8.9590
     9.2842   9.3946   9.5279   9.7907   9.9372  13.7836  13.8593  13.9343
    14.1534  14.6033  14.6529  16.7173  16.8105  16.9849  17.4225  17.7805
    17.9214  18.2312  18.5379  19.7160  20.0762  20.7197  21.6451  21.9495
    22.7663  23.1614  23.6939  23.9481  24.5015  24.7841  25.4170  25.9526

          k = 0.0007 0.0000 0.3022 ( 19004 PWs)   bands (ev):

   -84.8565 -63.9126 -63.8988 -63.8718 -48.8719 -48.2738 -47.9156 -32.6851
   -32.6712 -32.6573 -28.3650 -28.3284 -28.2697 -28.2359 -28.1746 -28.1395
    -7.9634  -7.1097  -7.0206  -6.9543  -6.4358  -6.4035  -6.1737  -6.0468
     3.2419   3.4409   3.4965   3.9520   4.1101   4.5886   4.8645   5.0812
     5.4150   5.6360   5.9093   6.2999   6.4848   6.6506   6.8995   7.0903
     7.2927   7.5877   7.7010   8.1085   8.3166   8.5527   8.6137   9.0138
     9.2815   9.3822   9.5285   9.7910   9.9376  13.7943  13.8903  13.9384
    14.1405  14.5629  14.6232  16.7195  16.8028  16.9944  17.4144  17.7876
    18.0291  18.2339  18.5262  19.7125  20.0968  20.5784  21.6331  21.9447
    22.8897  23.1793  23.6687  23.8852  24.5070  24.8654  25.3314  25.9662

          k = 0.0008 0.0000 0.3255 ( 19019 PWs)   bands (ev):

   -84.8565 -63.9125 -63.8989 -63.8718 -48.8719 -48.2738 -47.9156 -32.6851
   -32.6712 -32.6573 -28.3650 -28.3295 -28.2679 -28.2384 -28.1736 -28.1389
    -7.9088  -7.1610  -7.0293  -6.9657  -6.4339  -6.3917  -6.1663  -6.0555
     3.2443   3.4375   3.5020   3.9331   4.0965   4.6439   4.8925   5.1076
     5.4083   5.6076   5.9015   6.3060   6.4684   6.6589   6.8863   7.0651
     7.2786   7.5305   7.6921   8.1207   8.3223   8.5825   8.6207   9.0621
     9.2796   9.3682   9.5259   9.7934   9.9353  13.8054  13.9046  13.9608
    14.1286  14.5230  14.5932  16.7215  16.7945  17.0028  17.4064  17.7779
    18.1505  18.2358  18.5295  19.7028  20.1080  20.4441  21.6270  21.9383
    23.0153  23.1992  23.6455  23.8233  24.4862  24.9798  25.2306  25.9771

          k = 0.0009 0.0000 0.3487 ( 19018 PWs)   bands (ev):

   -84.8565 -63.9123 -63.8990 -63.8718 -48.8719 -48.2738 -47.9156 -32.6851
   -32.6712 -32.6573 -28.3650 -28.3305 -28.2661 -28.2408 -28.1727 -28.1385
    -7.8517  -7.2184  -7.0348  -6.9752  -6.4324  -6.3810  -6.1592  -6.0637
     3.2472   3.4317   3.5084   3.9161   4.0815   4.6918   4.9354   5.1337
     5.4003   5.5766   5.8846   6.3148   6.4494   6.6762   6.8746   7.0388
     7.2822   7.4607   7.6747   8.1327   8.3273   8.5853   8.6663   9.1024
     9.2818   9.3526   9.5190   9.7972   9.9311  13.8144  13.9133  13.9910
    14.1180  14.4858  14.5630  16.7236  16.7861  17.0102  17.3995  17.7646
    18.2352  18.2590  18.5602  19.6811  20.1086  20.3250  21.6275  21.9300
    23.1344  23.2210  23.6296  23.7672  24.4603  25.0433  25.1815  25.9856

          k = 0.0009 0.0000 0.3720 ( 19019 PWs)   bands (ev):

   -84.8565 -63.9122 -63.8991 -63.8718 -48.8719 -48.2738 -47.9156 -32.6851
   -32.6712 -32.6573 -28.3649 -28.3313 -28.2642 -28.2432 -28.1719 -28.1381
    -7.7922  -7.2792  -7.0386  -6.9829  -6.4311  -6.3720  -6.1525  -6.0712
     3.2503   3.4253   3.5144   3.9005   4.0675   4.7351   4.9817   5.1588
     5.3959   5.5438   5.8596   6.3258   6.4306   6.6995   6.8634   7.0153
     7.3007   7.3852   7.6498   8.1439   8.3294   8.5900   8.7153   9.1329
     9.2917   9.3359   9.5074   9.8019   9.9258  13.8196  13.9269  14.0182
    14.1084  14.4539  14.5330  16.7259  16.7778  17.0165  17.3941  17.7512
    18.2362  18.3278  18.6362  19.6383  20.0962  20.2339  21.6345  21.9196
    23.2332  23.2445  23.6207  23.7312  24.4378  24.9418  25.2930  25.9900

          k = 0.0010 0.0000 0.3952 ( 19020 PWs)   bands (ev):

   -84.8565 -63.9122 -63.8992 -63.8718 -48.8719 -48.2738 -47.9156 -32.6851
   -32.6712 -32.6573 -28.3649 -28.3320 -28.2623 -28.2454 -28.1713 -28.1378
    -7.7307  -7.3422  -7.0414  -6.9888  -6.4299  -6.3649  -6.1465  -6.0779
     3.2533   3.4193   3.5196   3.8864   4.0562   4.7759   5.0154   5.1875
     5.3989   5.5098   5.8295   6.3377   6.4139   6.7249   6.8525   7.0009
     7.3040   7.3339   7.6197   8.1537   8.3289   8.5985   8.7583   9.1540
     9.3083   9.3205   9.4908   9.8068   9.9204  13.8212  13.9465  14.0385
    14.0991  14.4305  14.5037  16.7287  16.7699  17.0214  17.3902  17.7393
    18.2361  18.3601  18.7539  19.5659  20.0716  20.1804  21.6461  21.9078
    23.2685  23.2981  23.5983  23.7488  24.4223  24.8103  25.4293  25.9858

          k = 0.0010 0.0000 0.4185 ( 19022 PWs)   bands (ev):

   -84.8565 -63.9121 -63.8992 -63.8718 -48.8719 -48.2738 -47.9156 -32.6851
   -32.6712 -32.6573 -28.3648 -28.3325 -28.2606 -28.2473 -28.1709 -28.1375
    -7.6677  -7.4066  -7.0434  -6.9929  -6.4290  -6.3597  -6.1416  -6.0832
     3.2558   3.4146   3.5236   3.8750   4.0484   4.8138   5.0250   5.2262
     5.4061   5.4774   5.7993   6.3486   6.4007   6.7477   6.8416   7.0027
     7.2322   7.3657   7.5873   8.1615   8.3268   8.6078   8.7912   9.1687
     9.2994   9.3377   9.4702   9.8110   9.9158  13.8207  13.9693  14.0508
    14.0891  14.4184  14.4761  16.7320  16.7628  17.0249  17.3877  17.7300
    18.2358  18.3735  18.8921  19.4634  20.0483  20.1544  21.6595  21.8960
    23.2911  23.3295  23.5627  23.8150  24.4177  24.6800  25.5599  25.9659

          k = 0.0011 0.0000 0.4417 ( 19026 PWs)   bands (ev):

   -84.8565 -63.9121 -63.8993 -63.8718 -48.8719 -48.2738 -47.9156 -32.6851
   -32.6712 -32.6573 -28.3648 -28.3328 -28.2593 -28.2488 -28.1707 -28.1374
    -7.6038  -7.4715  -7.0445  -6.9954  -6.4284  -6.3566  -6.1384  -6.0868
     3.2574   3.4115   3.5262   3.8673   4.0439   4.8439   5.0179   5.2683
     5.4025   5.4581   5.7759   6.3566   6.3921   6.7639   6.8312   7.0225
     7.1682   7.3964   7.5582   8.1666   8.3248   8.6148   8.8118   9.1789
     9.2860   9.3633   9.4484   9.8138   9.9126  13.8199  13.9905  14.0556
    14.0792  14.4184  14.4518  16.7351  16.7572  17.0271  17.3863  17.7241
    18.2356  18.3790  19.0347  19.3408  20.0355  20.1416  21.6704  21.8867
    23.3078  23.3428  23.5327  23.8851  24.4308  24.5649  25.6707  25.9275

          k = 0.0011 0.0000 0.4650 ( 19016 PWs)   bands (ev):

   -84.8565 -63.9120 -63.8993 -63.8718 -48.8719 -48.2738 -47.9156 -32.6851
   -32.6712 -32.6573 -28.3648 -28.3329 -28.2587 -28.2494 -28.1706 -28.1373
    -7.5484  -7.5272  -7.0449  -6.9963  -6.4282  -6.3555  -6.1372  -6.0881
     3.2580   3.4104   3.5270   3.8646   4.0424   4.8564   5.0120   5.2903
     5.3917   5.4556   5.7669   6.3596   6.3889   6.7701   6.8263   7.0402
     7.1360   7.4105   7.5449   8.1683   8.3240   8.6174   8.8187   9.1830
     9.2805   9.3770   9.4362   9.8149   9.9115  13.8195  14.0003  14.0556
    14.0747  14.4251  14.4370  16.7367  16.7548  17.0278  17.3858  17.7221
    18.2354  18.3805  19.1384  19.2433  20.0318  20.1375  21.6746  21.8832
    23.3137  23.3471  23.5208  23.9157  24.4625  24.4933  25.7246  25.8985

          k = 0.0261 0.0205 0.4653 ( 19021 PWs)   bands (ev):

   -84.8565 -63.9121 -63.8993 -63.8718 -48.8719 -48.2738 -47.9156 -32.6851
   -32.6712 -32.6573 -28.3648 -28.3330 -28.2587 -28.2494 -28.1706 -28.1373
    -7.5473  -7.5249  -7.0446  -6.9955  -6.4305  -6.3578  -6.1374  -6.0889
     3.2605   3.4112   3.5302   3.8687   4.0455   4.8526   5.0004   5.2903
     5.3855   5.4646   5.7770   6.3376   6.4012   6.7621   6.8273   7.0229
     7.1600   7.4106   7.5463   8.1729   8.3236   8.6169   8.8102   9.1777
     9.2720   9.3872   9.4412   9.8146   9.9112  13.8129  13.9966  14.0471
    14.0983  14.4257  14.4370  16.7382  16.7586  17.0267  17.3856  17.7230
    18.2293  18.3801  19.1390  19.2505  20.0214  20.1508  21.6607  21.8737
    23.2942  23.3339  23.5490  23.9268  24.4021  24.5540  25.7270  25.9031

          k = 0.0511 0.0409 0.4656 ( 19018 PWs)   bands (ev):

   -84.8565 -63.9121 -63.8993 -63.8718 -48.8719 -48.2738 -47.9156 -32.6851
   -32.6712 -32.6573 -28.3648 -28.3330 -28.2588 -28.2495 -28.1705 -28.1373
    -7.5438  -7.5183  -7.0445  -6.9927  -6.4376  -6.3642  -6.1380  -6.0911
     3.2674   3.4138   3.5394   3.8806   4.0547   4.8410   4.9713   5.2746
     5.3910   5.4797   5.8040   6.2968   6.4150   6.7409   6.8282   6.9978
     7.2026   7.4123   7.5512   8.1861   8.3223   8.6140   8.7869   9.1624
     9.2613   9.3988   9.4573   9.8144   9.9113  13.7955  13.9898  14.0447
    14.1392  14.4255  14.4393  16.7390  16.7733  17.0235  17.3852  17.7258
    18.2134  18.3782  19.1298  19.2819  20.0009  20.1800  21.6196  21.8487
    23.2254  23.3262  23.6067  23.9604  24.3399  24.6176  25.7319  25.9135

          k = 0.0761 0.0614 0.4659 ( 19017 PWs)   bands (ev):

   -84.8565 -63.9121 -63.8992 -63.8718 -48.8719 -48.2738 -47.9156 -32.6851
   -32.6712 -32.6573 -28.3649 -28.3331 -28.2588 -28.2495 -28.1705 -28.1372
    -7.5375  -7.5081  -7.0459  -6.9863  -6.4502  -6.3735  -6.1393  -6.0944
     3.2778   3.4189   3.5531   3.8996   4.0708   4.8202   4.9354   5.2366
     5.4185   5.4925   5.8400   6.2490   6.4247   6.7135   6.8239   6.9853
     7.2352   7.4208   7.5615   8.2063   8.3202   8.6044   8.7562   9.1414
     9.2585   9.4007   9.4748   9.8148   9.9145  13.7724  13.9849  14.0488
    14.1855  14.4218  14.4467  16.7371  16.7991  17.0180  17.3857  17.7298
    18.1928  18.3732  19.0996  19.3457  19.9823  20.2141  21.5542  21.8147
    23.1342  23.3111  23.6663  24.0186  24.2980  24.6625  25.7302  25.9190

          k = 0.1011 0.0818 0.4662 ( 19031 PWs)   bands (ev):

   -84.8565 -63.9121 -63.8992 -63.8718 -48.8719 -48.2738 -47.9156 -32.6851
   -32.6712 -32.6573 -28.3650 -28.3332 -28.2589 -28.2496 -28.1704 -28.1371
    -7.5284  -7.4950  -7.0500  -6.9752  -6.4690  -6.3841  -6.1417  -6.0984
     3.2902   3.4274   3.5695   3.9241   4.0941   4.7884   4.9018   5.1891
     5.4516   5.5032   5.8752   6.2023   6.4316   6.6862   6.8133   6.9897
     7.2421   7.4431   7.5791   8.2307   8.3171   8.5817   8.7295   9.1201
     9.2604   9.3970   9.4802   9.8144   9.9249  13.7481  13.9828  14.0573
    14.2322  14.4164  14.4586  16.7333  16.8318  17.0100  17.3887  17.7345
    18.1727  18.3648  19.0519  19.4358  19.9706  20.2486  21.4711  21.7771
    23.0322  23.2771  23.7131  24.1031  24.2827  24.6818  25.7021  25.9138

          k = 0.1261 0.1023 0.4665 ( 19024 PWs)   bands (ev):

   -84.8565 -63.9121 -63.8992 -63.8718 -48.8719 -48.2738 -47.9156 -32.6851
   -32.6712 -32.6574 -28.3652 -28.3334 -28.2589 -28.2497 -28.1703 -28.1370
    -7.5167  -7.4794  -7.0569  -6.9596  -6.4935  -6.3949  -6.1457  -6.1025
     3.3027   3.4401   3.5866   3.9524   4.1247   4.7458   4.8748   5.1392
     5.4723   5.5205   5.9002   6.1658   6.4375   6.6619   6.8029   7.0058
     7.2249   7.4757   7.6051   8.2543   8.3141   8.5439   8.7149   9.1005
     9.2617   9.3889   9.4713   9.8107   9.9439  13.7254  13.9822  14.0696
    14.2753  14.4112  14.4741  16.7281  16.8670  16.9993  17.3962  17.7382
    18.1576  18.3537  18.9933  19.5440  19.9677  20.2820  21.3788  21.7386
    22.9245  23.2220  23.7398  24.2070  24.2958  24.6731  25.6316  25.9161

          k = 0.1511 0.1227 0.4668 ( 19023 PWs)   bands (ev):

   -84.8565 -63.9121 -63.8992 -63.8719 -48.8719 -48.2738 -47.9156 -32.6851
   -32.6712 -32.6574 -28.3653 -28.3335 -28.2590 -28.2498 -28.1701 -28.1368
    -7.5030  -7.4618  -7.0658  -6.9408  -6.5223  -6.4056  -6.1516  -6.1061
     3.3139   3.4572   3.6028   3.9823   4.1621   4.6957   4.8527   5.0910
     5.4711   5.5500   5.9089   6.1466   6.4439   6.6417   6.8002   7.0251
     7.1977   7.5097   7.6386   8.2658   8.3180   8.4993   8.7109   9.0825
     9.2565   9.3737   9.4565   9.8033   9.9675  13.7058  13.9819  14.0856
    14.3106  14.4094  14.4927  16.7215  16.8996  16.9856  17.4094  17.7393
    18.1508  18.3406  18.9313  19.6629  19.9748  20.3145  21.2858  21.7005
    22.8148  23.1503  23.7434  24.3089  24.3369  24.6460  25.5362  25.9362

          k = 0.1761 0.1432 0.4671 ( 19025 PWs)   bands (ev):

   -84.8565 -63.9122 -63.8992 -63.8719 -48.8719 -48.2738 -47.9156 -32.6851
   -32.6712 -32.6574 -28.3655 -28.3337 -28.2591 -28.2499 -28.1700 -28.1366
    -7.4881  -7.4425  -7.0759  -6.9203  -6.5531  -6.4163  -6.1591  -6.1093
     3.3231   3.4781   3.6166   4.0111   4.2049   4.6420   4.8304   5.0491
     5.4566   5.5822   5.9033   6.1445   6.4517   6.6252   6.8077   7.0368
     7.1789   7.5413   7.6758   8.2556   8.3346   8.4580   8.7134   9.0652
     9.2395   9.3483   9.4465   9.7937   9.9891  13.6898  13.9809  14.1053
    14.3328  14.4157  14.5138  16.7136  16.9252  16.9689  17.4285  17.7363
    18.1537  18.3252  18.8756  19.7832  19.9947  20.3468  21.1992  21.6637
    22.7056  23.0688  23.7234  24.3701  24.3933  24.6409  25.4412  25.9676

          k = 0.2011 0.1636 0.4674 ( 19024 PWs)   bands (ev):

   -84.8565 -63.9122 -63.8991 -63.8719 -48.8719 -48.2738 -47.9156 -32.6851
   -32.6712 -32.6574 -28.3657 -28.3339 -28.2592 -28.2500 -28.1698 -28.1364
    -7.4726  -7.4221  -7.0863  -6.9009  -6.5826  -6.4270  -6.1680  -6.1122
     3.3299   3.5015   3.6277   4.0361   4.2510   4.5887   4.8013   5.0184
     5.4349   5.6132   5.8920   6.1551   6.4595   6.6120   6.8211   7.0329
     7.1857   7.5708   7.7118   8.2337   8.3544   8.4251   8.7189   9.0483
     9.2085   9.3166   9.4425   9.7837  10.0033  13.6776  13.9787  14.1279
    14.3402  14.4321  14.5361  16.7046  16.9394  16.9507  17.4514  17.7290
    18.1638  18.3064  18.8384  19.8863  20.0383  20.3815  21.1251  21.6288
    22.5987  22.9830  23.6812  24.3382  24.4605  24.7063  25.3605  25.9954

          k = 0.2261 0.1841 0.4677 ( 19023 PWs)   bands (ev):

   -84.8565 -63.9122 -63.8991 -63.8719 -48.8719 -48.2738 -47.9156 -32.6852
   -32.6712 -32.6574 -28.3659 -28.3341 -28.2593 -28.2501 -28.1697 -28.1362
    -7.4573  -7.4012  -7.0961  -6.8862  -6.6065  -6.4377  -6.1775  -6.1150
     3.3345   3.5252   3.6364   4.0550   4.2958   4.5421   4.7612   4.9989
     5.4102   5.6428   5.8831   6.1756   6.4628   6.6032   6.8303   7.0271
     7.2161   7.5989   7.7423   8.2107   8.3706   8.4008   8.7243   9.0314
     9.1675   9.2847   9.4390   9.7737  10.0064  13.6690  13.9752  14.1520
    14.3389  14.4533  14.5586  16.6945  16.9236  16.9490  17.4746  17.7190
    18.1735  18.2853  18.8309  19.9490  20.1191  20.4235  21.0681  21.5969
    22.4957  22.8968  23.6185  24.2498  24.5336  24.8031  25.3030  26.0023

          k = 0.2511 0.2045 0.4680 ( 19038 PWs)   bands (ev):

   -84.8565 -63.9122 -63.8991 -63.8719 -48.8719 -48.2738 -47.9156 -32.6852
   -32.6712 -32.6574 -28.3661 -28.3343 -28.2594 -28.2502 -28.1695 -28.1360
    -7.4429  -7.3808  -7.1041  -6.8806  -6.6203  -6.4481  -6.1870  -6.1181
     3.3368   3.5464   3.6441   4.0672   4.3268   4.5156   4.7129   4.9825
     5.3879   5.6699   5.8829   6.2060   6.4545   6.6013   6.8271   7.0381
     7.2588   7.6251   7.7660   8.1942   8.3702   8.3931   8.7265   9.0130
     9.1268   9.2546   9.4318   9.7630   9.9968  13.6636  13.9710  14.1747
    14.3351  14.4744  14.5803  16.6836  16.8980  16.9444  17.4938  17.7091
    18.1692  18.2715  18.8590  19.9827  20.2123  20.4817  21.0318  21.5692
    22.3978  22.8117  23.5372  24.1473  24.6005  24.8920  25.2773  25.9935

          k = 0.2761 0.2250 0.4683 ( 19033 PWs)   bands (ev):

   -84.8565 -63.9122 -63.8991 -63.8719 -48.8719 -48.2739 -47.9156 -32.6852
   -32.6711 -32.6575 -28.3663 -28.3345 -28.2595 -28.2503 -28.1694 -28.1359
    -7.4299  -7.3622  -7.1091  -6.8869  -6.6209  -6.4582  -6.1962  -6.1215
     3.3369   3.5613   3.6538   4.0733   4.3266   4.5245   4.6643   4.9584
     5.3738   5.6914   5.8960   6.2466   6.4308   6.6059   6.8181   7.0656
     7.3059   7.6483   7.7863   8.1872   8.3495   8.4017   8.7232   8.9903
     9.0970   9.2275   9.4195   9.7494   9.9747  13.6611  13.9672  14.1925
    14.3324  14.4939  14.6006  16.6722  16.8702  16.9309  17.5056  17.7015
    18.1460  18.2732  18.9191  20.0046  20.2885  20.5636  21.0181  21.5479
    22.3061  22.7285  23.4395  24.0454  24.6520  24.9598  25.2886  25.9818

          k = 0.3011 0.2455 0.4686 ( 19024 PWs)   bands (ev):

   -84.8565 -63.9122 -63.8991 -63.8719 -48.8719 -48.2739 -47.9156 -32.6852
   -32.6711 -32.6575 -28.3665 -28.3347 -28.2596 -28.2504 -28.1692 -28.1357
    -7.4183  -7.3468  -7.1100  -6.9036  -6.6099  -6.4676  -6.2044  -6.1252
     3.3345   3.5662   3.6687   4.0748   4.3039   4.5413   4.6385   4.9213
     5.3712   5.7039   5.9226   6.2963   6.3954   6.6113   6.8168   7.0996
     7.3501   7.6687   7.8095   8.1871   8.3236   8.4093   8.7148   8.9629
     9.0814   9.2068   9.4026   9.7294   9.9419  13.6610  13.9646  14.2014
    14.3325  14.5119  14.6191  16.6605  16.8417  16.9094  17.5086  17.6966
    18.1188  18.2826  19.0025  20.0190  20.3448  20.6632  21.0268  21.5358
    22.2222  22.6467  23.3297  23.9483  24.6837  25.0096  25.3284  25.9773

          k = 0.3261 0.2659 0.4689 ( 19039 PWs)   bands (ev):

   -84.8565 -63.9122 -63.8991 -63.8719 -48.8719 -48.2739 -47.9156 -32.6852
   -32.6711 -32.6575 -28.3667 -28.3348 -28.2597 -28.2505 -28.1690 -28.1355
    -7.4085  -7.3358  -7.1063  -6.9263  -6.5919  -6.4762  -6.2115  -6.1292
     3.3292   3.5618   3.6885   4.0730   4.2791   4.5130   4.6685   4.8749
     5.3793   5.7081   5.9568   6.3303   6.3770   6.6124   6.8327   7.1317
     7.3831   7.6917   7.8399   8.1876   8.2957   8.4131   8.7057   8.9348
     9.0720   9.1973   9.3831   9.6992   9.9021  13.6627  13.9640  14.2001
    14.3350  14.5297  14.6352  16.6487  16.8137  16.8814  17.5042  17.6925
    18.1008  18.2925  19.0997  20.0262  20.3907  20.7651  21.0554  21.5361
    22.1481  22.5656  23.2142  23.8549  24.7000  25.0470  25.3804  25.9876

          k = 0.3511 0.2864 0.4692 ( 19037 PWs)   bands (ev):

   -84.8565 -63.9122 -63.8991 -63.8719 -48.8719 -48.2739 -47.9156 -32.6852
   -32.6711 -32.6575 -28.3668 -28.3350 -28.2598 -28.2506 -28.1689 -28.1353
    -7.4005  -7.3293  -7.0983  -6.9507  -6.5714  -6.4835  -6.2173  -6.1331
     3.3211   3.5514   3.7108   4.0696   4.2618   4.4653   4.7065   4.8376
     5.3938   5.7074   5.9905   6.2935   6.4311   6.6104   6.8677   7.1556
     7.4005   7.7232   7.8769   8.1801   8.2731   8.4107   8.7018   8.9085
     9.0604   9.2012   9.3643   9.6562   9.8596  13.6656  13.9660  14.1899
    14.3376  14.5482  14.6484  16.6369  16.7876  16.8491  17.4948  17.6880
    18.0970  18.2999  19.2025  20.0261  20.4339  20.8575  21.0981  21.5516
    22.0869  22.4838  23.1022  23.7610  24.7115  25.0692  25.4363  26.0145

          k = 0.3761 0.3068 0.4695 ( 19036 PWs)   bands (ev):

   -84.8565 -63.9122 -63.8991 -63.8719 -48.8719 -48.2739 -47.9156 -32.6853
   -32.6711 -32.6575 -28.3670 -28.3351 -28.2598 -28.2507 -28.1688 -28.1352
    -7.3942  -7.3267  -7.0876  -6.9737  -6.5519  -6.4894  -6.2217  -6.1366
     3.3103   3.5386   3.7329   4.0665   4.2539   4.4172   4.6929   4.8521
     5.4093   5.7058   6.0176   6.2497   6.4896   6.6119   6.9200   7.1663
     7.4062   7.7590   7.9187   8.1608   8.2628   8.4013   8.7072   8.8845
     9.0449   9.2122   9.3511   9.6020   9.8169  13.6692  13.9710  14.1732
    14.3386  14.5675  14.6582  16.6249  16.7646  16.8152  17.4828  17.6835
    18.1068  18.3036  19.3045  20.0186  20.4770  20.9358  21.1453  21.5823
    22.0425  22.3997  23.0045  23.6622  24.7277  25.0720  25.4952  26.0497

          k = 0.4012 0.3273 0.4698 ( 19020 PWs)   bands (ev):

   -84.8565 -63.9122 -63.8991 -63.8719 -48.8719 -48.2739 -47.9156 -32.6853
   -32.6711 -32.6575 -28.3671 -28.3353 -28.2599 -28.2507 -28.1687 -28.1351
    -7.3895  -7.3268  -7.0763  -6.9932  -6.5356  -6.4932  -6.2250  -6.1395
     3.2978   3.5262   3.7529   4.0665   4.2522   4.3755   4.6408   4.9032
     5.4204   5.7064   6.0353   6.2114   6.5342   6.6227   6.9856   7.1627
     7.4076   7.7847   7.9646   8.1420   8.2607   8.3866   8.7215   8.8631
     9.0263   9.2193   9.3484   9.5449   9.7743  13.6730  13.9789  14.1520
    14.3382  14.5864  14.6645  16.6127  16.7456  16.7829  17.4702  17.6802
    18.1267  18.3025  19.4009  20.0042  20.5196  21.0005  21.1866  21.6248
    22.0176  22.3112  22.9341  23.5553  24.7533  25.0573  25.5543  26.0713

          k = 0.4262 0.3477 0.4702 ( 19016 PWs)   bands (ev):

   -84.8565 -63.9122 -63.8991 -63.8719 -48.8719 -48.2739 -47.9156 -32.6853
   -32.6711 -32.6575 -28.3672 -28.3353 -28.2599 -28.2508 -28.1686 -28.1350
    -7.3862  -7.3283  -7.0667  -7.0077  -6.5244  -6.4944  -6.2273  -6.1415
     3.2851   3.5158   3.7693   4.0718   4.2472   4.3495   4.5823   4.9577
     5.4236   5.7110   6.0436   6.1816   6.5640   6.6397   7.0537   7.1554
     7.4060   7.7883   8.0112   8.1384   8.2605   8.3702   8.7409   8.8460
     9.0049   9.2183   9.3476   9.5035   9.7308  13.6765  13.9897  14.1284
    14.3372  14.6038  14.6673  16.6007  16.7313  16.7554  17.4586  17.6784
    18.1526  18.2961  19.4873  19.9841  20.5592  21.0543  21.2134  21.6764
    22.0098  22.2170  22.9036  23.4402  24.7888  25.0314  25.6053  26.0666

          k = 0.4512 0.3682 0.4705 ( 19000 PWs)   bands (ev):

   -84.8564 -63.9121 -63.8991 -63.8719 -48.8719 -48.2739 -47.9156 -32.6853
   -32.6711 -32.6576 -28.3673 -28.3354 -28.2600 -28.2508 -28.1685 -28.1349
    -7.3840  -7.3302  -7.0608  -7.0161  -6.5188  -6.4927  -6.2289  -6.1426
     3.2741   3.5082   3.7811   4.0830   4.2291   4.3490   4.5273   5.0046
     5.4192   5.7185   6.0453   6.1611   6.5881   6.6511   7.0862   7.1840
     7.3956   7.7736   8.0498   8.1502   8.2635   8.3542   8.7591   8.8364
     8.9812   9.2153   9.3274   9.5011   9.6861  13.6794  14.0030  14.1044
    14.3364  14.6185  14.6672  16.5902  16.7213  16.7348  17.4495  17.6779
    18.1807  18.2844  19.5588  19.9611  20.5920  21.1006  21.2204  21.7397
    22.0097  22.1187  22.9199  23.3195  24.8313  24.9997  25.6380  26.0679

          k = 0.4762 0.3886 0.4708 ( 18992 PWs)   bands (ev):

   -84.8564 -63.9121 -63.8991 -63.8719 -48.8719 -48.2739 -47.9156 -32.6853
   -32.6711 -32.6576 -28.3673 -28.3354 -28.2600 -28.2509 -28.1685 -28.1349
    -7.3828  -7.3317  -7.0587  -7.0193  -6.5170  -6.4902  -6.2299  -6.1431
     3.2666   3.5037   3.7881   4.0971   4.2056   4.3661   4.4814   5.0371
     5.4119   5.7253   6.0444   6.1489   6.6106   6.6509   7.0812   7.2503
     7.3695   7.7558   8.0755   8.1598   8.2770   8.3380   8.7689   8.8372
     8.9595   9.2159   9.2971   9.5282   9.6427  13.6813  14.0170  14.0833
    14.3359  14.6292  14.6653  16.5828  16.7153  16.7225  17.4436  17.6781
    18.2072  18.2688  19.6085  19.9409  20.6138  21.1410  21.2084  21.8165
    21.9958  22.0343  22.9786  23.2001  24.8753  24.9654  25.6503  26.0968

          k = 0.5012 0.4091 0.4711 ( 18992 PWs)   bands (ev):

   -84.8564 -63.9121 -63.8991 -63.8719 -48.8719 -48.2739 -47.9156 -32.6853
   -32.6711 -32.6576 -28.3674 -28.3355 -28.2600 -28.2509 -28.1685 -28.1348
    -7.3824  -7.3322  -7.0585  -7.0198  -6.5166  -6.4891  -6.2303  -6.1433
     3.2640   3.5022   3.7904   4.1048   4.1940   4.3791   4.4595   5.0489
     5.4084   5.7280   6.0439   6.1449   6.6240   6.6451   7.0769   7.2994
     7.3371   7.7483   8.0853   8.1609   8.2901   8.3267   8.7709   8.8407
     8.9497   9.2180   9.2826   9.5501   9.6171  13.6819  14.0248  14.0731
    14.3357  14.6334  14.6640  16.5802  16.7131  16.7186  17.4416  17.6782
    18.2219  18.2579  19.6270  19.9324  20.6215  21.1676  21.1905  21.8880
    21.9289  22.0222  23.0430  23.1163  24.9052  24.9394  25.6522  26.1329

     Writing all to output data dir ./tmp/MnCoWO4_AFM/MnCoWO4_AFM.save/ :
     XML data file, pseudopotentials, collected wavefunctions
 
     init_run     :      1.37s CPU      1.43s WALL (       1 calls)
     electrons    :    267.85s CPU    270.34s WALL (       1 calls)

     Called by init_run:
     wfcinit      :      1.25s CPU      1.28s WALL (       1 calls)
     wfcinit:atom :      0.05s CPU      0.05s WALL (     202 calls)
     wfcinit:wfcr :      6.10s CPU      6.17s WALL (     202 calls)
     potinit      :      0.01s CPU      0.02s WALL (       1 calls)
     hinit0       :      0.07s CPU      0.09s WALL (       1 calls)

     Called by electrons:
     c_bands      :    267.85s CPU    270.32s WALL (       1 calls)
     v_of_rho     :      0.01s CPU      0.01s WALL (       1 calls)
     v_h          :      0.00s CPU      0.00s WALL (       1 calls)
     v_xc         :      0.01s CPU      0.01s WALL (       1 calls)

     Called by c_bands:
     init_us_2    :      0.23s CPU      0.28s WALL (     404 calls)
     cegterg      :    260.47s CPU    262.66s WALL (     686 calls)

     Called by sum_band:

     Called by *egterg:
     cdiaghg      :     62.80s CPU     63.07s WALL (   11883 calls)
     cegterg:over :     19.15s CPU     19.27s WALL (   11681 calls)
     cegterg:upda :      9.38s CPU      9.44s WALL (   11681 calls)
     cegterg:last :     20.43s CPU     20.54s WALL (    5271 calls)
     h_psi        :    148.89s CPU    150.58s WALL (   12569 calls)
     g_psi        :      0.67s CPU      0.67s WALL (   11681 calls)

     Called by h_psi:
     h_psi:calbec :     17.05s CPU     17.18s WALL (   12569 calls)
     vloc_psi     :    110.21s CPU    111.66s WALL (   12569 calls)
     add_vuspsi   :     15.84s CPU     15.93s WALL (   12569 calls)
     vhpsi        :      5.10s CPU      5.13s WALL (   12569 calls)

     General routines
     calbec       :     21.63s CPU     21.80s WALL (   25340 calls)
     fft          :      0.03s CPU      0.04s WALL (      19 calls)
     fftw         :    104.31s CPU    105.68s WALL (  876002 calls)
     davcio       :      0.10s CPU      0.16s WALL (     808 calls)
 
     Parallel routines

     Hubbard U routines
     vhpsi        :      5.10s CPU      5.13s WALL (   12569 calls)
 
     PWSCF        :   4m31.79s CPU   4m48.19s WALL

 
   This run was terminated on:   9:59:20   9Mar2026            

=------------------------------------------------------------------------------=
   JOB DONE.
=------------------------------------------------------------------------------=
