
     Program PWSCF v.7.4.1 starts on 19Nov2025 at  6:30:27 
        Git branch: heads/qe-7.4.1
        Last git commit: 500de340b820e1cb8c05f2d8bb8fced102f377c1-dirty
        Last git commit date: Fri Feb 7 14:59:05 2025 +0000
        Last git commit subject: Merge branch 'qe-7.4.1' into 'master'

     This program is part of the open-source Quantum ESPRESSO suite
     for quantum simulation of materials; please cite
         "P. Giannozzi et al., J. Phys.:Condens. Matter 21 395502 (2009);
         "P. Giannozzi et al., J. Phys.:Condens. Matter 29 465901 (2017);
         "P. Giannozzi et al., J. Chem. Phys. 152 154105 (2020);
          URL http://www.quantum-espresso.org", 
     in publications or presentations arising from this work. More details at
     http://www.quantum-espresso.org/quote

     Parallel version (MPI), running on    16 processors

     MPI processes distributed on     1 nodes
     665638 MiB available memory on the printing compute node when the environment starts
 
     Reading input from inputs_AFM/MnFeWO4_AFM.in

     Current dimensions of program PWSCF are:
     Max number of different atomic species (ntypx) = 10
     Max number of k-points (npk) =  40000
     Max angular momentum in pseudopotentials (lmaxx) =  4
     Message from routine setup:
     using ibrav=0 with symmetry is DISCOURAGED, use correct ibrav instead
 
     R & G space division:  proc/nbgrp/npool/nimage =      16
     Subspace diagonalization in iterative solution of the eigenvalue problem:
     a serial algorithm will be used

 
     Parallelization info
     --------------------
     sticks:   dense  smooth     PW     G-vecs:    dense   smooth      PW
     Min         218     218     59                 9482     9482    1345
     Max         219     219     60                 9485     9485    1350
     Sum        3489    3489    945               151731   151731   21541
 
     Using Slab Decomposition
 


     bravais-lattice index     =            0
     lattice parameter (alat)  =       8.6340  a.u.
     unit-cell volume          =     854.2798 (a.u.)^3
     number of atoms/cell      =           12
     number of atomic types    =            4
     number of electrons       =       107.00
     number of Kohn-Sham states=           65
     kinetic-energy cutoff     =     120.0000  Ry
     charge density cutoff     =     480.0000  Ry
     scf convergence threshold =      1.0E-09
     mixing beta               =       0.7000
     number of iterations used =            8  local-TF  mixing
     Exchange-correlation= PBESOL
                           (   1   4  10   8   0   0   0)
     Hubbard projectors: ortho-atomic
     Hubbard parameters of DFT+U (Dudarev formulation) in eV:
     U(Mn-3d) =  4.6500
     U(Fe-3d) =  7.0800

     Internal variables: lda_plus_u = T, lda_plus_u_kind = 0

     celldm(1)=   8.634048  celldm(2)=   0.000000  celldm(3)=   0.000000
     celldm(4)=   0.000000  celldm(5)=   0.000000  celldm(6)=   0.000000

     crystal axes: (cart. coord. in units of alat)
               a(1) = (   1.000000   0.000000   0.000209 )  
               a(2) = (   0.000000   1.228353   0.000000 )  
               a(3) = (  -0.011509   0.000000   1.080520 )  

     reciprocal axes: (cart. coord. in units 2 pi/alat)
               b(1) = (  0.999998  0.000000  0.010652 )  
               b(2) = (  0.000000  0.814098  0.000000 )  
               b(3) = ( -0.000194  0.000000  0.925479 )  


     PseudoPot. # 1 for Mn read from file:
     pseudo_dojo_pbesol/Mn.upf
     MD5 check sum: ef44e22c4884c1dd3870421f9f7ffd72
     Pseudo is Norm-conserving + core correction, Zval = 15.0
     Generated using ONCVPSP code by D. R. Hamann
     Using radial grid of 1448 points,  6 beta functions with: 
                l(1) =   0
                l(2) =   0
                l(3) =   1
                l(4) =   1
                l(5) =   2
                l(6) =   2

     PseudoPot. # 2 for Fe read from file:
     pseudo_dojo_pbesol/Fe.upf
     MD5 check sum: d1f1a3649ace7f41c554fadafcf9d57b
     Pseudo is Norm-conserving + core correction, Zval = 16.0
     Generated using ONCVPSP code by D. R. Hamann
     Using radial grid of 1426 points,  6 beta functions with: 
                l(1) =   0
                l(2) =   0
                l(3) =   1
                l(4) =   1
                l(5) =   2
                l(6) =   2

     PseudoPot. # 3 for W  read from file:
     pseudo_dojo_pbesol/W.upf
     MD5 check sum: b5ac44390825a9169ccdba7091ec60d0
     Pseudo is Norm-conserving + core correction, Zval = 14.0
     Generated using ONCVPSP code by D. R. Hamann
     Using radial grid of 1396 points,  8 beta functions with: 
                l(1) =   0
                l(2) =   0
                l(3) =   1
                l(4) =   1
                l(5) =   2
                l(6) =   2
                l(7) =   3
                l(8) =   3

     PseudoPot. # 4 for O  read from file:
     pseudo_dojo_pbesol/O.upf
     MD5 check sum: f226cbcd508cec715ff87a8f75a1dfba
     Pseudo is Norm-conserving + core correction, Zval =  6.0
     Generated using ONCVPSP code by D. R. Hamann
     Using radial grid of  936 points,  5 beta functions with: 
                l(1) =   0
                l(2) =   0
                l(3) =   1
                l(4) =   1
                l(5) =   2

     atomic species   valence    mass     pseudopotential
     Mn               15.00    54.93805     Mn( 1.00)
     Fe               16.00    55.84500     Fe( 1.00)
     W                14.00   183.84000     W ( 1.00)
     O                 6.00    15.99940     O ( 1.00)

     Starting magnetic structure 
     atomic species   magnetization
     Mn              0.200
     Fe             -0.200
     W               0.000
     O               0.000

      2 Sym. Ops. (no inversion) found ( 1 have fractional translation)


                                    s                        frac. trans.

      isym =  1     identity                                     

 cryst.   s( 1) = (     1          0          0      )
                  (     0          1          0      )
                  (     0          0          1      )

 cart.    s( 1) = (  1.0000000  0.0000000  0.0000000 )
                  (  0.0000000  1.0000000  0.0000000 )
                  (  0.0000000  0.0000000  1.0000000 )


      isym =  2     180 deg rotation - cart. axis [0,1,0]        

 cryst.   s( 2) = (    -1          0          0      )    f =(  0.0000000 )
                  (     0          1          0      )       (  0.0000000 )
                  (     0          0         -1      )       ( -0.5000000 )

 cart.    s( 2) = ( -1.0000000  0.0000000 -0.0000000 )    f =(  0.0057547 )
                  (  0.0000000  1.0000000  0.0000000 )       (  0.0000000 )
                  (  0.0000000  0.0000000 -1.0000000 )       ( -0.5402598 )


   Cartesian axes

     site n.     atom                  positions (alat units)
         1        Mn     tau(   1) = (   0.4913679   0.8322135   0.8104943  )
         2        Fe     tau(   2) = (   0.4971226   0.3961397   0.2702346  )
         3        W      tau(   3) = (  -0.0086321   0.2195482   0.8103896  )
         4        W      tau(   4) = (  -0.0028774   1.0088049   0.2701299  )
         5        O      tau(   5) = (   0.2445678   0.4604749   0.9694086  )
         6        O      tau(   6) = (   0.7381680   0.4604749   0.6515801  )
         7        O      tau(   7) = (   0.7439228   0.7678782   0.1113203  )
         8        O      tau(   8) = (   0.2503225   0.7678782   0.4291489  )
         9        O      tau(   9) = (   0.2021510   1.0993871   1.0150294  )
        10        O      tau(  10) = (   0.7805849   1.0993871   0.6059593  )
        11        O      tau(  11) = (   0.7863396   0.1289660   0.0656995  )
        12        O      tau(  12) = (   0.2079057   0.1289660   0.4747697  )

   Crystallographic axes

     site n.     atom                  positions (cryst. coord.)
         1        Mn     tau(   1) = (  0.5000000  0.6775034  0.7500000  )
         2        Fe     tau(   2) = (  0.5000000  0.3224966  0.2500000  )
         3        W      tau(   3) = (  0.0000000  0.1787338  0.7500000  )
         4        W      tau(   4) = (  0.0000000  0.8212662  0.2500000  )
         5        O      tau(   5) = (  0.2548931  0.3748717  0.8971196  )
         6        O      tau(   6) = (  0.7451069  0.3748717  0.6028804  )
         7        O      tau(   7) = (  0.7451069  0.6251283  0.1028804  )
         8        O      tau(   8) = (  0.2548931  0.6251283  0.3971196  )
         9        O      tau(   9) = (  0.2129623  0.8950090  0.9393489  )
        10        O      tau(  10) = (  0.7870377  0.8950090  0.5606511  )
        11        O      tau(  11) = (  0.7870377  0.1049910  0.0606511  )
        12        O      tau(  12) = (  0.2129623  0.1049910  0.4393489  )

     number of k points=    54  Marzari-Vanderbilt smearing, width (Ry)=  0.0200
                       cart. coord. in units 2pi/alat
        k(    1) = (   0.0833170   0.0678415   0.0780109), wk =   0.0185185
        k(    2) = (   0.0832847   0.0678415   0.2322573), wk =   0.0185185
        k(    3) = (   0.0832524   0.0678415   0.3865038), wk =   0.0185185
        k(    4) = (   0.0834139   0.0678415  -0.3847285), wk =   0.0185185
        k(    5) = (   0.0833816   0.0678415  -0.2304820), wk =   0.0185185
        k(    6) = (   0.0833493   0.0678415  -0.0762356), wk =   0.0185185
        k(    7) = (   0.0833170   0.2035245   0.0780109), wk =   0.0185185
        k(    8) = (   0.0832847   0.2035245   0.2322573), wk =   0.0185185
        k(    9) = (   0.0832524   0.2035245   0.3865038), wk =   0.0185185
        k(   10) = (   0.0834139   0.2035245  -0.3847285), wk =   0.0185185
        k(   11) = (   0.0833816   0.2035245  -0.2304820), wk =   0.0185185
        k(   12) = (   0.0833493   0.2035245  -0.0762356), wk =   0.0185185
        k(   13) = (   0.0833170   0.3392076   0.0780109), wk =   0.0185185
        k(   14) = (   0.0832847   0.3392076   0.2322573), wk =   0.0185185
        k(   15) = (   0.0832524   0.3392076   0.3865038), wk =   0.0185185
        k(   16) = (   0.0834139   0.3392076  -0.3847285), wk =   0.0185185
        k(   17) = (   0.0833816   0.3392076  -0.2304820), wk =   0.0185185
        k(   18) = (   0.0833493   0.3392076  -0.0762356), wk =   0.0185185
        k(   19) = (   0.2499833   0.0678415   0.0797862), wk =   0.0185185
        k(   20) = (   0.2499510   0.0678415   0.2340326), wk =   0.0185185
        k(   21) = (   0.2499187   0.0678415   0.3882791), wk =   0.0185185
        k(   22) = (   0.2500802   0.0678415  -0.3829532), wk =   0.0185185
        k(   23) = (   0.2500479   0.0678415  -0.2287067), wk =   0.0185185
        k(   24) = (   0.2500156   0.0678415  -0.0744603), wk =   0.0185185
        k(   25) = (   0.2499833   0.2035245   0.0797862), wk =   0.0185185
        k(   26) = (   0.2499510   0.2035245   0.2340326), wk =   0.0185185
        k(   27) = (   0.2499187   0.2035245   0.3882791), wk =   0.0185185
        k(   28) = (   0.2500802   0.2035245  -0.3829532), wk =   0.0185185
        k(   29) = (   0.2500479   0.2035245  -0.2287067), wk =   0.0185185
        k(   30) = (   0.2500156   0.2035245  -0.0744603), wk =   0.0185185
        k(   31) = (   0.2499833   0.3392076   0.0797862), wk =   0.0185185
        k(   32) = (   0.2499510   0.3392076   0.2340326), wk =   0.0185185
        k(   33) = (   0.2499187   0.3392076   0.3882791), wk =   0.0185185
        k(   34) = (   0.2500802   0.3392076  -0.3829532), wk =   0.0185185
        k(   35) = (   0.2500479   0.3392076  -0.2287067), wk =   0.0185185
        k(   36) = (   0.2500156   0.3392076  -0.0744603), wk =   0.0185185
        k(   37) = (   0.4166496   0.0678415   0.0815614), wk =   0.0185185
        k(   38) = (   0.4166173   0.0678415   0.2358079), wk =   0.0185185
        k(   39) = (   0.4165850   0.0678415   0.3900543), wk =   0.0185185
        k(   40) = (   0.4167465   0.0678415  -0.3811779), wk =   0.0185185
        k(   41) = (   0.4167142   0.0678415  -0.2269315), wk =   0.0185185
        k(   42) = (   0.4166819   0.0678415  -0.0726850), wk =   0.0185185
        k(   43) = (   0.4166496   0.2035245   0.0815614), wk =   0.0185185
        k(   44) = (   0.4166173   0.2035245   0.2358079), wk =   0.0185185
        k(   45) = (   0.4165850   0.2035245   0.3900543), wk =   0.0185185
        k(   46) = (   0.4167465   0.2035245  -0.3811779), wk =   0.0185185
        k(   47) = (   0.4167142   0.2035245  -0.2269315), wk =   0.0185185
        k(   48) = (   0.4166819   0.2035245  -0.0726850), wk =   0.0185185
        k(   49) = (   0.4166496   0.3392076   0.0815614), wk =   0.0185185
        k(   50) = (   0.4166173   0.3392076   0.2358079), wk =   0.0185185
        k(   51) = (   0.4165850   0.3392076   0.3900543), wk =   0.0185185
        k(   52) = (   0.4167465   0.3392076  -0.3811779), wk =   0.0185185
        k(   53) = (   0.4167142   0.3392076  -0.2269315), wk =   0.0185185
        k(   54) = (   0.4166819   0.3392076  -0.0726850), wk =   0.0185185

                       cryst. coord.
        k(    1) = (   0.0833333   0.0833333   0.0833333), wk =   0.0185185
        k(    2) = (   0.0833333   0.0833333   0.2500000), wk =   0.0185185
        k(    3) = (   0.0833333   0.0833333   0.4166667), wk =   0.0185185
        k(    4) = (   0.0833333   0.0833333  -0.4166667), wk =   0.0185185
        k(    5) = (   0.0833333   0.0833333  -0.2500000), wk =   0.0185185
        k(    6) = (   0.0833333   0.0833333  -0.0833333), wk =   0.0185185
        k(    7) = (   0.0833333   0.2500000   0.0833333), wk =   0.0185185
        k(    8) = (   0.0833333   0.2500000   0.2500000), wk =   0.0185185
        k(    9) = (   0.0833333   0.2500000   0.4166667), wk =   0.0185185
        k(   10) = (   0.0833333   0.2500000  -0.4166667), wk =   0.0185185
        k(   11) = (   0.0833333   0.2500000  -0.2500000), wk =   0.0185185
        k(   12) = (   0.0833333   0.2500000  -0.0833333), wk =   0.0185185
        k(   13) = (   0.0833333   0.4166667   0.0833333), wk =   0.0185185
        k(   14) = (   0.0833333   0.4166667   0.2500000), wk =   0.0185185
        k(   15) = (   0.0833333   0.4166667   0.4166667), wk =   0.0185185
        k(   16) = (   0.0833333   0.4166667  -0.4166667), wk =   0.0185185
        k(   17) = (   0.0833333   0.4166667  -0.2500000), wk =   0.0185185
        k(   18) = (   0.0833333   0.4166667  -0.0833333), wk =   0.0185185
        k(   19) = (   0.2500000   0.0833333   0.0833333), wk =   0.0185185
        k(   20) = (   0.2500000   0.0833333   0.2500000), wk =   0.0185185
        k(   21) = (   0.2500000   0.0833333   0.4166667), wk =   0.0185185
        k(   22) = (   0.2500000   0.0833333  -0.4166667), wk =   0.0185185
        k(   23) = (   0.2500000   0.0833333  -0.2500000), wk =   0.0185185
        k(   24) = (   0.2500000   0.0833333  -0.0833333), wk =   0.0185185
        k(   25) = (   0.2500000   0.2500000   0.0833333), wk =   0.0185185
        k(   26) = (   0.2500000   0.2500000   0.2500000), wk =   0.0185185
        k(   27) = (   0.2500000   0.2500000   0.4166667), wk =   0.0185185
        k(   28) = (   0.2500000   0.2500000  -0.4166667), wk =   0.0185185
        k(   29) = (   0.2500000   0.2500000  -0.2500000), wk =   0.0185185
        k(   30) = (   0.2500000   0.2500000  -0.0833333), wk =   0.0185185
        k(   31) = (   0.2500000   0.4166667   0.0833333), wk =   0.0185185
        k(   32) = (   0.2500000   0.4166667   0.2500000), wk =   0.0185185
        k(   33) = (   0.2500000   0.4166667   0.4166667), wk =   0.0185185
        k(   34) = (   0.2500000   0.4166667  -0.4166667), wk =   0.0185185
        k(   35) = (   0.2500000   0.4166667  -0.2500000), wk =   0.0185185
        k(   36) = (   0.2500000   0.4166667  -0.0833333), wk =   0.0185185
        k(   37) = (   0.4166667   0.0833333   0.0833333), wk =   0.0185185
        k(   38) = (   0.4166667   0.0833333   0.2500000), wk =   0.0185185
        k(   39) = (   0.4166667   0.0833333   0.4166667), wk =   0.0185185
        k(   40) = (   0.4166667   0.0833333  -0.4166667), wk =   0.0185185
        k(   41) = (   0.4166667   0.0833333  -0.2500000), wk =   0.0185185
        k(   42) = (   0.4166667   0.0833333  -0.0833333), wk =   0.0185185
        k(   43) = (   0.4166667   0.2500000   0.0833333), wk =   0.0185185
        k(   44) = (   0.4166667   0.2500000   0.2500000), wk =   0.0185185
        k(   45) = (   0.4166667   0.2500000   0.4166667), wk =   0.0185185
        k(   46) = (   0.4166667   0.2500000  -0.4166667), wk =   0.0185185
        k(   47) = (   0.4166667   0.2500000  -0.2500000), wk =   0.0185185
        k(   48) = (   0.4166667   0.2500000  -0.0833333), wk =   0.0185185
        k(   49) = (   0.4166667   0.4166667   0.0833333), wk =   0.0185185
        k(   50) = (   0.4166667   0.4166667   0.2500000), wk =   0.0185185
        k(   51) = (   0.4166667   0.4166667   0.4166667), wk =   0.0185185
        k(   52) = (   0.4166667   0.4166667  -0.4166667), wk =   0.0185185
        k(   53) = (   0.4166667   0.4166667  -0.2500000), wk =   0.0185185
        k(   54) = (   0.4166667   0.4166667  -0.0833333), wk =   0.0185185

     Dense  grid:   151731 G-vectors     FFT dimensions: (  64,  75,  72)

     Dynamical RAM for                 wfc:       1.18 MB

     Dynamical RAM for     wfc (w. buffer):     128.11 MB

     Dynamical RAM for             U proj.:       0.18 MB

     Dynamical RAM for  U proj. (w. buff.):      19.71 MB

     Dynamical RAM for           str. fact:       0.58 MB

     Dynamical RAM for           local pot:       0.00 MB

     Dynamical RAM for          nlocal pot:       3.69 MB

     Dynamical RAM for                qrad:      16.87 MB

     Dynamical RAM for          rho,v,vnew:       1.97 MB

     Dynamical RAM for               rhoin:       0.66 MB

     Dynamical RAM for            rho*nmix:       4.63 MB

     Dynamical RAM for           G-vectors:       0.61 MB

     Dynamical RAM for          h,s,v(r/c):       0.77 MB

     Dynamical RAM for          <psi|beta>:       0.20 MB

     Dynamical RAM for                 psi:       2.35 MB

     Dynamical RAM for                hpsi:       2.35 MB

     Dynamical RAM for      wfcinit/wfcrot:       2.45 MB

     Estimated static dynamical RAM per process >     174.02 MB

     Estimated max dynamical RAM per process >     184.32 MB

     Estimated total dynamical RAM >       2.88 GB
     Generating pointlists ...
     new r_m :   0.1830 (alat units)  1.5802 (a.u.) for type    1
     new r_m :   0.1830 (alat units)  1.5802 (a.u.) for type    2
     new r_m :   0.1584 (alat units)  1.3676 (a.u.) for type    3
     new r_m :   0.1584 (alat units)  1.3676 (a.u.) for type    4

     Initial potential from superposition of free atoms

     starting charge     106.9982, renormalised to     107.0000

     HUBBARD ENERGY =    0.2081  (Ry)

     STARTING HUBBARD OCCUPATIONS:

     =================== HUBBARD OCCUPATIONS ===================
     ------------------------ ATOM    1 ------------------------
     Tr[ns(  1)] (up, down, total) =   5.00000  0.00000  5.00000
     Atomic magnetic moment for atom   1 =   5.00000
     SPIN  1
     eigenvalues:
       1.000  1.000  1.000  1.000  1.000
     eigenvectors (columns):
       1.000  0.000  0.000  0.000  0.000
       0.000  1.000  0.000  0.000  0.000
       0.000  0.000  1.000  0.000  0.000
       0.000  0.000  0.000  1.000  0.000
       0.000  0.000  0.000  0.000  1.000
     occupation matrix ns (before diag.):
       1.000  0.000  0.000  0.000  0.000
       0.000  1.000  0.000  0.000  0.000
       0.000  0.000  1.000  0.000  0.000
       0.000  0.000  0.000  1.000  0.000
       0.000  0.000  0.000  0.000  1.000
     SPIN  2
     eigenvalues:
       0.000  0.000  0.000  0.000  0.000
     eigenvectors (columns):
       1.000  0.000  0.000  0.000  0.000
       0.000  1.000  0.000  0.000  0.000
       0.000  0.000  1.000  0.000  0.000
       0.000  0.000  0.000  1.000  0.000
       0.000  0.000  0.000  0.000  1.000
     occupation matrix ns (before diag.):
       0.000  0.000  0.000  0.000  0.000
       0.000  0.000  0.000  0.000  0.000
       0.000  0.000  0.000  0.000  0.000
       0.000  0.000  0.000  0.000  0.000
       0.000  0.000  0.000  0.000  0.000
     ------------------------ ATOM    2 ------------------------
     Tr[ns(  2)] (up, down, total) =   1.00000  5.00000  6.00000
     Atomic magnetic moment for atom   2 =  -4.00000
     SPIN  1
     eigenvalues:
       0.200  0.200  0.200  0.200  0.200
     eigenvectors (columns):
       1.000  0.000  0.000  0.000  0.000
       0.000  1.000  0.000  0.000  0.000
       0.000  0.000  1.000  0.000  0.000
       0.000  0.000  0.000  1.000  0.000
       0.000  0.000  0.000  0.000  1.000
     occupation matrix ns (before diag.):
       0.200  0.000  0.000  0.000  0.000
       0.000  0.200  0.000  0.000  0.000
       0.000  0.000  0.200  0.000  0.000
       0.000  0.000  0.000  0.200  0.000
       0.000  0.000  0.000  0.000  0.200
     SPIN  2
     eigenvalues:
       1.000  1.000  1.000  1.000  1.000
     eigenvectors (columns):
       1.000  0.000  0.000  0.000  0.000
       0.000  1.000  0.000  0.000  0.000
       0.000  0.000  1.000  0.000  0.000
       0.000  0.000  0.000  1.000  0.000
       0.000  0.000  0.000  0.000  1.000
     occupation matrix ns (before diag.):
       1.000  0.000  0.000  0.000  0.000
       0.000  1.000  0.000  0.000  0.000
       0.000  0.000  1.000  0.000  0.000
       0.000  0.000  0.000  1.000  0.000
       0.000  0.000  0.000  0.000  1.000

     Number of occupied Hubbard levels =   11.0000

     Atomic wfc used for Hubbard projectors are orthogonalized

     Starting wfcs are   72 randomized atomic wfcs

     total cpu time spent up to now is        6.1 secs

     per-process dynamical memory:   229.4 Mb

     Self-consistent Calculation

     iteration #  1     ecut=   120.00 Ry     beta= 0.70
     Davidson diagonalization with overlap

---- Real-time Memory Report at c_bands before calling an iterative solver
           256 MiB given to the printing process from OS
           224 MiB allocation reported by mallinfo(arena+hblkhd)
        667809 MiB available memory on the node where the printing process lives
------------------
     ethr =  1.00E-02,  avg # of iterations =  2.0

     =================== HUBBARD OCCUPATIONS ===================
     ------------------------ ATOM    1 ------------------------
     Tr[ns(  1)] (up, down, total) =   4.95930  0.24299  5.20229
     Atomic magnetic moment for atom   1 =   4.71632
     SPIN  1
     eigenvalues:
       0.985  0.986  0.996  0.996  0.997
     eigenvectors (columns):
      -0.000  0.583 -0.000 -0.776 -0.240
      -0.000 -0.780 -0.000 -0.618  0.102
       0.518 -0.000 -0.856  0.000  0.000
       0.000  0.227 -0.000 -0.128  0.965
       0.856  0.000  0.518 -0.000 -0.000
     occupation matrix ns (before diag.):
       0.992  0.004 -0.000 -0.001  0.000
       0.004  0.990 -0.000  0.002  0.000
      -0.000 -0.000  0.993 -0.000 -0.005
      -0.001  0.002 -0.000  0.996 -0.000
       0.000  0.000 -0.005 -0.000  0.988
     SPIN  2
     eigenvalues:
       0.025  0.026  0.030  0.079  0.082
     eigenvectors (columns):
       0.578 -0.000 -0.609  0.000  0.544
       0.183 -0.000 -0.552  0.000 -0.813
       0.000  0.819  0.000  0.574  0.000
      -0.795  0.000 -0.570 -0.000  0.208
      -0.000 -0.574 -0.000  0.819  0.000
     occupation matrix ns (before diag.):
       0.044 -0.024  0.000  0.008  0.000
      -0.024  0.064 -0.000 -0.008  0.000
       0.000 -0.000  0.044 -0.000  0.025
       0.008 -0.008 -0.000  0.029 -0.000
       0.000  0.000  0.025 -0.000  0.062
     ------------------------ ATOM    2 ------------------------
     Tr[ns(  2)] (up, down, total) =   0.83226  4.97828  5.81054
     Atomic magnetic moment for atom   2 =  -4.14602
     SPIN  1
     eigenvalues:
       0.103  0.103  0.148  0.211  0.268
     eigenvectors (columns):
       0.000  0.474 -0.120 -0.000  0.872
      -0.000 -0.857  0.167 -0.000  0.488
       0.592 -0.000 -0.000 -0.806 -0.000
       0.000  0.204  0.979 -0.000  0.023
       0.806 -0.000 -0.000  0.592  0.000
     occupation matrix ns (before diag.):
       0.229  0.069 -0.000 -0.002  0.000
       0.069  0.143 -0.000  0.009  0.000
      -0.000 -0.000  0.173  0.000 -0.052
      -0.002  0.009  0.000  0.146 -0.000
       0.000  0.000 -0.052 -0.000  0.141
     SPIN  2
     eigenvalues:
       0.992  0.993  0.997  0.998  0.998
     eigenvectors (columns):
      -0.000 -0.586 -0.000 -0.770  0.254
       0.000  0.782 -0.000 -0.619 -0.074
       0.538 -0.000 -0.843  0.000 -0.000
       0.000 -0.215  0.000 -0.155 -0.964
       0.843 -0.000  0.538 -0.000  0.000
     occupation matrix ns (before diag.):
       0.996  0.002 -0.000 -0.001  0.000
       0.002  0.995 -0.000  0.001  0.000
      -0.000 -0.000  0.996 -0.000 -0.002
      -0.001  0.001 -0.000  0.998 -0.000
       0.000  0.000 -0.002 -0.000  0.994

     Number of occupied Hubbard levels =   11.0128

     HUBBARD ENERGY =    0.2265  (Ry)

     total cpu time spent up to now is       21.0 secs

     total energy              =   -1034.35548037 Ry
     estimated scf accuracy    <       4.04665931 Ry

     total magnetization       =     0.84 Bohr mag/cell
     absolute magnetization    =     9.25 Bohr mag/cell

     iteration #  2     ecut=   120.00 Ry     beta= 0.70
     Davidson diagonalization with overlap

---- Real-time Memory Report at c_bands before calling an iterative solver
           264 MiB given to the printing process from OS
           230 MiB allocation reported by mallinfo(arena+hblkhd)
        662496 MiB available memory on the node where the printing process lives
------------------
     ethr =  3.78E-03,  avg # of iterations =  2.0

     =================== HUBBARD OCCUPATIONS ===================
     ------------------------ ATOM    1 ------------------------
     Tr[ns(  1)] (up, down, total) =   4.92988  0.30568  5.23555
     Atomic magnetic moment for atom   1 =   4.62420
     SPIN  1
     eigenvalues:
       0.972  0.974  0.994  0.995  0.995
     eigenvectors (columns):
       0.576 -0.000 -0.801 -0.166  0.000
      -0.788 -0.000 -0.488 -0.376 -0.000
      -0.000  0.490 -0.000  0.000 -0.872
       0.220  0.000  0.348 -0.911 -0.000
      -0.000  0.872  0.000 -0.000  0.490
     occupation matrix ns (before diag.):
       0.987  0.010 -0.000 -0.003  0.000
       0.010  0.981 -0.000  0.004  0.000
      -0.000 -0.000  0.990 -0.000 -0.009
      -0.003  0.004 -0.000  0.994 -0.000
       0.000  0.000 -0.009 -0.000  0.979
     SPIN  2
     eigenvalues:
       0.030  0.032  0.036  0.102  0.105
     eigenvectors (columns):
      -0.000  0.851  0.023  0.000 -0.524
      -0.000  0.502  0.254  0.000  0.827
      -0.824 -0.000  0.000  0.566 -0.000
       0.000 -0.152  0.967 -0.000 -0.205
       0.566  0.000 -0.000  0.824  0.000
     occupation matrix ns (before diag.):
       0.052 -0.032  0.000  0.008  0.000
      -0.032  0.082 -0.000 -0.011  0.000
       0.000 -0.000  0.053 -0.000  0.034
       0.008 -0.011 -0.000  0.039 -0.000
       0.000  0.000  0.034 -0.000  0.079
     ------------------------ ATOM    2 ------------------------
     Tr[ns(  2)] (up, down, total) =   0.82584  4.97258  5.79842
     Atomic magnetic moment for atom   2 =  -4.14674
     SPIN  1
     eigenvalues:
       0.048  0.076  0.110  0.110  0.482
     eigenvectors (columns):
      -0.091 -0.000  0.000  0.480  0.872
       0.237  0.000 -0.000 -0.840  0.487
      -0.000  0.885  0.465 -0.000 -0.000
       0.967  0.000  0.000  0.251 -0.037
       0.000 -0.465  0.885 -0.000  0.000
     occupation matrix ns (before diag.):
       0.392  0.159 -0.000 -0.007  0.000
       0.159  0.195 -0.000 -0.021  0.000
      -0.000 -0.000  0.083 -0.000  0.014
      -0.007 -0.021 -0.000  0.053 -0.000
       0.000  0.000  0.014 -0.000  0.102
     SPIN  2
     eigenvalues:
       0.990  0.990  0.997  0.998  0.998
     eigenvectors (columns):
      -0.581 -0.000  0.812  0.000 -0.064
       0.785 -0.000  0.579  0.000  0.221
       0.000  0.523  0.000 -0.853  0.000
      -0.216  0.000 -0.078  0.000  0.973
       0.000  0.853 -0.000  0.523 -0.000
     occupation matrix ns (before diag.):
       0.995  0.004 -0.000 -0.001  0.000
       0.004  0.993 -0.000  0.001  0.000
      -0.000 -0.000  0.996 -0.000 -0.003
      -0.001  0.001 -0.000  0.997 -0.000
       0.000  0.000 -0.003 -0.000  0.992

     Number of occupied Hubbard levels =   11.0340

     HUBBARD ENERGY =    0.2212  (Ry)

     total cpu time spent up to now is       35.7 secs

     total energy              =   -1035.13032216 Ry
     estimated scf accuracy    <       0.16528047 Ry

     total magnetization       =     0.75 Bohr mag/cell
     absolute magnetization    =     9.29 Bohr mag/cell

     iteration #  3     ecut=   120.00 Ry     beta= 0.70
     Davidson diagonalization with overlap

---- Real-time Memory Report at c_bands before calling an iterative solver
           265 MiB given to the printing process from OS
           231 MiB allocation reported by mallinfo(arena+hblkhd)
        667225 MiB available memory on the node where the printing process lives
------------------
     ethr =  1.54E-04,  avg # of iterations =  7.2

     =================== HUBBARD OCCUPATIONS ===================
     ------------------------ ATOM    1 ------------------------
     Tr[ns(  1)] (up, down, total) =   4.92388  0.28475  5.20863
     Atomic magnetic moment for atom   1 =   4.63912
     SPIN  1
     eigenvalues:
       0.970  0.971  0.994  0.995  0.995
     eigenvectors (columns):
       0.573 -0.000 -0.818  0.000 -0.049
      -0.791 -0.000 -0.535  0.000 -0.298
      -0.000  0.509 -0.000 -0.861 -0.000
       0.217  0.000  0.209  0.000 -0.953
       0.000  0.861  0.000  0.509  0.000
     occupation matrix ns (before diag.):
       0.986  0.011 -0.000 -0.003  0.000
       0.011  0.979 -0.000  0.004  0.000
      -0.000 -0.000  0.989 -0.000 -0.010
      -0.003  0.004 -0.000  0.993 -0.000
       0.000  0.000 -0.010 -0.000  0.977
     SPIN  2
     eigenvalues:
       0.028  0.029  0.034  0.096  0.098
     eigenvectors (columns):
      -0.000 -0.843  0.106  0.000  0.528
      -0.000 -0.481  0.291  0.000 -0.827
      -0.822  0.000  0.000  0.569  0.000
       0.000  0.241  0.951 -0.000  0.194
       0.569 -0.000  0.000  0.822  0.000
     occupation matrix ns (before diag.):
       0.048 -0.030  0.000  0.008  0.000
      -0.030  0.077 -0.000 -0.010  0.000
       0.000 -0.000  0.050 -0.000  0.032
       0.008 -0.010 -0.000  0.036 -0.000
       0.000  0.000  0.032 -0.000  0.074
     ------------------------ ATOM    2 ------------------------
     Tr[ns(  2)] (up, down, total) =   1.24824  4.97466  6.22290
     Atomic magnetic moment for atom   2 =  -3.72643
     SPIN  1
     eigenvalues:
       0.034  0.040  0.110  0.111  0.954
     eigenvectors (columns):
      -0.000 -0.072  0.494 -0.000  0.866
      -0.000  0.214 -0.841  0.000  0.498
      -0.844  0.000  0.000  0.536 -0.000
       0.000  0.974  0.221 -0.000 -0.045
       0.536 -0.000  0.000  0.844  0.000
     occupation matrix ns (before diag.):
       0.743  0.365 -0.000 -0.028  0.000
       0.365  0.316 -0.000 -0.034  0.000
      -0.000 -0.000  0.056 -0.000  0.035
      -0.028 -0.034 -0.000  0.045 -0.000
       0.000  0.000  0.035 -0.000  0.089
     SPIN  2
     eigenvalues:
       0.991  0.991  0.998  0.998  0.998
     eigenvectors (columns):
       0.583  0.000  0.796  0.000 -0.162
      -0.784 -0.000  0.604  0.000  0.141
      -0.000  0.541  0.000 -0.841  0.000
       0.210  0.000  0.045  0.000  0.977
      -0.000  0.841 -0.000  0.541 -0.000
     occupation matrix ns (before diag.):
       0.995  0.003 -0.000 -0.001  0.000
       0.003  0.993 -0.000  0.001  0.000
      -0.000 -0.000  0.996 -0.000 -0.003
      -0.001  0.001 -0.000  0.997 -0.000
       0.000  0.000 -0.003 -0.000  0.993

     Number of occupied Hubbard levels =   11.4315

     HUBBARD ENERGY =    0.2126  (Ry)

     total cpu time spent up to now is       54.2 secs

     total energy              =   -1035.23707930 Ry
     estimated scf accuracy    <       0.16907369 Ry

     total magnetization       =     1.00 Bohr mag/cell
     absolute magnetization    =     8.81 Bohr mag/cell

     iteration #  4     ecut=   120.00 Ry     beta= 0.70
     Davidson diagonalization with overlap

---- Real-time Memory Report at c_bands before calling an iterative solver
           266 MiB given to the printing process from OS
           232 MiB allocation reported by mallinfo(arena+hblkhd)
        663888 MiB available memory on the node where the printing process lives
------------------
     ethr =  1.54E-04,  avg # of iterations =  1.1

     =================== HUBBARD OCCUPATIONS ===================
     ------------------------ ATOM    1 ------------------------
     Tr[ns(  1)] (up, down, total) =   4.92379  0.27973  5.20352
     Atomic magnetic moment for atom   1 =   4.64406
     SPIN  1
     eigenvalues:
       0.970  0.971  0.994  0.994  0.995
     eigenvectors (columns):
       0.574 -0.000 -0.818  0.000 -0.030
      -0.790 -0.000 -0.544  0.000 -0.284
      -0.000  0.513 -0.000 -0.859 -0.000
       0.216  0.000  0.186  0.000 -0.958
      -0.000  0.859  0.000  0.513  0.000
     occupation matrix ns (before diag.):
       0.986  0.011 -0.000 -0.003  0.000
       0.011  0.979 -0.000  0.004  0.000
      -0.000 -0.000  0.988 -0.000 -0.010
      -0.003  0.004 -0.000  0.993 -0.000
       0.000  0.000 -0.010 -0.000  0.977
     SPIN  2
     eigenvalues:
       0.027  0.028  0.033  0.095  0.097
     eigenvectors (columns):
      -0.000  0.842  0.112 -0.000 -0.528
      -0.000  0.480  0.293  0.000  0.827
      -0.822 -0.000  0.000  0.569 -0.000
       0.000 -0.247  0.949 -0.000 -0.193
       0.569  0.000  0.000  0.822 -0.000
     occupation matrix ns (before diag.):
       0.047 -0.030  0.000  0.008  0.000
      -0.030  0.075 -0.000 -0.010  0.000
       0.000 -0.000  0.049 -0.000  0.032
       0.008 -0.010 -0.000  0.035 -0.000
       0.000  0.000  0.032 -0.000  0.073
     ------------------------ ATOM    2 ------------------------
     Tr[ns(  2)] (up, down, total) =   1.24683  4.97329  6.22013
     Atomic magnetic moment for atom   2 =  -3.72646
     SPIN  1
     eigenvalues:
       0.030  0.036  0.103  0.104  0.974
     eigenvectors (columns):
      -0.000 -0.076  0.497 -0.000  0.864
      -0.000  0.226 -0.836  0.000  0.500
      -0.847  0.000  0.000  0.531 -0.000
       0.000  0.971  0.234 -0.000 -0.049
       0.531 -0.000  0.000  0.847  0.000
     occupation matrix ns (before diag.):
       0.754  0.378 -0.000 -0.032  0.000
       0.378  0.317 -0.000 -0.036  0.000
      -0.000 -0.000  0.051 -0.000  0.033
      -0.032 -0.036 -0.000  0.042 -0.000
       0.000  0.000  0.033 -0.000  0.083
     SPIN  2
     eigenvalues:
       0.990  0.990  0.997  0.998  0.998
     eigenvectors (columns):
       0.588  0.000  0.801  0.000 -0.110
      -0.783 -0.000  0.598  0.000  0.170
      -0.000  0.545  0.000 -0.839  0.000
       0.202  0.000 -0.014  0.000  0.979
      -0.000  0.839 -0.000  0.545 -0.000
     occupation matrix ns (before diag.):
       0.995  0.003 -0.000 -0.001  0.000
       0.003  0.993 -0.000  0.001  0.000
      -0.000 -0.000  0.996 -0.000 -0.003
      -0.001  0.001 -0.000  0.997 -0.000
       0.000  0.000 -0.003 -0.000  0.993

     Number of occupied Hubbard levels =   11.4236

     HUBBARD ENERGY =    0.1289  (Ry)

     total cpu time spent up to now is       65.6 secs

     total energy              =   -1035.26509433 Ry
     estimated scf accuracy    <       0.08942325 Ry

     total magnetization       =     1.00 Bohr mag/cell
     absolute magnetization    =     8.78 Bohr mag/cell

     iteration #  5     ecut=   120.00 Ry     beta= 0.70
     Davidson diagonalization with overlap

---- Real-time Memory Report at c_bands before calling an iterative solver
           266 MiB given to the printing process from OS
           232 MiB allocation reported by mallinfo(arena+hblkhd)
        665615 MiB available memory on the node where the printing process lives
------------------
     ethr =  8.36E-05,  avg # of iterations =  2.2

     =================== HUBBARD OCCUPATIONS ===================
     ------------------------ ATOM    1 ------------------------
     Tr[ns(  1)] (up, down, total) =   4.92305  0.27115  5.19420
     Atomic magnetic moment for atom   1 =   4.65191
     SPIN  1
     eigenvalues:
       0.970  0.971  0.994  0.994  0.995
     eigenvectors (columns):
      -0.575 -0.000 -0.818  0.000  0.009
       0.789 -0.000 -0.552  0.000  0.270
       0.000  0.517 -0.000 -0.856  0.000
      -0.215  0.000  0.162  0.000  0.963
       0.000  0.856  0.000  0.517 -0.000
     occupation matrix ns (before diag.):
       0.986  0.011 -0.000 -0.003  0.000
       0.011  0.979 -0.000  0.004  0.000
      -0.000 -0.000  0.988 -0.000 -0.010
      -0.003  0.004 -0.000  0.993 -0.000
       0.000  0.000 -0.010 -0.000  0.977
     SPIN  2
     eigenvalues:
       0.026  0.027  0.032  0.092  0.094
     eigenvectors (columns):
      -0.000  0.841  0.115  0.000 -0.529
      -0.000  0.479  0.295  0.000  0.827
      -0.823 -0.000  0.000  0.568 -0.000
       0.000 -0.251  0.948 -0.000 -0.193
       0.568  0.000 -0.000  0.823 -0.000
     occupation matrix ns (before diag.):
       0.046 -0.029  0.000  0.007  0.000
      -0.029  0.073 -0.000 -0.009  0.000
       0.000 -0.000  0.048 -0.000  0.031
       0.007 -0.009 -0.000  0.034 -0.000
       0.000  0.000  0.031 -0.000  0.071
     ------------------------ ATOM    2 ------------------------
     Tr[ns(  2)] (up, down, total) =   1.21204  4.96652  6.17857
     Atomic magnetic moment for atom   2 =  -3.75448
     SPIN  1
     eigenvalues:
       0.023  0.029  0.086  0.089  0.985
     eigenvectors (columns):
      -0.000 -0.082  0.504 -0.000  0.860
      -0.000  0.255 -0.823  0.000  0.507
      -0.854  0.000  0.000  0.520 -0.000
       0.000  0.963  0.261 -0.000 -0.062
       0.520  0.000  0.000  0.854  0.000
     occupation matrix ns (before diag.):
       0.750  0.393 -0.000 -0.043  0.000
       0.393  0.314 -0.000 -0.042  0.000
      -0.000 -0.000  0.041 -0.000  0.029
      -0.043 -0.042 -0.000  0.036 -0.000
       0.000  0.000  0.029 -0.000  0.071
     SPIN  2
     eigenvalues:
       0.988  0.989  0.995  0.997  0.998
     eigenvectors (columns):
      -0.609 -0.000 -0.791  0.000 -0.065
       0.774 -0.000 -0.610  0.000  0.168
       0.000  0.559 -0.000 -0.829  0.000
      -0.172  0.000  0.052  0.000  0.984
       0.000  0.829  0.000  0.559 -0.000
     occupation matrix ns (before diag.):
       0.992  0.004 -0.000 -0.001  0.000
       0.004  0.991 -0.000  0.001  0.000
      -0.000 -0.000  0.995 -0.000 -0.004
      -0.001  0.001 -0.000  0.997 -0.000
       0.000  0.000 -0.004 -0.000  0.991

     Number of occupied Hubbard levels =   11.3728

     HUBBARD ENERGY =    0.1254  (Ry)

     total cpu time spent up to now is       79.1 secs

     total energy              =   -1035.27349524 Ry
     estimated scf accuracy    <       0.00144225 Ry

     total magnetization       =     1.00 Bohr mag/cell
     absolute magnetization    =     8.78 Bohr mag/cell

     iteration #  6     ecut=   120.00 Ry     beta= 0.70
     Davidson diagonalization with overlap

---- Real-time Memory Report at c_bands before calling an iterative solver
           267 MiB given to the printing process from OS
           233 MiB allocation reported by mallinfo(arena+hblkhd)
        660325 MiB available memory on the node where the printing process lives
------------------
     c_bands:  1 eigenvalues not converged
     c_bands:  1 eigenvalues not converged
     c_bands:  1 eigenvalues not converged
     c_bands:  1 eigenvalues not converged
     c_bands:  1 eigenvalues not converged
     ethr =  1.35E-06,  avg # of iterations = 10.5

     =================== HUBBARD OCCUPATIONS ===================
     ------------------------ ATOM    1 ------------------------
     Tr[ns(  1)] (up, down, total) =   4.92329  0.27132  5.19461
     Atomic magnetic moment for atom   1 =   4.65198
     SPIN  1
     eigenvalues:
       0.970  0.971  0.994  0.994  0.995
     eigenvectors (columns):
      -0.575 -0.000 -0.818  0.000  0.008
       0.789 -0.000 -0.552  0.000  0.268
       0.000  0.518 -0.000 -0.856  0.000
      -0.215  0.000  0.160  0.000  0.963
       0.000  0.856  0.000  0.518 -0.000
     occupation matrix ns (before diag.):
       0.986  0.011 -0.000 -0.003  0.000
       0.011  0.979 -0.000  0.004  0.000
      -0.000 -0.000  0.988 -0.000 -0.010
      -0.003  0.004 -0.000  0.993 -0.000
       0.000  0.000 -0.010 -0.000  0.977
     SPIN  2
     eigenvalues:
       0.026  0.027  0.032  0.092  0.094
     eigenvectors (columns):
      -0.000 -0.842  0.113  0.000  0.528
      -0.000 -0.479  0.294  0.000 -0.827
      -0.823  0.000  0.000  0.568  0.000
       0.000  0.249  0.949 -0.000  0.193
       0.568 -0.000  0.000  0.823  0.000
     occupation matrix ns (before diag.):
       0.046 -0.029  0.000  0.007  0.000
      -0.029  0.073 -0.000 -0.009  0.000
       0.000 -0.000  0.048 -0.000  0.031
       0.007 -0.009 -0.000  0.034 -0.000
       0.000  0.000  0.031 -0.000  0.071
     ------------------------ ATOM    2 ------------------------
     Tr[ns(  2)] (up, down, total) =   1.20803  4.96557  6.17360
     Atomic magnetic moment for atom   2 =  -3.75754
     SPIN  1
     eigenvalues:
       0.023  0.028  0.084  0.087  0.985
     eigenvectors (columns):
      -0.000 -0.077  0.509 -0.000  0.858
      -0.000  0.261 -0.820  0.000  0.510
      -0.855  0.000  0.000  0.519 -0.000
       0.000  0.962  0.263 -0.000 -0.069
       0.519  0.000  0.000  0.855  0.000
     occupation matrix ns (before diag.):
       0.747  0.395 -0.000 -0.049  0.000
       0.395  0.315 -0.000 -0.046  0.000
      -0.000 -0.000  0.040 -0.000  0.028
      -0.049 -0.046 -0.000  0.037 -0.000
       0.000  0.000  0.028 -0.000  0.070
     SPIN  2
     eigenvalues:
       0.987  0.988  0.995  0.997  0.998
     eigenvectors (columns):
       0.611 -0.000  0.788  0.000 -0.071
      -0.773 -0.000  0.614  0.000  0.158
      -0.000  0.563  0.000 -0.826  0.000
       0.168  0.000 -0.042  0.000  0.985
      -0.000  0.826 -0.000  0.563 -0.000
     occupation matrix ns (before diag.):
       0.992  0.004 -0.000 -0.001  0.000
       0.004  0.990 -0.000  0.001  0.000
      -0.000 -0.000  0.995 -0.000 -0.004
      -0.001  0.001 -0.000  0.997 -0.000
       0.000  0.000 -0.004 -0.000  0.991

     Number of occupied Hubbard levels =   11.3682

     HUBBARD ENERGY =    0.1238  (Ry)

     total cpu time spent up to now is      102.0 secs

     total energy              =   -1035.27384439 Ry
     estimated scf accuracy    <       0.00035316 Ry

     total magnetization       =     1.00 Bohr mag/cell
     absolute magnetization    =     8.78 Bohr mag/cell

     iteration #  7     ecut=   120.00 Ry     beta= 0.70
     Davidson diagonalization with overlap

---- Real-time Memory Report at c_bands before calling an iterative solver
           268 MiB given to the printing process from OS
           233 MiB allocation reported by mallinfo(arena+hblkhd)
        661753 MiB available memory on the node where the printing process lives
------------------
     c_bands:  1 eigenvalues not converged
     ethr =  3.30E-07,  avg # of iterations =  2.2

     =================== HUBBARD OCCUPATIONS ===================
     ------------------------ ATOM    1 ------------------------
     Tr[ns(  1)] (up, down, total) =   4.92390  0.27228  5.19618
     Atomic magnetic moment for atom   1 =   4.65162
     SPIN  1
     eigenvalues:
       0.970  0.971  0.994  0.995  0.995
     eigenvectors (columns):
      -0.575 -0.000 -0.818  0.000  0.008
       0.790 -0.000 -0.552  0.000  0.268
       0.000  0.518 -0.000 -0.855  0.000
      -0.215  0.000  0.161  0.000  0.963
       0.000  0.855  0.000  0.518 -0.000
     occupation matrix ns (before diag.):
       0.986  0.011 -0.000 -0.003  0.000
       0.011  0.979 -0.000  0.004  0.000
      -0.000 -0.000  0.988 -0.000 -0.010
      -0.003  0.004 -0.000  0.993 -0.000
       0.000  0.000 -0.010 -0.000  0.978
     SPIN  2
     eigenvalues:
       0.026  0.027  0.032  0.093  0.094
     eigenvectors (columns):
      -0.000  0.842  0.113  0.000 -0.528
      -0.000  0.480  0.294  0.000  0.827
      -0.823 -0.000  0.000  0.568 -0.000
       0.000 -0.248  0.949 -0.000 -0.193
       0.568  0.000  0.000  0.823 -0.000
     occupation matrix ns (before diag.):
       0.046 -0.029  0.000  0.007  0.000
      -0.029  0.074 -0.000 -0.009  0.000
       0.000 -0.000  0.048 -0.000  0.031
       0.007 -0.009 -0.000  0.034 -0.000
       0.000  0.000  0.031 -0.000  0.071
     ------------------------ ATOM    2 ------------------------
     Tr[ns(  2)] (up, down, total) =   1.20663  4.96536  6.17199
     Atomic magnetic moment for atom   2 =  -3.75873
     SPIN  1
     eigenvalues:
       0.023  0.028  0.084  0.087  0.985
     eigenvectors (columns):
      -0.000 -0.072  0.513 -0.000  0.855
      -0.000  0.266 -0.817  0.000  0.512
      -0.854  0.000  0.000  0.520 -0.000
       0.000  0.961  0.264 -0.000 -0.078
       0.520  0.000  0.000  0.854  0.000
     occupation matrix ns (before diag.):
       0.743  0.396 -0.000 -0.056  0.000
       0.396  0.316 -0.000 -0.050  0.000
      -0.000 -0.000  0.040  0.000  0.028
      -0.056 -0.050  0.000  0.038 -0.000
       0.000  0.000  0.028 -0.000  0.069
     SPIN  2
     eigenvalues:
       0.987  0.988  0.995  0.997  0.998
     eigenvectors (columns):
       0.610 -0.000  0.790  0.000 -0.067
      -0.775 -0.000  0.612  0.000  0.159
      -0.000  0.563  0.000 -0.826  0.000
       0.167  0.000 -0.045  0.000  0.985
      -0.000  0.826 -0.000  0.563 -0.000
     occupation matrix ns (before diag.):
       0.992  0.004 -0.000 -0.001  0.000
       0.004  0.990 -0.000  0.001  0.000
      -0.000 -0.000  0.995 -0.000 -0.004
      -0.001  0.001 -0.000  0.997 -0.000
       0.000  0.000 -0.004 -0.000  0.991

     Number of occupied Hubbard levels =   11.3682

     HUBBARD ENERGY =    0.1225  (Ry)

     total cpu time spent up to now is      114.9 secs

     total energy              =   -1035.27393250 Ry
     estimated scf accuracy    <       0.00013088 Ry

     total magnetization       =     1.00 Bohr mag/cell
     absolute magnetization    =     8.78 Bohr mag/cell

     iteration #  8     ecut=   120.00 Ry     beta= 0.70
     Davidson diagonalization with overlap

---- Real-time Memory Report at c_bands before calling an iterative solver
           268 MiB given to the printing process from OS
           234 MiB allocation reported by mallinfo(arena+hblkhd)
        660927 MiB available memory on the node where the printing process lives
------------------
     ethr =  1.22E-07,  avg # of iterations =  2.7

     =================== HUBBARD OCCUPATIONS ===================
     ------------------------ ATOM    1 ------------------------
     Tr[ns(  1)] (up, down, total) =   4.92429  0.27273  5.19702
     Atomic magnetic moment for atom   1 =   4.65157
     SPIN  1
     eigenvalues:
       0.970  0.971  0.994  0.995  0.995
     eigenvectors (columns):
       0.575 -0.000 -0.818  0.000 -0.009
      -0.790 -0.000 -0.552  0.000 -0.268
      -0.000  0.518 -0.000 -0.855 -0.000
       0.215  0.000  0.161  0.000 -0.963
      -0.000  0.855  0.000  0.518  0.000
     occupation matrix ns (before diag.):
       0.986  0.011 -0.000 -0.003  0.000
       0.011  0.979 -0.000  0.004  0.000
      -0.000 -0.000  0.988 -0.000 -0.010
      -0.003  0.004 -0.000  0.994 -0.000
       0.000  0.000 -0.010 -0.000  0.978
     SPIN  2
     eigenvalues:
       0.026  0.027  0.032  0.093  0.095
     eigenvectors (columns):
      -0.000  0.842  0.113  0.000 -0.528
      -0.000  0.480  0.294  0.000  0.827
      -0.823 -0.000  0.000  0.568 -0.000
       0.000 -0.248  0.949 -0.000 -0.193
       0.568  0.000  0.000  0.823 -0.000
     occupation matrix ns (before diag.):
       0.046 -0.029  0.000  0.007  0.000
      -0.029  0.074 -0.000 -0.009  0.000
       0.000 -0.000  0.048 -0.000  0.031
       0.007 -0.009 -0.000  0.034 -0.000
       0.000  0.000  0.031 -0.000  0.071
     ------------------------ ATOM    2 ------------------------
     Tr[ns(  2)] (up, down, total) =   1.20573  4.96514  6.17087
     Atomic magnetic moment for atom   2 =  -3.75941
     SPIN  1
     eigenvalues:
       0.023  0.028  0.083  0.086  0.985
     eigenvectors (columns):
      -0.000 -0.065  0.517 -0.000  0.853
      -0.000  0.270 -0.814  0.000  0.514
      -0.854  0.000  0.000  0.521 -0.000
       0.000  0.961  0.264 -0.000 -0.087
       0.521  0.000  0.000  0.854  0.000
     occupation matrix ns (before diag.):
       0.740  0.397 -0.000 -0.063  0.000
       0.397  0.318 -0.000 -0.055  0.000
      -0.000 -0.000  0.040  0.000  0.028
      -0.063 -0.055  0.000  0.039 -0.000
       0.000  0.000  0.028 -0.000  0.069
     SPIN  2
     eigenvalues:
       0.987  0.988  0.995  0.997  0.998
     eigenvectors (columns):
       0.608 -0.000  0.791  0.000 -0.062
      -0.776 -0.000  0.610  0.000  0.161
      -0.000  0.563  0.000 -0.827  0.000
       0.165  0.000 -0.049  0.000  0.985
      -0.000  0.827 -0.000  0.563 -0.000
     occupation matrix ns (before diag.):
       0.992  0.004 -0.000 -0.001  0.000
       0.004  0.990 -0.000  0.001  0.000
      -0.000 -0.000  0.995 -0.000 -0.004
      -0.001  0.001 -0.000  0.997 -0.000
       0.000  0.000 -0.004 -0.000  0.991

     Number of occupied Hubbard levels =   11.3679

     HUBBARD ENERGY =    0.1218  (Ry)

     total cpu time spent up to now is      128.0 secs

     total energy              =   -1035.27399409 Ry
     estimated scf accuracy    <       0.00006728 Ry

     total magnetization       =     1.00 Bohr mag/cell
     absolute magnetization    =     8.78 Bohr mag/cell

     iteration #  9     ecut=   120.00 Ry     beta= 0.70
     Davidson diagonalization with overlap

---- Real-time Memory Report at c_bands before calling an iterative solver
           269 MiB given to the printing process from OS
           235 MiB allocation reported by mallinfo(arena+hblkhd)
        660907 MiB available memory on the node where the printing process lives
------------------
     ethr =  6.29E-08,  avg # of iterations =  3.5

     =================== HUBBARD OCCUPATIONS ===================
     ------------------------ ATOM    1 ------------------------
     Tr[ns(  1)] (up, down, total) =   4.92449  0.27292  5.19741
     Atomic magnetic moment for atom   1 =   4.65156
     SPIN  1
     eigenvalues:
       0.970  0.972  0.994  0.995  0.995
     eigenvectors (columns):
       0.575 -0.000 -0.818  0.000 -0.010
      -0.790 -0.000 -0.551  0.000 -0.269
      -0.000  0.518 -0.000 -0.855 -0.000
       0.215  0.000  0.162  0.000 -0.963
      -0.000  0.855  0.000  0.518  0.000
     occupation matrix ns (before diag.):
       0.986  0.011 -0.000 -0.003  0.000
       0.011  0.979 -0.000  0.004  0.000
      -0.000 -0.000  0.988 -0.000 -0.010
      -0.003  0.004 -0.000  0.994 -0.000
       0.000  0.000 -0.010 -0.000  0.978
     SPIN  2
     eigenvalues:
       0.026  0.027  0.032  0.093  0.095
     eigenvectors (columns):
      -0.000  0.842  0.113 -0.000 -0.528
      -0.000  0.479  0.294  0.000  0.827
      -0.823 -0.000  0.000  0.568 -0.000
       0.000 -0.249  0.949 -0.000 -0.193
       0.568  0.000 -0.000  0.823 -0.000
     occupation matrix ns (before diag.):
       0.046 -0.029  0.000  0.007  0.000
      -0.029  0.074 -0.000 -0.009  0.000
       0.000 -0.000  0.048 -0.000  0.031
       0.007 -0.009 -0.000  0.034 -0.000
       0.000  0.000  0.031 -0.000  0.071
     ------------------------ ATOM    2 ------------------------
     Tr[ns(  2)] (up, down, total) =   1.20518  4.96501  6.17019
     Atomic magnetic moment for atom   2 =  -3.75983
     SPIN  1
     eigenvalues:
       0.023  0.028  0.083  0.086  0.985
     eigenvectors (columns):
      -0.000 -0.055  0.523 -0.000  0.850
      -0.000  0.277 -0.810  0.000  0.516
      -0.853  0.000  0.000  0.522 -0.000
       0.000  0.959  0.264 -0.000 -0.100
       0.522  0.000  0.000  0.853  0.000
     occupation matrix ns (before diag.):
       0.735  0.397 -0.000 -0.074  0.000
       0.397  0.319 -0.000 -0.061  0.000
      -0.000 -0.000  0.040  0.000  0.028
      -0.074 -0.061  0.000  0.041 -0.000
       0.000  0.000  0.028 -0.000  0.069
     SPIN  2
     eigenvalues:
       0.987  0.988  0.995  0.997  0.998
     eigenvectors (columns):
       0.606 -0.000  0.794  0.000 -0.055
      -0.779 -0.000  0.606  0.000  0.165
      -0.000  0.562  0.000 -0.827  0.000
       0.165  0.000 -0.057  0.000  0.985
      -0.000  0.827 -0.000  0.562 -0.000
     occupation matrix ns (before diag.):
       0.992  0.004 -0.000 -0.001  0.000
       0.004  0.990 -0.000  0.001  0.000
      -0.000 -0.000  0.995 -0.000 -0.004
      -0.001  0.001 -0.000  0.997 -0.000
       0.000  0.000 -0.004 -0.000  0.991

     Number of occupied Hubbard levels =   11.3676

     HUBBARD ENERGY =    0.1220  (Ry)

     total cpu time spent up to now is      142.1 secs

     total energy              =   -1035.27405056 Ry
     estimated scf accuracy    <       0.00005312 Ry

     total magnetization       =     1.00 Bohr mag/cell
     absolute magnetization    =     8.78 Bohr mag/cell

     iteration # 10     ecut=   120.00 Ry     beta= 0.70
     Davidson diagonalization with overlap

---- Real-time Memory Report at c_bands before calling an iterative solver
           269 MiB given to the printing process from OS
           235 MiB allocation reported by mallinfo(arena+hblkhd)
        660066 MiB available memory on the node where the printing process lives
------------------
     ethr =  4.96E-08,  avg # of iterations =  3.5

     =================== HUBBARD OCCUPATIONS ===================
     ------------------------ ATOM    1 ------------------------
     Tr[ns(  1)] (up, down, total) =   4.92450  0.27299  5.19750
     Atomic magnetic moment for atom   1 =   4.65151
     SPIN  1
     eigenvalues:
       0.970  0.972  0.994  0.995  0.995
     eigenvectors (columns):
      -0.575 -0.000 -0.818  0.000  0.010
       0.790 -0.000 -0.551  0.000  0.269
       0.000  0.518 -0.000 -0.855  0.000
      -0.215  0.000  0.163  0.000  0.963
       0.000  0.855  0.000  0.518 -0.000
     occupation matrix ns (before diag.):
       0.986  0.011 -0.000 -0.003  0.000
       0.011  0.979 -0.000  0.004  0.000
      -0.000 -0.000  0.988 -0.000 -0.010
      -0.003  0.004 -0.000  0.994 -0.000
       0.000  0.000 -0.010 -0.000  0.978
     SPIN  2
     eigenvalues:
       0.026  0.027  0.032  0.093  0.095
     eigenvectors (columns):
      -0.000  0.841  0.114  0.000 -0.528
      -0.000  0.479  0.294  0.000  0.827
      -0.823 -0.000  0.000  0.568 -0.000
       0.000 -0.250  0.949 -0.000 -0.193
       0.568  0.000  0.000  0.823 -0.000
     occupation matrix ns (before diag.):
       0.046 -0.029  0.000  0.007  0.000
      -0.029  0.074 -0.000 -0.009  0.000
       0.000 -0.000  0.048 -0.000  0.031
       0.007 -0.009 -0.000  0.034 -0.000
       0.000  0.000  0.031 -0.000  0.071
     ------------------------ ATOM    2 ------------------------
     Tr[ns(  2)] (up, down, total) =   1.20520  4.96502  6.17023
     Atomic magnetic moment for atom   2 =  -3.75982
     SPIN  1
     eigenvalues:
       0.023  0.028  0.083  0.086  0.985
     eigenvectors (columns):
      -0.000 -0.040  0.531 -0.000  0.847
      -0.000  0.286 -0.806  0.000  0.519
      -0.852  0.000  0.000  0.524 -0.000
       0.000  0.957  0.263 -0.000 -0.119
       0.524  0.000  0.000  0.852  0.000
     occupation matrix ns (before diag.):
       0.730  0.397 -0.000 -0.089  0.000
       0.397  0.321 -0.000 -0.071  0.000
      -0.000 -0.000  0.040  0.000  0.028
      -0.089 -0.071  0.000  0.045 -0.000
       0.000  0.000  0.028 -0.000  0.069
     SPIN  2
     eigenvalues:
       0.987  0.988  0.995  0.997  0.998
     eigenvectors (columns):
       0.601 -0.000  0.798  0.000 -0.045
      -0.782 -0.000  0.599  0.000  0.172
      -0.000  0.560  0.000 -0.828  0.000
       0.164  0.000 -0.068  0.000  0.984
      -0.000  0.828 -0.000  0.560 -0.000
     occupation matrix ns (before diag.):
       0.992  0.004 -0.000 -0.001  0.000
       0.004  0.990 -0.000  0.001  0.000
      -0.000 -0.000  0.995 -0.000 -0.004
      -0.001  0.001 -0.000  0.997 -0.000
       0.000  0.000 -0.004 -0.000  0.991

     Number of occupied Hubbard levels =   11.3677

     HUBBARD ENERGY =    0.1217  (Ry)

     total cpu time spent up to now is      156.6 secs

     total energy              =   -1035.27420849 Ry
     estimated scf accuracy    <       0.00004815 Ry

     total magnetization       =     1.00 Bohr mag/cell
     absolute magnetization    =     8.78 Bohr mag/cell

     iteration # 11     ecut=   120.00 Ry     beta= 0.70
     Davidson diagonalization with overlap

---- Real-time Memory Report at c_bands before calling an iterative solver
           270 MiB given to the printing process from OS
           235 MiB allocation reported by mallinfo(arena+hblkhd)
        662208 MiB available memory on the node where the printing process lives
------------------
     ethr =  4.50E-08,  avg # of iterations =  3.5

     =================== HUBBARD OCCUPATIONS ===================
     ------------------------ ATOM    1 ------------------------
     Tr[ns(  1)] (up, down, total) =   4.92451  0.27299  5.19750
     Atomic magnetic moment for atom   1 =   4.65151
     SPIN  1
     eigenvalues:
       0.970  0.972  0.994  0.995  0.995
     eigenvectors (columns):
      -0.575 -0.000 -0.818  0.000  0.010
       0.790 -0.000 -0.551  0.000  0.269
       0.000  0.518 -0.000 -0.855  0.000
      -0.214  0.000  0.163  0.000  0.963
       0.000  0.855  0.000  0.518 -0.000
     occupation matrix ns (before diag.):
       0.986  0.011 -0.000 -0.003  0.000
       0.011  0.979 -0.000  0.004  0.000
      -0.000 -0.000  0.988 -0.000 -0.010
      -0.003  0.004 -0.000  0.994 -0.000
       0.000  0.000 -0.010 -0.000  0.978
     SPIN  2
     eigenvalues:
       0.026  0.027  0.032  0.093  0.095
     eigenvectors (columns):
      -0.000  0.841  0.114 -0.000 -0.528
      -0.000  0.479  0.295  0.000  0.827
      -0.823 -0.000  0.000  0.568 -0.000
       0.000 -0.250  0.949 -0.000 -0.193
       0.568  0.000  0.000  0.823 -0.000
     occupation matrix ns (before diag.):
       0.046 -0.029  0.000  0.007  0.000
      -0.029  0.074 -0.000 -0.009  0.000
       0.000 -0.000  0.048 -0.000  0.031
       0.007 -0.009 -0.000  0.034 -0.000
       0.000  0.000  0.031 -0.000  0.071
     ------------------------ ATOM    2 ------------------------
     Tr[ns(  2)] (up, down, total) =   1.20521  4.96503  6.17024
     Atomic magnetic moment for atom   2 =  -3.75982
     SPIN  1
     eigenvalues:
       0.023  0.028  0.083  0.086  0.985
     eigenvectors (columns):
      -0.000 -0.026  0.537 -0.000  0.843
      -0.000  0.295 -0.802  0.000  0.520
      -0.851  0.000  0.000  0.526 -0.000
       0.000  0.955  0.262 -0.000 -0.137
       0.526  0.000  0.000  0.851  0.000
     occupation matrix ns (before diag.):
       0.725  0.396 -0.000 -0.103  0.000
       0.396  0.322 -0.000 -0.080  0.000
      -0.000 -0.000  0.040  0.000  0.028
      -0.103 -0.080  0.000  0.050 -0.000
       0.000  0.000  0.028 -0.000  0.069
     SPIN  2
     eigenvalues:
       0.987  0.988  0.995  0.997  0.998
     eigenvectors (columns):
       0.598 -0.000  0.801  0.000 -0.035
      -0.785 -0.000  0.594  0.000  0.179
      -0.000  0.559  0.000 -0.829  0.000
       0.164  0.000 -0.079  0.000  0.983
      -0.000  0.829 -0.000  0.559 -0.000
     occupation matrix ns (before diag.):
       0.992  0.004 -0.000 -0.001  0.000
       0.004  0.990 -0.000  0.001  0.000
      -0.000 -0.000  0.995 -0.000 -0.004
      -0.001  0.001 -0.000  0.997 -0.000
       0.000  0.000 -0.004 -0.000  0.991

     Number of occupied Hubbard levels =   11.3677

     HUBBARD ENERGY =    0.1209  (Ry)

     total cpu time spent up to now is      170.9 secs

     total energy              =   -1035.27319606 Ry
     estimated scf accuracy    <       0.00004492 Ry

     total magnetization       =     1.00 Bohr mag/cell
     absolute magnetization    =     8.78 Bohr mag/cell

     iteration # 12     ecut=   120.00 Ry     beta= 0.70
     Davidson diagonalization with overlap

---- Real-time Memory Report at c_bands before calling an iterative solver
           270 MiB given to the printing process from OS
           235 MiB allocation reported by mallinfo(arena+hblkhd)
        660043 MiB available memory on the node where the printing process lives
------------------
     ethr =  4.20E-08,  avg # of iterations =  4.7

     =================== HUBBARD OCCUPATIONS ===================
     ------------------------ ATOM    1 ------------------------
     Tr[ns(  1)] (up, down, total) =   4.92451  0.27304  5.19756
     Atomic magnetic moment for atom   1 =   4.65147
     SPIN  1
     eigenvalues:
       0.970  0.972  0.994  0.995  0.995
     eigenvectors (columns):
      -0.575 -0.000 -0.818  0.000  0.010
       0.790 -0.000 -0.552  0.000  0.269
       0.000  0.518 -0.000 -0.855  0.000
      -0.214  0.000  0.163  0.000  0.963
       0.000  0.855  0.000  0.518 -0.000
     occupation matrix ns (before diag.):
       0.986  0.011 -0.000 -0.003  0.000
       0.011  0.979 -0.000  0.004  0.000
      -0.000 -0.000  0.988 -0.000 -0.010
      -0.003  0.004 -0.000  0.994 -0.000
       0.000  0.000 -0.010 -0.000  0.978
     SPIN  2
     eigenvalues:
       0.026  0.027  0.032  0.093  0.095
     eigenvectors (columns):
      -0.000  0.841  0.116  0.000 -0.528
      -0.000  0.479  0.295  0.000  0.827
      -0.823 -0.000  0.000  0.568 -0.000
       0.000 -0.252  0.948 -0.000 -0.193
       0.568  0.000  0.000  0.823 -0.000
     occupation matrix ns (before diag.):
       0.046 -0.029  0.000  0.007  0.000
      -0.029  0.074 -0.000 -0.009  0.000
       0.000 -0.000  0.048 -0.000  0.031
       0.007 -0.009 -0.000  0.034 -0.000
       0.000  0.000  0.031 -0.000  0.071
     ------------------------ ATOM    2 ------------------------
     Tr[ns(  2)] (up, down, total) =   1.20531  4.96510  6.17042
     Atomic magnetic moment for atom   2 =  -3.75979
     SPIN  1
     eigenvalues:
       0.023  0.028  0.082  0.087  0.985
     eigenvectors (columns):
      -0.000  0.019  0.553 -0.000  0.833
      -0.000  0.321 -0.792  0.000  0.519
      -0.847  0.000  0.000  0.531 -0.000
       0.000  0.947  0.257 -0.000 -0.192
       0.531  0.000  0.000  0.847  0.000
     occupation matrix ns (before diag.):
       0.709  0.390 -0.000 -0.146  0.000
       0.390  0.320 -0.000 -0.107  0.000
      -0.000 -0.000  0.041  0.000  0.029
      -0.146 -0.107  0.000  0.067 -0.000
       0.000  0.000  0.029 -0.000  0.069
     SPIN  2
     eigenvalues:
       0.987  0.988  0.995  0.997  0.998
     eigenvectors (columns):
      -0.588 -0.000 -0.809  0.000 -0.002
       0.792 -0.000 -0.576  0.000  0.200
       0.000  0.555 -0.000 -0.832  0.000
      -0.163  0.000  0.116  0.000  0.980
       0.000  0.832  0.000  0.555 -0.000
     occupation matrix ns (before diag.):
       0.992  0.004 -0.000 -0.001  0.000
       0.004  0.990 -0.000  0.002  0.000
      -0.000 -0.000  0.995 -0.000 -0.004
      -0.001  0.002 -0.000  0.997 -0.000
       0.000  0.000 -0.004 -0.000  0.991

     Number of occupied Hubbard levels =   11.3680

     HUBBARD ENERGY =    0.1220  (Ry)

     total cpu time spent up to now is      188.7 secs

     total energy              =   -1035.27471079 Ry
     estimated scf accuracy    <       0.00004107 Ry

     total magnetization       =     1.00 Bohr mag/cell
     absolute magnetization    =     8.78 Bohr mag/cell

     iteration # 13     ecut=   120.00 Ry     beta= 0.70
     Davidson diagonalization with overlap

---- Real-time Memory Report at c_bands before calling an iterative solver
           270 MiB given to the printing process from OS
           235 MiB allocation reported by mallinfo(arena+hblkhd)
        665162 MiB available memory on the node where the printing process lives
------------------
     ethr =  3.84E-08,  avg # of iterations =  2.1

     =================== HUBBARD OCCUPATIONS ===================
     ------------------------ ATOM    1 ------------------------
     Tr[ns(  1)] (up, down, total) =   4.92452  0.27303  5.19755
     Atomic magnetic moment for atom   1 =   4.65148
     SPIN  1
     eigenvalues:
       0.970  0.972  0.994  0.995  0.995
     eigenvectors (columns):
      -0.575 -0.000 -0.818  0.000  0.010
       0.790 -0.000 -0.552  0.000  0.269
       0.000  0.518 -0.000 -0.855  0.000
      -0.214  0.000  0.162  0.000  0.963
       0.000  0.855  0.000  0.518 -0.000
     occupation matrix ns (before diag.):
       0.986  0.011 -0.000 -0.003  0.000
       0.011  0.979 -0.000  0.004  0.000
      -0.000 -0.000  0.988 -0.000 -0.010
      -0.003  0.004 -0.000  0.994 -0.000
       0.000  0.000 -0.010 -0.000  0.978
     SPIN  2
     eigenvalues:
       0.026  0.027  0.032  0.093  0.095
     eigenvectors (columns):
      -0.000  0.841  0.115 -0.000 -0.528
      -0.000  0.479  0.295  0.000  0.827
      -0.823 -0.000  0.000  0.568 -0.000
       0.000 -0.251  0.948 -0.000 -0.193
       0.568  0.000 -0.000  0.823 -0.000
     occupation matrix ns (before diag.):
       0.046 -0.029  0.000  0.007  0.000
      -0.029  0.074 -0.000 -0.009  0.000
       0.000 -0.000  0.048 -0.000  0.031
       0.007 -0.009 -0.000  0.034 -0.000
       0.000  0.000  0.031 -0.000  0.071
     ------------------------ ATOM    2 ------------------------
     Tr[ns(  2)] (up, down, total) =   1.20531  4.96508  6.17039
     Atomic magnetic moment for atom   2 =  -3.75977
     SPIN  1
     eigenvalues:
       0.023  0.028  0.083  0.087  0.985
     eigenvectors (columns):
      -0.000 -0.013  0.550 -0.000  0.835
      -0.000 -0.319 -0.794  0.000  0.518
      -0.847 -0.000  0.000  0.531 -0.000
       0.000 -0.948  0.259 -0.000 -0.186
       0.531 -0.000  0.000  0.847  0.000
     occupation matrix ns (before diag.):
       0.712  0.390 -0.000 -0.141  0.000
       0.390  0.319 -0.000 -0.104  0.000
      -0.000 -0.000  0.041  0.000  0.029
      -0.141 -0.104  0.000  0.065 -0.000
       0.000  0.000  0.029 -0.000  0.069
     SPIN  2
     eigenvalues:
       0.987  0.988  0.995  0.997  0.998
     eigenvectors (columns):
       0.589 -0.000  0.808  0.000 -0.005
      -0.791 -0.000  0.578  0.000  0.198
      -0.000  0.555  0.000 -0.832  0.000
       0.163  0.000 -0.113  0.000  0.980
      -0.000  0.832 -0.000  0.555 -0.000
     occupation matrix ns (before diag.):
       0.992  0.004 -0.000 -0.001  0.000
       0.004  0.990 -0.000  0.002  0.000
      -0.000 -0.000  0.995 -0.000 -0.004
      -0.001  0.002 -0.000  0.997 -0.000
       0.000  0.000 -0.004 -0.000  0.991

     Number of occupied Hubbard levels =   11.3679

     HUBBARD ENERGY =    0.1193  (Ry)

     total cpu time spent up to now is      201.2 secs

     total energy              =   -1035.27288974 Ry
     estimated scf accuracy    <       0.00003828 Ry

     total magnetization       =     1.00 Bohr mag/cell
     absolute magnetization    =     8.78 Bohr mag/cell

     iteration # 14     ecut=   120.00 Ry     beta= 0.70
     Davidson diagonalization with overlap

---- Real-time Memory Report at c_bands before calling an iterative solver
           270 MiB given to the printing process from OS
           235 MiB allocation reported by mallinfo(arena+hblkhd)
        663232 MiB available memory on the node where the printing process lives
------------------
     ethr =  3.58E-08,  avg # of iterations =  5.0

     =================== HUBBARD OCCUPATIONS ===================
     ------------------------ ATOM    1 ------------------------
     Tr[ns(  1)] (up, down, total) =   4.92453  0.27307  5.19761
     Atomic magnetic moment for atom   1 =   4.65146
     SPIN  1
     eigenvalues:
       0.970  0.972  0.994  0.995  0.995
     eigenvectors (columns):
      -0.575 -0.000 -0.818  0.000  0.009
       0.790 -0.000 -0.552  0.000  0.268
       0.000  0.519 -0.000 -0.855  0.000
      -0.214  0.000  0.161  0.000  0.963
       0.000  0.855  0.000  0.519 -0.000
     occupation matrix ns (before diag.):
       0.986  0.011 -0.000 -0.003  0.000
       0.011  0.979 -0.000  0.004  0.000
      -0.000 -0.000  0.988 -0.000 -0.010
      -0.003  0.004 -0.000  0.994 -0.000
       0.000  0.000 -0.010 -0.000  0.978
     SPIN  2
     eigenvalues:
       0.026  0.027  0.032  0.093  0.095
     eigenvectors (columns):
      -0.000  0.841  0.117 -0.000 -0.528
      -0.000  0.478  0.296  0.000  0.827
      -0.823 -0.000  0.000  0.568 -0.000
       0.000 -0.253  0.948 -0.000 -0.193
       0.568  0.000  0.000  0.823 -0.000
     occupation matrix ns (before diag.):
       0.046 -0.029  0.000  0.007  0.000
      -0.029  0.074 -0.000 -0.009  0.000
       0.000 -0.000  0.048 -0.000  0.031
       0.007 -0.009 -0.000  0.034 -0.000
       0.000  0.000  0.031 -0.000  0.071
     ------------------------ ATOM    2 ------------------------
     Tr[ns(  2)] (up, down, total) =   1.20502  4.96508  6.17010
     Atomic magnetic moment for atom   2 =  -3.76005
     SPIN  1
     eigenvalues:
       0.023  0.028  0.082  0.087  0.986
     eigenvectors (columns):
      -0.000  0.069  0.565 -0.000  0.822
       0.000  0.348 -0.786  0.000  0.511
      -0.843  0.000  0.000  0.538 -0.000
       0.000  0.935  0.251 -0.000 -0.251
       0.538 -0.000  0.000  0.843  0.000
     occupation matrix ns (before diag.):
       0.693  0.378 -0.000 -0.190  0.000
       0.378  0.311 -0.000 -0.133  0.000
      -0.000 -0.000  0.041  0.000  0.029
      -0.190 -0.133  0.000  0.091 -0.000
       0.000  0.000  0.029 -0.000  0.068
     SPIN  2
     eigenvalues:
       0.987  0.988  0.995  0.997  0.997
     eigenvectors (columns):
       0.579 -0.000  0.814  0.000  0.038
      -0.799 -0.000  0.558  0.000  0.226
      -0.000  0.549  0.000 -0.836  0.000
       0.163  0.000 -0.161  0.000  0.973
      -0.000  0.836 -0.000  0.549 -0.000
     occupation matrix ns (before diag.):
       0.992  0.004 -0.000 -0.001  0.000
       0.004  0.990 -0.000  0.002  0.000
      -0.000 -0.000  0.995 -0.000 -0.004
      -0.001  0.002 -0.000  0.997 -0.000
       0.000  0.000 -0.004 -0.000  0.991

     Number of occupied Hubbard levels =   11.3677

     HUBBARD ENERGY =    0.1246  (Ry)

     total cpu time spent up to now is      219.6 secs

     total energy              =   -1035.27490262 Ry
     estimated scf accuracy    <       0.00004631 Ry

     total magnetization       =     1.00 Bohr mag/cell
     absolute magnetization    =     8.78 Bohr mag/cell

     iteration # 15     ecut=   120.00 Ry     beta= 0.70
     Davidson diagonalization with overlap

---- Real-time Memory Report at c_bands before calling an iterative solver
           270 MiB given to the printing process from OS
           235 MiB allocation reported by mallinfo(arena+hblkhd)
        663221 MiB available memory on the node where the printing process lives
------------------
     ethr =  3.58E-08,  avg # of iterations =  4.1

     =================== HUBBARD OCCUPATIONS ===================
     ------------------------ ATOM    1 ------------------------
     Tr[ns(  1)] (up, down, total) =   4.92448  0.27301  5.19749
     Atomic magnetic moment for atom   1 =   4.65146
     SPIN  1
     eigenvalues:
       0.970  0.972  0.994  0.995  0.995
     eigenvectors (columns):
      -0.575 -0.000 -0.818  0.000  0.009
       0.790 -0.000 -0.552  0.000  0.267
       0.000  0.519 -0.000 -0.855  0.000
      -0.214  0.000  0.161  0.000  0.964
       0.000  0.855  0.000  0.519 -0.000
     occupation matrix ns (before diag.):
       0.986  0.011 -0.000 -0.003  0.000
       0.011  0.979 -0.000  0.004  0.000
      -0.000 -0.000  0.988 -0.000 -0.010
      -0.003  0.004 -0.000  0.994 -0.000
       0.000  0.000 -0.010 -0.000  0.978
     SPIN  2
     eigenvalues:
       0.026  0.027  0.032  0.093  0.095
     eigenvectors (columns):
      -0.000  0.841  0.117 -0.000 -0.528
      -0.000  0.478  0.296  0.000  0.827
      -0.823 -0.000  0.000  0.568 -0.000
       0.000 -0.253  0.948 -0.000 -0.193
       0.568  0.000  0.000  0.823 -0.000
     occupation matrix ns (before diag.):
       0.046 -0.029  0.000  0.007  0.000
      -0.029  0.074 -0.000 -0.009  0.000
       0.000 -0.000  0.048 -0.000  0.031
       0.007 -0.009 -0.000  0.034 -0.000
       0.000  0.000  0.031 -0.000  0.071
     ------------------------ ATOM    2 ------------------------
     Tr[ns(  2)] (up, down, total) =   1.20529  4.96510  6.17039
     Atomic magnetic moment for atom   2 =  -3.75980
     SPIN  1
     eigenvalues:
       0.023  0.028  0.082  0.087  0.985
     eigenvectors (columns):
      -0.000  0.087  0.560 -0.000  0.824
      -0.000  0.365 -0.787  0.000  0.497
      -0.841  0.000  0.000  0.541 -0.000
       0.000  0.927  0.257 -0.000 -0.273
       0.541  0.000  0.000  0.841  0.000
     occupation matrix ns (before diag.):
       0.694  0.368 -0.000 -0.208  0.000
       0.368  0.298 -0.000 -0.141  0.000
      -0.000 -0.000  0.042  0.000  0.029
      -0.208 -0.141  0.000  0.103 -0.000
       0.000  0.000  0.029 -0.000  0.068
     SPIN  2
     eigenvalues:
       0.987  0.988  0.995  0.997  0.997
     eigenvectors (columns):
      -0.581 -0.000 -0.812  0.000  0.054
       0.797 -0.000 -0.554  0.000  0.238
       0.000  0.547 -0.000 -0.837  0.000
      -0.164  0.000  0.181  0.000  0.970
       0.000  0.837  0.000  0.547 -0.000
     occupation matrix ns (before diag.):
       0.992  0.004 -0.000 -0.001  0.000
       0.004  0.990 -0.000  0.002  0.000
      -0.000 -0.000  0.995 -0.000 -0.004
      -0.001  0.002 -0.000  0.997 -0.000
       0.000  0.000 -0.004 -0.000  0.991

     Number of occupied Hubbard levels =   11.3679

     HUBBARD ENERGY =    0.1244  (Ry)

     total cpu time spent up to now is      236.1 secs

     total energy              =   -1035.27358299 Ry
     estimated scf accuracy    <       0.00004969 Ry

     total magnetization       =     1.00 Bohr mag/cell
     absolute magnetization    =     8.78 Bohr mag/cell

     iteration # 16     ecut=   120.00 Ry     beta= 0.70
     Davidson diagonalization with overlap

---- Real-time Memory Report at c_bands before calling an iterative solver
           270 MiB given to the printing process from OS
           235 MiB allocation reported by mallinfo(arena+hblkhd)
        660697 MiB available memory on the node where the printing process lives
------------------
     ethr =  3.58E-08,  avg # of iterations =  4.7

     =================== HUBBARD OCCUPATIONS ===================
     ------------------------ ATOM    1 ------------------------
     Tr[ns(  1)] (up, down, total) =   4.92445  0.27296  5.19741
     Atomic magnetic moment for atom   1 =   4.65148
     SPIN  1
     eigenvalues:
       0.970  0.972  0.994  0.995  0.995
     eigenvectors (columns):
      -0.575 -0.000 -0.818  0.000  0.009
       0.790 -0.000 -0.552  0.000  0.268
       0.000  0.518 -0.000 -0.855  0.000
      -0.214  0.000  0.161  0.000  0.964
       0.000  0.855  0.000  0.518 -0.000
     occupation matrix ns (before diag.):
       0.986  0.011 -0.000 -0.003  0.000
       0.011  0.979 -0.000  0.004  0.000
      -0.000 -0.000  0.988 -0.000 -0.010
      -0.003  0.004 -0.000  0.994 -0.000
       0.000  0.000 -0.010 -0.000  0.978
     SPIN  2
     eigenvalues:
       0.026  0.027  0.032  0.093  0.095
     eigenvectors (columns):
      -0.000  0.841  0.116 -0.000 -0.528
      -0.000  0.479  0.296  0.000  0.827
      -0.823 -0.000  0.000  0.568 -0.000
       0.000 -0.252  0.948 -0.000 -0.193
       0.568  0.000 -0.000  0.823 -0.000
     occupation matrix ns (before diag.):
       0.046 -0.029  0.000  0.007  0.000
      -0.029  0.074 -0.000 -0.009  0.000
       0.000 -0.000  0.048 -0.000  0.031
       0.007 -0.009 -0.000  0.034 -0.000
       0.000  0.000  0.031 -0.000  0.071
     ------------------------ ATOM    2 ------------------------
     Tr[ns(  2)] (up, down, total) =   1.20539  4.96509  6.17047
     Atomic magnetic moment for atom   2 =  -3.75970
     SPIN  1
     eigenvalues:
       0.023  0.028  0.082  0.087  0.985
     eigenvectors (columns):
      -0.000  0.043  0.556 -0.000  0.830
       0.000  0.340 -0.790  0.000  0.511
      -0.845  0.000  0.000  0.535 -0.000
       0.000  0.939  0.261 -0.000 -0.223
       0.535 -0.000  0.000  0.845  0.000
     occupation matrix ns (before diag.):
       0.705  0.382 -0.000 -0.169  0.000
       0.382  0.311 -0.000 -0.120  0.000
      -0.000 -0.000  0.041  0.000  0.029
      -0.169 -0.120  0.000  0.079 -0.000
       0.000  0.000  0.029 -0.000  0.068
     SPIN  2
     eigenvalues:
       0.987  0.988  0.995  0.997  0.997
     eigenvectors (columns):
      -0.585 -0.000 -0.811  0.000  0.020
       0.794 -0.000 -0.568  0.000  0.215
       0.000  0.551 -0.000 -0.834  0.000
      -0.163  0.000  0.142  0.000  0.976
       0.000  0.834  0.000  0.551 -0.000
     occupation matrix ns (before diag.):
       0.992  0.004 -0.000 -0.001  0.000
       0.004  0.990 -0.000  0.002  0.000
      -0.000 -0.000  0.995 -0.000 -0.004
      -0.001  0.002 -0.000  0.997 -0.000
       0.000  0.000 -0.004 -0.000  0.991

     Number of occupied Hubbard levels =   11.3679

     HUBBARD ENERGY =    0.1148  (Ry)

     total cpu time spent up to now is      253.6 secs

     total energy              =   -1035.25397989 Ry
     estimated scf accuracy    <       0.00005618 Ry

     total magnetization       =     1.00 Bohr mag/cell
     absolute magnetization    =     8.78 Bohr mag/cell

     iteration # 17     ecut=   120.00 Ry     beta= 0.70
     Davidson diagonalization with overlap

---- Real-time Memory Report at c_bands before calling an iterative solver
           270 MiB given to the printing process from OS
           235 MiB allocation reported by mallinfo(arena+hblkhd)
        663222 MiB available memory on the node where the printing process lives
------------------
     ethr =  3.58E-08,  avg # of iterations =  7.8

     =================== HUBBARD OCCUPATIONS ===================
     ------------------------ ATOM    1 ------------------------
     Tr[ns(  1)] (up, down, total) =   4.92462  0.27322  5.19784
     Atomic magnetic moment for atom   1 =   4.65140
     SPIN  1
     eigenvalues:
       0.970  0.972  0.994  0.995  0.995
     eigenvectors (columns):
       0.575 -0.000 -0.818  0.000 -0.011
      -0.790 -0.000 -0.552  0.000 -0.268
      -0.000  0.520 -0.000 -0.854 -0.000
       0.213  0.000  0.163  0.000 -0.963
      -0.000  0.854  0.000  0.520  0.000
     occupation matrix ns (before diag.):
       0.986  0.011 -0.000 -0.003  0.000
       0.011  0.979 -0.000  0.004  0.000
      -0.000 -0.000  0.988 -0.000 -0.010
      -0.003  0.004 -0.000  0.994 -0.000
       0.000  0.000 -0.010 -0.000  0.978
     SPIN  2
     eigenvalues:
       0.027  0.027  0.032  0.093  0.095
     eigenvectors (columns):
      -0.000  0.841  0.119 -0.000 -0.528
      -0.000  0.477  0.298  0.000  0.827
      -0.823 -0.000  0.000  0.568 -0.000
       0.000 -0.256  0.947 -0.000 -0.194
       0.568  0.000 -0.000  0.823 -0.000
     occupation matrix ns (before diag.):
       0.046 -0.029  0.000  0.007  0.000
      -0.029  0.074 -0.000 -0.009  0.000
       0.000 -0.000  0.048 -0.000  0.031
       0.007 -0.009 -0.000  0.034 -0.000
       0.000  0.000  0.031 -0.000  0.072
     ------------------------ ATOM    2 ------------------------
     Tr[ns(  2)] (up, down, total) =   1.20455  4.96508  6.16963
     Atomic magnetic moment for atom   2 =  -3.76053
     SPIN  1
     eigenvalues:
       0.023  0.027  0.081  0.088  0.986
     eigenvectors (columns):
       0.000  0.211 -0.560 -0.000  0.801
       0.000  0.433  0.788 -0.000  0.437
       0.830  0.000 -0.000  0.558 -0.000
      -0.000  0.876 -0.255 -0.000 -0.409
      -0.558  0.000 -0.000  0.830  0.000
     occupation matrix ns (before diag.):
       0.659  0.312 -0.000 -0.307  0.000
       0.312  0.244 -0.000 -0.182  0.000
      -0.000 -0.000  0.043  0.000  0.030
      -0.307 -0.182  0.000  0.191 -0.000
       0.000  0.000  0.030 -0.000  0.067
     SPIN  2
     eigenvalues:
       0.987  0.989  0.995  0.997  0.997
     eigenvectors (columns):
      -0.575 -0.000 -0.800  0.000  0.170
       0.802 -0.000 -0.509  0.000  0.313
       0.000  0.534 -0.000 -0.846  0.000
      -0.164  0.000  0.316  0.000  0.934
       0.000  0.846  0.000  0.534 -0.000
     occupation matrix ns (before diag.):
       0.992  0.004 -0.000 -0.000  0.000
       0.004  0.990 -0.000  0.002  0.000
      -0.000 -0.000  0.995 -0.000 -0.004
      -0.000  0.002 -0.000  0.997 -0.000
       0.000  0.000 -0.004 -0.000  0.991

     Number of occupied Hubbard levels =   11.3675

     HUBBARD ENERGY =    0.1162  (Ry)

     total cpu time spent up to now is      278.8 secs

     total energy              =   -1035.27546076 Ry
     estimated scf accuracy    <       0.00013434 Ry

     total magnetization       =     1.00 Bohr mag/cell
     absolute magnetization    =     8.77 Bohr mag/cell

     iteration # 18     ecut=   120.00 Ry     beta= 0.70
     Davidson diagonalization with overlap

---- Real-time Memory Report at c_bands before calling an iterative solver
           270 MiB given to the printing process from OS
           235 MiB allocation reported by mallinfo(arena+hblkhd)
        665013 MiB available memory on the node where the printing process lives
------------------
     ethr =  3.58E-08,  avg # of iterations =  4.0

     =================== HUBBARD OCCUPATIONS ===================
     ------------------------ ATOM    1 ------------------------
     Tr[ns(  1)] (up, down, total) =   4.92466  0.27327  5.19794
     Atomic magnetic moment for atom   1 =   4.65139
     SPIN  1
     eigenvalues:
       0.970  0.972  0.994  0.995  0.995
     eigenvectors (columns):
       0.575 -0.000 -0.818  0.000 -0.011
      -0.790 -0.000 -0.552  0.000 -0.268
      -0.000  0.520 -0.000 -0.854 -0.000
       0.213  0.000  0.163  0.000 -0.963
      -0.000  0.854  0.000  0.520  0.000
     occupation matrix ns (before diag.):
       0.986  0.011 -0.000 -0.003  0.000
       0.011  0.979 -0.000  0.004  0.000
      -0.000 -0.000  0.988 -0.000 -0.010
      -0.003  0.004 -0.000  0.994 -0.000
       0.000  0.000 -0.010 -0.000  0.978
     SPIN  2
     eigenvalues:
       0.027  0.027  0.032  0.093  0.095
     eigenvectors (columns):
      -0.000  0.841  0.119 -0.000 -0.528
      -0.000  0.477  0.298  0.000  0.827
      -0.823 -0.000  0.000  0.568 -0.000
       0.000 -0.256  0.947 -0.000 -0.194
       0.568  0.000  0.000  0.823 -0.000
     occupation matrix ns (before diag.):
       0.046 -0.029  0.000  0.007  0.000
      -0.029  0.074 -0.000 -0.009  0.000
       0.000 -0.000  0.048 -0.000  0.031
       0.007 -0.009 -0.000  0.034 -0.000
       0.000  0.000  0.031 -0.000  0.072
     ------------------------ ATOM    2 ------------------------
     Tr[ns(  2)] (up, down, total) =   1.20453  4.96508  6.16961
     Atomic magnetic moment for atom   2 =  -3.76055
     SPIN  1
     eigenvalues:
       0.023  0.027  0.081  0.088  0.986
     eigenvectors (columns):
       0.000  0.196  0.562 -0.000  0.804
       0.000  0.420 -0.789 -0.000  0.449
       0.832  0.000  0.000  0.555 -0.000
      -0.000  0.886  0.249 -0.000 -0.391
      -0.555  0.000  0.000  0.832  0.000
     occupation matrix ns (before diag.):
       0.664  0.322 -0.000 -0.294  0.000
       0.322  0.254 -0.000 -0.179  0.000
      -0.000 -0.000  0.043  0.000  0.030
      -0.294 -0.179  0.000  0.177 -0.000
       0.000  0.000  0.030 -0.000  0.068
     SPIN  2
     eigenvalues:
       0.987  0.988  0.995  0.997  0.997
     eigenvectors (columns):
      -0.574 -0.000 -0.804  0.000  0.154
       0.802 -0.000 -0.515  0.000  0.301
       0.000  0.536 -0.000 -0.844  0.000
      -0.163  0.000  0.297  0.000  0.941
       0.000  0.844  0.000  0.536 -0.000
     occupation matrix ns (before diag.):
       0.992  0.004 -0.000 -0.000  0.000
       0.004  0.990 -0.000  0.002  0.000
      -0.000 -0.000  0.995 -0.000 -0.004
      -0.000  0.002 -0.000  0.997 -0.000
       0.000  0.000 -0.004 -0.000  0.991

     Number of occupied Hubbard levels =   11.3675

     HUBBARD ENERGY =    0.1288  (Ry)

     total cpu time spent up to now is      294.8 secs

     total energy              =   -1035.27315902 Ry
     estimated scf accuracy    <       0.00007932 Ry

     total magnetization       =     1.00 Bohr mag/cell
     absolute magnetization    =     8.77 Bohr mag/cell

     iteration # 19     ecut=   120.00 Ry     beta= 0.70
     Davidson diagonalization with overlap

---- Real-time Memory Report at c_bands before calling an iterative solver
           270 MiB given to the printing process from OS
           235 MiB allocation reported by mallinfo(arena+hblkhd)
        664889 MiB available memory on the node where the printing process lives
------------------
     ethr =  3.58E-08,  avg # of iterations =  5.8

     =================== HUBBARD OCCUPATIONS ===================
     ------------------------ ATOM    1 ------------------------
     Tr[ns(  1)] (up, down, total) =   4.92460  0.27321  5.19782
     Atomic magnetic moment for atom   1 =   4.65139
     SPIN  1
     eigenvalues:
       0.970  0.972  0.994  0.995  0.995
     eigenvectors (columns):
      -0.575 -0.000 -0.818  0.000  0.010
       0.790 -0.000 -0.552  0.000  0.268
       0.000  0.519 -0.000 -0.855  0.000
      -0.214  0.000  0.162  0.000  0.963
       0.000  0.855  0.000  0.519 -0.000
     occupation matrix ns (before diag.):
       0.986  0.011 -0.000 -0.003  0.000
       0.011  0.979 -0.000  0.004  0.000
      -0.000 -0.000  0.988 -0.000 -0.010
      -0.003  0.004 -0.000  0.994 -0.000
       0.000  0.000 -0.010 -0.000  0.978
     SPIN  2
     eigenvalues:
       0.027  0.027  0.032  0.093  0.095
     eigenvectors (columns):
      -0.000  0.841  0.118  0.000 -0.528
      -0.000  0.478  0.297  0.000  0.827
      -0.823 -0.000  0.000  0.568 -0.000
       0.000 -0.254  0.948 -0.000 -0.193
       0.568  0.000  0.000  0.823 -0.000
     occupation matrix ns (before diag.):
       0.046 -0.029  0.000  0.007  0.000
      -0.029  0.074 -0.000 -0.009  0.000
       0.000 -0.000  0.048 -0.000  0.031
       0.007 -0.009 -0.000  0.034 -0.000
       0.000  0.000  0.031 -0.000  0.072
     ------------------------ ATOM    2 ------------------------
     Tr[ns(  2)] (up, down, total) =   1.20527  4.96515  6.17042
     Atomic magnetic moment for atom   2 =  -3.75988
     SPIN  1
     eigenvalues:
       0.023  0.028  0.082  0.087  0.985
     eigenvectors (columns):
       0.000 -0.140  0.550 -0.000 -0.823
       0.000 -0.393 -0.794 -0.000 -0.464
       0.837 -0.000  0.000  0.548  0.000
      -0.000 -0.909  0.258 -0.000  0.327
      -0.548 -0.000 -0.000  0.837 -0.000
     occupation matrix ns (before diag.):
       0.693  0.342 -0.000 -0.250  0.000
       0.342  0.268 -0.000 -0.156  0.000
      -0.000 -0.000  0.042  0.000  0.029
      -0.250 -0.156  0.000  0.134 -0.000
       0.000  0.000  0.029 -0.000  0.068
     SPIN  2
     eigenvalues:
       0.987  0.988  0.995  0.997  0.997
     eigenvectors (columns):
      -0.582 -0.000 -0.807  0.000  0.098
       0.797 -0.000 -0.543  0.000  0.266
       0.000  0.542 -0.000 -0.840  0.000
      -0.162  0.000  0.233  0.000  0.959
       0.000  0.840  0.000  0.542 -0.000
     occupation matrix ns (before diag.):
       0.992  0.004 -0.000 -0.001  0.000
       0.004  0.990 -0.000  0.002  0.000
      -0.000 -0.000  0.995 -0.000 -0.004
      -0.001  0.002 -0.000  0.997 -0.000
       0.000  0.000 -0.004 -0.000  0.991

     Number of occupied Hubbard levels =   11.3682

     HUBBARD ENERGY =    0.1263  (Ry)

     total cpu time spent up to now is      314.1 secs

     total energy              =   -1035.27515022 Ry
     estimated scf accuracy    <       0.00015844 Ry

     total magnetization       =     1.00 Bohr mag/cell
     absolute magnetization    =     8.77 Bohr mag/cell

     iteration # 20     ecut=   120.00 Ry     beta= 0.70
     Davidson diagonalization with overlap

---- Real-time Memory Report at c_bands before calling an iterative solver
           270 MiB given to the printing process from OS
           235 MiB allocation reported by mallinfo(arena+hblkhd)
        660591 MiB available memory on the node where the printing process lives
------------------
     ethr =  3.58E-08,  avg # of iterations =  4.0

     =================== HUBBARD OCCUPATIONS ===================
     ------------------------ ATOM    1 ------------------------
     Tr[ns(  1)] (up, down, total) =   4.92462  0.27324  5.19787
     Atomic magnetic moment for atom   1 =   4.65138
     SPIN  1
     eigenvalues:
       0.970  0.972  0.994  0.995  0.995
     eigenvectors (columns):
      -0.575 -0.000 -0.818  0.000  0.011
       0.790 -0.000 -0.552  0.000  0.269
       0.000  0.520 -0.000 -0.854  0.000
      -0.214  0.000  0.163  0.000  0.963
       0.000  0.854  0.000  0.520 -0.000
     occupation matrix ns (before diag.):
       0.986  0.011 -0.000 -0.003  0.000
       0.011  0.979 -0.000  0.004  0.000
      -0.000 -0.000  0.988 -0.000 -0.010
      -0.003  0.004 -0.000  0.994 -0.000
       0.000  0.000 -0.010 -0.000  0.978
     SPIN  2
     eigenvalues:
       0.027  0.027  0.032  0.093  0.095
     eigenvectors (columns):
      -0.000  0.841  0.118 -0.000 -0.528
      -0.000  0.478  0.297  0.000  0.827
      -0.823 -0.000  0.000  0.568 -0.000
       0.000 -0.255  0.947 -0.000 -0.193
       0.568  0.000 -0.000  0.823 -0.000
     occupation matrix ns (before diag.):
       0.046 -0.029  0.000  0.007  0.000
      -0.029  0.074 -0.000 -0.009  0.000
       0.000 -0.000  0.048 -0.000  0.031
       0.007 -0.009 -0.000  0.034 -0.000
       0.000  0.000  0.031 -0.000  0.072
     ------------------------ ATOM    2 ------------------------
     Tr[ns(  2)] (up, down, total) =   1.20511  4.96515  6.17026
     Atomic magnetic moment for atom   2 =  -3.76003
     SPIN  1
     eigenvalues:
       0.023  0.028  0.082  0.087  0.985
     eigenvectors (columns):
      -0.000 -0.167  0.551  0.000  0.818
      -0.000 -0.406 -0.794 -0.000  0.452
      -0.835 -0.000  0.000  0.551 -0.000
       0.000 -0.899  0.256 -0.000 -0.356
       0.551 -0.000 -0.000  0.835  0.000
     occupation matrix ns (before diag.):
       0.684  0.331 -0.000 -0.271  0.000
       0.331  0.258 -0.000 -0.165  0.000
      -0.000 -0.000  0.042  0.000  0.030
      -0.271 -0.165  0.000  0.153 -0.000
       0.000  0.000  0.030 -0.000  0.068
     SPIN  2
     eigenvalues:
       0.987  0.988  0.995  0.997  0.997
     eigenvectors (columns):
      -0.581 -0.000 -0.805  0.000  0.121
       0.798 -0.000 -0.533  0.000  0.281
       0.000  0.539 -0.000 -0.842  0.000
      -0.161  0.000  0.259  0.000  0.952
       0.000  0.842  0.000  0.539 -0.000
     occupation matrix ns (before diag.):
       0.992  0.004 -0.000 -0.000  0.000
       0.004  0.990 -0.000  0.002  0.000
      -0.000 -0.000  0.995 -0.000 -0.004
      -0.000  0.002 -0.000  0.997 -0.000
       0.000  0.000 -0.004 -0.000  0.991

     Number of occupied Hubbard levels =   11.3681

     HUBBARD ENERGY =    0.1215  (Ry)

     total cpu time spent up to now is      330.2 secs

     total energy              =   -1035.27439289 Ry
     estimated scf accuracy    <       0.00007132 Ry

     total magnetization       =     1.00 Bohr mag/cell
     absolute magnetization    =     8.77 Bohr mag/cell

     iteration # 21     ecut=   120.00 Ry     beta= 0.70
     Davidson diagonalization with overlap

---- Real-time Memory Report at c_bands before calling an iterative solver
           270 MiB given to the printing process from OS
           235 MiB allocation reported by mallinfo(arena+hblkhd)
        663104 MiB available memory on the node where the printing process lives
------------------
     ethr =  3.58E-08,  avg # of iterations =  5.0

     =================== HUBBARD OCCUPATIONS ===================
     ------------------------ ATOM    1 ------------------------
     Tr[ns(  1)] (up, down, total) =   4.92465  0.27328  5.19793
     Atomic magnetic moment for atom   1 =   4.65137
     SPIN  1
     eigenvalues:
       0.970  0.972  0.994  0.995  0.995
     eigenvectors (columns):
      -0.575 -0.000 -0.818  0.000  0.012
       0.790 -0.000 -0.551  0.000  0.269
       0.000  0.520 -0.000 -0.854  0.000
      -0.213  0.000  0.164  0.000  0.963
       0.000  0.854  0.000  0.520 -0.000
     occupation matrix ns (before diag.):
       0.986  0.011 -0.000 -0.003  0.000
       0.011  0.979 -0.000  0.004  0.000
      -0.000 -0.000  0.988 -0.000 -0.010
      -0.003  0.004 -0.000  0.994 -0.000
       0.000  0.000 -0.010 -0.000  0.978
     SPIN  2
     eigenvalues:
       0.027  0.027  0.032  0.093  0.095
     eigenvectors (columns):
      -0.000  0.841  0.119  0.000 -0.528
      -0.000  0.477  0.298  0.000  0.827
      -0.823 -0.000  0.000  0.568 -0.000
       0.000 -0.256  0.947 -0.000 -0.193
       0.568  0.000  0.000  0.823 -0.000
     occupation matrix ns (before diag.):
       0.046 -0.029  0.000  0.007  0.000
      -0.029  0.074 -0.000 -0.009  0.000
       0.000 -0.000  0.048 -0.000  0.031
       0.007 -0.009 -0.000  0.034 -0.000
       0.000  0.000  0.031 -0.000  0.072
     ------------------------ ATOM    2 ------------------------
     Tr[ns(  2)] (up, down, total) =   1.20482  4.96513  6.16996
     Atomic magnetic moment for atom   2 =  -3.76031
     SPIN  1
     eigenvalues:
       0.023  0.028  0.081  0.087  0.986
     eigenvectors (columns):
       0.000  0.210  0.551 -0.000  0.808
       0.000  0.428 -0.795 -0.000  0.431
       0.831  0.000  0.000  0.557 -0.000
       0.000  0.879  0.255 -0.000 -0.403
      -0.557  0.000  0.000  0.831  0.000
     occupation matrix ns (before diag.):
       0.669  0.310 -0.000 -0.304  0.000
       0.310  0.239 -0.000 -0.177  0.000
      -0.000 -0.000  0.043  0.000  0.030
      -0.304 -0.177  0.000  0.186 -0.000
       0.000  0.000  0.030 -0.000  0.067
     SPIN  2
     eigenvalues:
       0.987  0.988  0.995  0.997  0.997
     eigenvectors (columns):
      -0.578 -0.000 -0.799  0.000  0.162
       0.800 -0.000 -0.516  0.000  0.306
       0.000  0.535 -0.000 -0.845  0.000
      -0.161  0.000  0.307  0.000  0.938
       0.000  0.845  0.000  0.535 -0.000
     occupation matrix ns (before diag.):
       0.992  0.004 -0.000 -0.000  0.000
       0.004  0.990 -0.000  0.002  0.000
      -0.000 -0.000  0.995 -0.000 -0.004
      -0.000  0.002 -0.000  0.997 -0.000
       0.000  0.000 -0.004 -0.000  0.991

     Number of occupied Hubbard levels =   11.3679

     HUBBARD ENERGY =    0.1250  (Ry)

     total cpu time spent up to now is      348.2 secs

     total energy              =   -1035.27544320 Ry
     estimated scf accuracy    <       0.00000266 Ry

     total magnetization       =     1.00 Bohr mag/cell
     absolute magnetization    =     8.77 Bohr mag/cell

     iteration # 22     ecut=   120.00 Ry     beta= 0.70
     Davidson diagonalization with overlap

---- Real-time Memory Report at c_bands before calling an iterative solver
           270 MiB given to the printing process from OS
           235 MiB allocation reported by mallinfo(arena+hblkhd)
        661361 MiB available memory on the node where the printing process lives
------------------
     ethr =  2.49E-09,  avg # of iterations =  6.4

     =================== HUBBARD OCCUPATIONS ===================
     ------------------------ ATOM    1 ------------------------
     Tr[ns(  1)] (up, down, total) =   4.92460  0.27321  5.19782
     Atomic magnetic moment for atom   1 =   4.65139
     SPIN  1
     eigenvalues:
       0.970  0.972  0.994  0.995  0.995
     eigenvectors (columns):
       0.575 -0.000 -0.818  0.000 -0.011
      -0.790 -0.000 -0.552  0.000 -0.268
      -0.000  0.520 -0.000 -0.854 -0.000
       0.214  0.000  0.163  0.000 -0.963
      -0.000  0.854  0.000  0.520  0.000
     occupation matrix ns (before diag.):
       0.986  0.011 -0.000 -0.003  0.000
       0.011  0.979 -0.000  0.004  0.000
      -0.000 -0.000  0.988 -0.000 -0.010
      -0.003  0.004 -0.000  0.994 -0.000
       0.000  0.000 -0.010 -0.000  0.978
     SPIN  2
     eigenvalues:
       0.027  0.027  0.032  0.093  0.095
     eigenvectors (columns):
      -0.000  0.841  0.119  0.000 -0.528
      -0.000  0.478  0.298  0.000  0.827
      -0.823 -0.000  0.000  0.568 -0.000
       0.000 -0.255  0.947 -0.000 -0.193
       0.568  0.000  0.000  0.823 -0.000
     occupation matrix ns (before diag.):
       0.046 -0.029  0.000  0.007  0.000
      -0.029  0.074 -0.000 -0.009  0.000
       0.000 -0.000  0.048 -0.000  0.031
       0.007 -0.009 -0.000  0.034 -0.000
       0.000  0.000  0.031 -0.000  0.072
     ------------------------ ATOM    2 ------------------------
     Tr[ns(  2)] (up, down, total) =   1.20504  4.96515  6.17019
     Atomic magnetic moment for atom   2 =  -3.76011
     SPIN  1
     eigenvalues:
       0.023  0.028  0.082  0.087  0.985
     eigenvectors (columns):
       0.000  0.193  0.553 -0.000  0.810
       0.000  0.415 -0.794  0.000  0.444
       0.832  0.000  0.000  0.554 -0.000
       0.000  0.889  0.250 -0.000 -0.382
      -0.554  0.000  0.000  0.832  0.000
     occupation matrix ns (before diag.):
       0.673  0.321 -0.000 -0.289  0.000
       0.321  0.250 -0.000 -0.173  0.000
      -0.000 -0.000  0.043  0.000  0.030
      -0.289 -0.173  0.000  0.171 -0.000
       0.000  0.000  0.030 -0.000  0.068
     SPIN  2
     eigenvalues:
       0.987  0.988  0.995  0.997  0.997
     eigenvectors (columns):
      -0.578 -0.000 -0.803  0.000  0.145
       0.800 -0.000 -0.522  0.000  0.294
       0.000  0.537 -0.000 -0.844  0.000
      -0.161  0.000  0.286  0.000  0.945
       0.000  0.844  0.000  0.537 -0.000
     occupation matrix ns (before diag.):
       0.992  0.004 -0.000 -0.000  0.000
       0.004  0.990 -0.000  0.002  0.000
      -0.000 -0.000  0.995 -0.000 -0.004
      -0.000  0.002 -0.000  0.997 -0.000
       0.000  0.000 -0.004 -0.000  0.991

     Number of occupied Hubbard levels =   11.3680

     HUBBARD ENERGY =    0.1178  (Ry)

     total cpu time spent up to now is      369.5 secs

     total energy              =   -1035.27387680 Ry
     estimated scf accuracy    <       0.00003541 Ry

     total magnetization       =     1.00 Bohr mag/cell
     absolute magnetization    =     8.77 Bohr mag/cell

     iteration # 23     ecut=   120.00 Ry     beta= 0.70
     Davidson diagonalization with overlap

---- Real-time Memory Report at c_bands before calling an iterative solver
           270 MiB given to the printing process from OS
           235 MiB allocation reported by mallinfo(arena+hblkhd)
        663028 MiB available memory on the node where the printing process lives
------------------
     ethr =  2.49E-09,  avg # of iterations =  7.9

     =================== HUBBARD OCCUPATIONS ===================
     ------------------------ ATOM    1 ------------------------
     Tr[ns(  1)] (up, down, total) =   4.92463  0.27325  5.19788
     Atomic magnetic moment for atom   1 =   4.65138
     SPIN  1
     eigenvalues:
       0.970  0.972  0.994  0.995  0.995
     eigenvectors (columns):
      -0.575 -0.000 -0.818  0.000  0.012
       0.790 -0.000 -0.552  0.000  0.269
       0.000  0.520 -0.000 -0.854  0.000
      -0.213  0.000  0.165  0.000  0.963
       0.000  0.854  0.000  0.520 -0.000
     occupation matrix ns (before diag.):
       0.986  0.011 -0.000 -0.003  0.000
       0.011  0.979 -0.000  0.004  0.000
      -0.000 -0.000  0.988 -0.000 -0.010
      -0.003  0.004 -0.000  0.994 -0.000
       0.000  0.000 -0.010 -0.000  0.978
     SPIN  2
     eigenvalues:
       0.027  0.027  0.032  0.093  0.095
     eigenvectors (columns):
      -0.000  0.840  0.120 -0.000 -0.528
      -0.000  0.477  0.298  0.000  0.827
      -0.823 -0.000  0.000  0.568 -0.000
       0.000 -0.257  0.947 -0.000 -0.194
       0.568  0.000  0.000  0.823 -0.000
     occupation matrix ns (before diag.):
       0.046 -0.029  0.000  0.007  0.000
      -0.029  0.074 -0.000 -0.009  0.000
       0.000 -0.000  0.048 -0.000  0.031
       0.007 -0.009 -0.000  0.034 -0.000
       0.000  0.000  0.031 -0.000  0.072
     ------------------------ ATOM    2 ------------------------
     Tr[ns(  2)] (up, down, total) =   1.20467  4.96513  6.16980
     Atomic magnetic moment for atom   2 =  -3.76046
     SPIN  1
     eigenvalues:
       0.023  0.027  0.081  0.088  0.986
     eigenvectors (columns):
      -0.000 -0.241  0.552 -0.000  0.798
      -0.000 -0.440 -0.795 -0.000  0.417
      -0.828 -0.000  0.000  0.561 -0.000
       0.000 -0.865  0.251 -0.000 -0.435
       0.561 -0.000 -0.000  0.828  0.000
     occupation matrix ns (before diag.):
       0.654  0.295 -0.000 -0.325  0.000
       0.295  0.228 -0.000 -0.185  0.000
      -0.000 -0.000  0.043  0.000  0.030
      -0.325 -0.185  0.000  0.212 -0.000
       0.000  0.000  0.030 -0.000  0.067
     SPIN  2
     eigenvalues:
       0.987  0.988  0.995  0.997  0.997
     eigenvectors (columns):
      -0.575 -0.000 -0.794  0.195 -0.000
       0.802 -0.000 -0.501  0.326 -0.000
       0.000  0.531 -0.000 -0.000 -0.847
      -0.161  0.000  0.344  0.925 -0.000
       0.000  0.847  0.000  0.000  0.531
     occupation matrix ns (before diag.):
       0.992  0.004 -0.000 -0.000  0.000
       0.004  0.990 -0.000  0.002  0.000
      -0.000 -0.000  0.995 -0.000 -0.004
      -0.000  0.002 -0.000  0.997 -0.000
       0.000  0.000 -0.004 -0.000  0.991

     Number of occupied Hubbard levels =   11.3677

     HUBBARD ENERGY =    0.1251  (Ry)

     total cpu time spent up to now is      395.0 secs

     total energy              =   -1035.27465825 Ry
     estimated scf accuracy    <       0.00003676 Ry

     total magnetization       =     1.00 Bohr mag/cell
     absolute magnetization    =     8.77 Bohr mag/cell

     iteration # 24     ecut=   120.00 Ry     beta= 0.70
     Davidson diagonalization with overlap

---- Real-time Memory Report at c_bands before calling an iterative solver
           270 MiB given to the printing process from OS
           235 MiB allocation reported by mallinfo(arena+hblkhd)
        661091 MiB available memory on the node where the printing process lives
------------------
     ethr =  2.49E-09,  avg # of iterations =  7.5

     =================== HUBBARD OCCUPATIONS ===================
     ------------------------ ATOM    1 ------------------------
     Tr[ns(  1)] (up, down, total) =   4.92460  0.27321  5.19781
     Atomic magnetic moment for atom   1 =   4.65139
     SPIN  1
     eigenvalues:
       0.970  0.972  0.994  0.995  0.995
     eigenvectors (columns):
       0.575 -0.000 -0.818  0.000 -0.011
      -0.790 -0.000 -0.552  0.000 -0.269
      -0.000  0.520 -0.000 -0.854 -0.000
       0.214  0.000  0.163  0.000 -0.963
      -0.000  0.854  0.000  0.520  0.000
     occupation matrix ns (before diag.):
       0.986  0.011 -0.000 -0.003  0.000
       0.011  0.979 -0.000  0.004  0.000
      -0.000 -0.000  0.988 -0.000 -0.010
      -0.003  0.004 -0.000  0.994 -0.000
       0.000  0.000 -0.010 -0.000  0.978
     SPIN  2
     eigenvalues:
       0.027  0.027  0.032  0.093  0.095
     eigenvectors (columns):
      -0.000  0.841  0.119 -0.000 -0.528
      -0.000  0.478  0.298  0.000  0.827
      -0.823 -0.000  0.000  0.568 -0.000
       0.000 -0.256  0.947 -0.000 -0.193
       0.568  0.000  0.000  0.823 -0.000
     occupation matrix ns (before diag.):
       0.046 -0.029  0.000  0.007  0.000
      -0.029  0.074 -0.000 -0.009  0.000
       0.000 -0.000  0.048 -0.000  0.031
       0.007 -0.009 -0.000  0.034 -0.000
       0.000  0.000  0.031 -0.000  0.072
     ------------------------ ATOM    2 ------------------------
     Tr[ns(  2)] (up, down, total) =   1.20507  4.96517  6.17024
     Atomic magnetic moment for atom   2 =  -3.76009
     SPIN  1
     eigenvalues:
       0.023  0.028  0.082  0.087  0.985
     eigenvectors (columns):
      -0.000  0.202  0.551 -0.000  0.810
      -0.000  0.422 -0.795  0.000  0.435
      -0.831  0.000  0.000  0.556 -0.000
       0.000  0.884  0.254 -0.000 -0.393
       0.556  0.000  0.000  0.831  0.000
     occupation matrix ns (before diag.):
       0.672  0.314 -0.000 -0.298  0.000
       0.314  0.243 -0.000 -0.175  0.000
      -0.000 -0.000  0.043  0.000  0.030
      -0.298 -0.175  0.000  0.180 -0.000
       0.000  0.000  0.030 -0.000  0.067
     SPIN  2
     eigenvalues:
       0.987  0.988  0.995  0.997  0.997
     eigenvectors (columns):
      -0.578 -0.000 -0.801  0.000  0.155
       0.800 -0.000 -0.519  0.000  0.301
       0.000  0.536 -0.000 -0.844  0.000
      -0.161  0.000  0.298  0.000  0.941
       0.000  0.844  0.000  0.536 -0.000
     occupation matrix ns (before diag.):
       0.992  0.004 -0.000 -0.000  0.000
       0.004  0.990 -0.000  0.002  0.000
      -0.000 -0.000  0.995 -0.000 -0.004
      -0.000  0.002 -0.000  0.997 -0.000
       0.000  0.000 -0.004 -0.000  0.991

     Number of occupied Hubbard levels =   11.3681

     HUBBARD ENERGY =    0.1223  (Ry)

     total cpu time spent up to now is      419.2 secs

     total energy              =   -1035.27550048 Ry
     estimated scf accuracy    <       0.00003677 Ry

     total magnetization       =     1.00 Bohr mag/cell
     absolute magnetization    =     8.77 Bohr mag/cell

     iteration # 25     ecut=   120.00 Ry     beta= 0.70
     Davidson diagonalization with overlap

---- Real-time Memory Report at c_bands before calling an iterative solver
           270 MiB given to the printing process from OS
           235 MiB allocation reported by mallinfo(arena+hblkhd)
        657737 MiB available memory on the node where the printing process lives
------------------
     ethr =  2.49E-09,  avg # of iterations =  5.8

     =================== HUBBARD OCCUPATIONS ===================
     ------------------------ ATOM    1 ------------------------
     Tr[ns(  1)] (up, down, total) =   4.92461  0.27323  5.19784
     Atomic magnetic moment for atom   1 =   4.65139
     SPIN  1
     eigenvalues:
       0.970  0.972  0.994  0.995  0.995
     eigenvectors (columns):
      -0.575 -0.000 -0.818  0.000  0.012
       0.790 -0.000 -0.552  0.000  0.269
       0.000  0.520 -0.000 -0.854  0.000
      -0.213  0.000  0.164  0.000  0.963
       0.000  0.854  0.000  0.520 -0.000
     occupation matrix ns (before diag.):
       0.986  0.011 -0.000 -0.003  0.000
       0.011  0.979 -0.000  0.004  0.000
      -0.000 -0.000  0.988 -0.000 -0.010
      -0.003  0.004 -0.000  0.994 -0.000
       0.000  0.000 -0.010 -0.000  0.978
     SPIN  2
     eigenvalues:
       0.027  0.027  0.032  0.093  0.095
     eigenvectors (columns):
      -0.000  0.841  0.119 -0.000 -0.528
      -0.000  0.477  0.298  0.000  0.827
      -0.823 -0.000  0.000  0.568 -0.000
       0.000 -0.256  0.947 -0.000 -0.194
       0.568  0.000  0.000  0.823 -0.000
     occupation matrix ns (before diag.):
       0.046 -0.029  0.000  0.007  0.000
      -0.029  0.074 -0.000 -0.009  0.000
       0.000 -0.000  0.048 -0.000  0.031
       0.007 -0.009 -0.000  0.034 -0.000
       0.000  0.000  0.031 -0.000  0.072
     ------------------------ ATOM    2 ------------------------
     Tr[ns(  2)] (up, down, total) =   1.20491  4.96516  6.17007
     Atomic magnetic moment for atom   2 =  -3.76024
     SPIN  1
     eigenvalues:
       0.023  0.028  0.081  0.088  0.986
     eigenvectors (columns):
       0.000  0.223  0.551  0.000  0.804
      -0.000  0.432 -0.795 -0.000  0.425
      -0.829  0.000  0.000  0.559 -0.000
       0.000  0.874  0.253 -0.000 -0.416
       0.559  0.000 -0.000  0.829  0.000
     occupation matrix ns (before diag.):
       0.664  0.304 -0.000 -0.313  0.000
       0.304  0.234 -0.000 -0.180  0.000
      -0.000 -0.000  0.043  0.000  0.030
      -0.313 -0.180  0.000  0.196 -0.000
       0.000  0.000  0.030 -0.000  0.067
     SPIN  2
     eigenvalues:
       0.987  0.988  0.995  0.997  0.997
     eigenvectors (columns):
      -0.577 -0.000 -0.797  0.000  0.175
       0.801 -0.000 -0.511  0.000  0.314
       0.000  0.533 -0.000 -0.846  0.000
      -0.161  0.000  0.322  0.000  0.933
       0.000  0.846  0.000  0.533 -0.000
     occupation matrix ns (before diag.):
       0.992  0.004 -0.000 -0.000  0.000
       0.004  0.990 -0.000  0.002  0.000
      -0.000 -0.000  0.995 -0.000 -0.004
      -0.000  0.002 -0.000  0.997 -0.000
       0.000  0.000 -0.004 -0.000  0.991

     Number of occupied Hubbard levels =   11.3679

     HUBBARD ENERGY =    0.1222  (Ry)

     total cpu time spent up to now is      439.9 secs

     total energy              =   -1035.27582759 Ry
     estimated scf accuracy    <       0.00000186 Ry

     total magnetization       =     1.00 Bohr mag/cell
     absolute magnetization    =     8.77 Bohr mag/cell

     iteration # 26     ecut=   120.00 Ry     beta= 0.70
     Davidson diagonalization with overlap

---- Real-time Memory Report at c_bands before calling an iterative solver
           270 MiB given to the printing process from OS
           235 MiB allocation reported by mallinfo(arena+hblkhd)
        659307 MiB available memory on the node where the printing process lives
------------------
     ethr =  1.74E-09,  avg # of iterations =  3.6

     =================== HUBBARD OCCUPATIONS ===================
     ------------------------ ATOM    1 ------------------------
     Tr[ns(  1)] (up, down, total) =   4.92462  0.27323  5.19785
     Atomic magnetic moment for atom   1 =   4.65138
     SPIN  1
     eigenvalues:
       0.970  0.972  0.994  0.995  0.995
     eigenvectors (columns):
       0.575 -0.000 -0.818  0.000 -0.012
      -0.790 -0.000 -0.552  0.000 -0.269
      -0.000  0.520 -0.000 -0.854 -0.000
       0.213  0.000  0.164  0.000 -0.963
      -0.000  0.854  0.000  0.520  0.000
     occupation matrix ns (before diag.):
       0.986  0.011 -0.000 -0.003  0.000
       0.011  0.979 -0.000  0.004  0.000
      -0.000 -0.000  0.988 -0.000 -0.010
      -0.003  0.004 -0.000  0.994 -0.000
       0.000  0.000 -0.010 -0.000  0.978
     SPIN  2
     eigenvalues:
       0.027  0.027  0.032  0.093  0.095
     eigenvectors (columns):
      -0.000  0.841  0.119 -0.000 -0.528
      -0.000  0.477  0.298  0.000  0.827
      -0.823 -0.000  0.000  0.568 -0.000
       0.000 -0.256  0.947 -0.000 -0.194
       0.568  0.000 -0.000  0.823 -0.000
     occupation matrix ns (before diag.):
       0.046 -0.029  0.000  0.007  0.000
      -0.029  0.074 -0.000 -0.009  0.000
       0.000 -0.000  0.048 -0.000  0.031
       0.007 -0.009 -0.000  0.034 -0.000
       0.000  0.000  0.031 -0.000  0.072
     ------------------------ ATOM    2 ------------------------
     Tr[ns(  2)] (up, down, total) =   1.20490  4.96516  6.17006
     Atomic magnetic moment for atom   2 =  -3.76025
     SPIN  1
     eigenvalues:
       0.023  0.028  0.081  0.088  0.986
     eigenvectors (columns):
       0.000  0.225  0.551 -0.000  0.804
      -0.000  0.433 -0.796 -0.000  0.423
      -0.829  0.000  0.000  0.559 -0.000
       0.000  0.873  0.253 -0.000 -0.418
       0.559  0.000  0.000  0.829  0.000
     occupation matrix ns (before diag.):
       0.663  0.302 -0.000 -0.314  0.000
       0.302  0.233 -0.000 -0.180  0.000
      -0.000 -0.000  0.043  0.000  0.030
      -0.314 -0.180  0.000  0.198 -0.000
       0.000  0.000  0.030 -0.000  0.067
     SPIN  2
     eigenvalues:
       0.987  0.988  0.995  0.997  0.997
     eigenvectors (columns):
      -0.577 -0.000 -0.797  0.000  0.178
       0.801 -0.000 -0.510  0.000  0.315
       0.000  0.533 -0.000 -0.846  0.000
      -0.161  0.000  0.324  0.000  0.932
       0.000  0.846  0.000  0.533 -0.000
     occupation matrix ns (before diag.):
       0.992  0.004 -0.000 -0.000  0.000
       0.004  0.990 -0.000  0.002  0.000
      -0.000 -0.000  0.995 -0.000 -0.004
      -0.000  0.002 -0.000  0.997 -0.000
       0.000  0.000 -0.004 -0.000  0.991

     Number of occupied Hubbard levels =   11.3679

     HUBBARD ENERGY =    0.1216  (Ry)

     total cpu time spent up to now is      454.1 secs

     total energy              =   -1035.27581165 Ry
     estimated scf accuracy    <       0.00000145 Ry

     total magnetization       =     1.00 Bohr mag/cell
     absolute magnetization    =     8.77 Bohr mag/cell

     iteration # 27     ecut=   120.00 Ry     beta= 0.70
     Davidson diagonalization with overlap

---- Real-time Memory Report at c_bands before calling an iterative solver
           270 MiB given to the printing process from OS
           235 MiB allocation reported by mallinfo(arena+hblkhd)
        656681 MiB available memory on the node where the printing process lives
------------------
     ethr =  1.35E-09,  avg # of iterations =  4.5

     =================== HUBBARD OCCUPATIONS ===================
     ------------------------ ATOM    1 ------------------------
     Tr[ns(  1)] (up, down, total) =   4.92462  0.27324  5.19786
     Atomic magnetic moment for atom   1 =   4.65138
     SPIN  1
     eigenvalues:
       0.970  0.972  0.994  0.995  0.995
     eigenvectors (columns):
      -0.575 -0.000 -0.818  0.000  0.012
       0.790 -0.000 -0.552  0.000  0.269
       0.000  0.520 -0.000 -0.854  0.000
      -0.213  0.000  0.164  0.000  0.963
       0.000  0.854  0.000  0.520 -0.000
     occupation matrix ns (before diag.):
       0.986  0.011 -0.000 -0.003  0.000
       0.011  0.979 -0.000  0.004  0.000
      -0.000 -0.000  0.988 -0.000 -0.010
      -0.003  0.004 -0.000  0.994 -0.000
       0.000  0.000 -0.010 -0.000  0.978
     SPIN  2
     eigenvalues:
       0.027  0.027  0.032  0.093  0.095
     eigenvectors (columns):
      -0.000  0.841  0.119  0.000 -0.528
      -0.000  0.477  0.298  0.000  0.827
      -0.823 -0.000  0.000  0.568 -0.000
       0.000 -0.256  0.947 -0.000 -0.194
       0.568  0.000  0.000  0.823 -0.000
     occupation matrix ns (before diag.):
       0.046 -0.029  0.000  0.007  0.000
      -0.029  0.074 -0.000 -0.009  0.000
       0.000 -0.000  0.048 -0.000  0.031
       0.007 -0.009 -0.000  0.034 -0.000
       0.000  0.000  0.031 -0.000  0.072
     ------------------------ ATOM    2 ------------------------
     Tr[ns(  2)] (up, down, total) =   1.20487  4.96516  6.17002
     Atomic magnetic moment for atom   2 =  -3.76029
     SPIN  1
     eigenvalues:
       0.023  0.028  0.081  0.088  0.986
     eigenvectors (columns):
       0.000  0.231  0.550 -0.000  0.802
       0.000  0.436 -0.796 -0.000  0.420
      -0.829  0.000  0.000  0.560 -0.000
       0.000  0.870  0.253 -0.000 -0.424
       0.560 -0.000 -0.000  0.829  0.000
     occupation matrix ns (before diag.):
       0.661  0.300 -0.000 -0.318  0.000
       0.300  0.231 -0.000 -0.181  0.000
      -0.000 -0.000  0.043  0.000  0.030
      -0.318 -0.181  0.000  0.203 -0.000
       0.000  0.000  0.030 -0.000  0.067
     SPIN  2
     eigenvalues:
       0.987  0.988  0.995  0.997  0.997
     eigenvectors (columns):
      -0.577 -0.000 -0.796  0.000  0.183
       0.801 -0.000 -0.507  0.000  0.319
       0.000  0.533 -0.000 -0.846  0.000
      -0.161  0.000  0.331  0.000  0.930
       0.000  0.846  0.000  0.533 -0.000
     occupation matrix ns (before diag.):
       0.992  0.004 -0.000 -0.000  0.000
       0.004  0.990 -0.000  0.002  0.000
      -0.000 -0.000  0.995 -0.000 -0.004
      -0.000  0.002 -0.000  0.997 -0.000
       0.000  0.000 -0.004 -0.000  0.991

     Number of occupied Hubbard levels =   11.3679

     HUBBARD ENERGY =    0.1216  (Ry)

     total cpu time spent up to now is      470.9 secs

     total energy              =   -1035.27583226 Ry
     estimated scf accuracy    <       0.00000006 Ry

     total magnetization       =     1.00 Bohr mag/cell
     absolute magnetization    =     8.77 Bohr mag/cell

     iteration # 28     ecut=   120.00 Ry     beta= 0.70
     Davidson diagonalization with overlap

---- Real-time Memory Report at c_bands before calling an iterative solver
           270 MiB given to the printing process from OS
           235 MiB allocation reported by mallinfo(arena+hblkhd)
        656197 MiB available memory on the node where the printing process lives
------------------
     ethr =  5.23E-11,  avg # of iterations =  6.8

     =================== HUBBARD OCCUPATIONS ===================
     ------------------------ ATOM    1 ------------------------
     Tr[ns(  1)] (up, down, total) =   4.92462  0.27324  5.19786
     Atomic magnetic moment for atom   1 =   4.65138
     SPIN  1
     eigenvalues:
       0.970  0.972  0.994  0.995  0.995
     eigenvectors (columns):
       0.575 -0.000 -0.818  0.000 -0.012
      -0.790 -0.000 -0.552  0.000 -0.269
      -0.000  0.520 -0.000 -0.854 -0.000
       0.213  0.000  0.164  0.000 -0.963
      -0.000  0.854  0.000  0.520  0.000
     occupation matrix ns (before diag.):
       0.986  0.011 -0.000 -0.003  0.000
       0.011  0.979 -0.000  0.004  0.000
      -0.000 -0.000  0.988 -0.000 -0.010
      -0.003  0.004 -0.000  0.994 -0.000
       0.000  0.000 -0.010 -0.000  0.978
     SPIN  2
     eigenvalues:
       0.027  0.027  0.032  0.093  0.095
     eigenvectors (columns):
      -0.000  0.841  0.120 -0.000 -0.528
      -0.000  0.477  0.298  0.000  0.827
      -0.823 -0.000  0.000  0.568 -0.000
       0.000 -0.256  0.947 -0.000 -0.194
       0.568  0.000  0.000  0.823 -0.000
     occupation matrix ns (before diag.):
       0.046 -0.029  0.000  0.007  0.000
      -0.029  0.074 -0.000 -0.009  0.000
       0.000 -0.000  0.048 -0.000  0.031
       0.007 -0.009 -0.000  0.034 -0.000
       0.000  0.000  0.031 -0.000  0.072
     ------------------------ ATOM    2 ------------------------
     Tr[ns(  2)] (up, down, total) =   1.20487  4.96516  6.17002
     Atomic magnetic moment for atom   2 =  -3.76029
     SPIN  1
     eigenvalues:
       0.023  0.028  0.081  0.088  0.986
     eigenvectors (columns):
       0.000  0.233  0.550 -0.000  0.802
       0.000  0.437 -0.796  0.000  0.419
      -0.829  0.000  0.000  0.560 -0.000
       0.000  0.869  0.253 -0.000 -0.426
       0.560 -0.000  0.000  0.829  0.000
     occupation matrix ns (before diag.):
       0.660  0.299 -0.000 -0.320  0.000
       0.299  0.230 -0.000 -0.182  0.000
      -0.000 -0.000  0.043  0.000  0.030
      -0.320 -0.182  0.000  0.205 -0.000
       0.000  0.000  0.030 -0.000  0.067
     SPIN  2
     eigenvalues:
       0.987  0.988  0.995  0.997  0.997
     eigenvectors (columns):
      -0.577 -0.000 -0.796  0.000  0.186
       0.801 -0.000 -0.506  0.000  0.320
       0.000  0.532 -0.000 -0.847  0.000
      -0.161  0.000  0.333  0.000  0.929
       0.000  0.847  0.000  0.532 -0.000
     occupation matrix ns (before diag.):
       0.992  0.004 -0.000 -0.000  0.000
       0.004  0.990 -0.000  0.002  0.000
      -0.000 -0.000  0.995 -0.000 -0.004
      -0.000  0.002 -0.000  0.997 -0.000
       0.000  0.000 -0.004 -0.000  0.991

     Number of occupied Hubbard levels =   11.3679

     HUBBARD ENERGY =    0.1216  (Ry)

     total cpu time spent up to now is      492.2 secs

     total energy              =   -1035.27583458 Ry
     estimated scf accuracy    <       0.00000004 Ry

     total magnetization       =     1.00 Bohr mag/cell
     absolute magnetization    =     8.77 Bohr mag/cell

     iteration # 29     ecut=   120.00 Ry     beta= 0.70
     Davidson diagonalization with overlap

---- Real-time Memory Report at c_bands before calling an iterative solver
           270 MiB given to the printing process from OS
           235 MiB allocation reported by mallinfo(arena+hblkhd)
        659057 MiB available memory on the node where the printing process lives
------------------
     ethr =  3.71E-11,  avg # of iterations =  4.6

     =================== HUBBARD OCCUPATIONS ===================
     ------------------------ ATOM    1 ------------------------
     Tr[ns(  1)] (up, down, total) =   4.92462  0.27324  5.19786
     Atomic magnetic moment for atom   1 =   4.65138
     SPIN  1
     eigenvalues:
       0.970  0.972  0.994  0.995  0.995
     eigenvectors (columns):
       0.575 -0.000 -0.818  0.000 -0.012
      -0.790 -0.000 -0.552  0.000 -0.269
      -0.000  0.520 -0.000 -0.854 -0.000
       0.213  0.000  0.164  0.000 -0.963
      -0.000  0.854  0.000  0.520  0.000
     occupation matrix ns (before diag.):
       0.986  0.011 -0.000 -0.003  0.000
       0.011  0.979 -0.000  0.004  0.000
      -0.000 -0.000  0.988 -0.000 -0.010
      -0.003  0.004 -0.000  0.994 -0.000
       0.000  0.000 -0.010 -0.000  0.978
     SPIN  2
     eigenvalues:
       0.027  0.027  0.032  0.093  0.095
     eigenvectors (columns):
      -0.000  0.841  0.120 -0.000 -0.528
      -0.000  0.477  0.298  0.000  0.827
      -0.823 -0.000  0.000  0.568 -0.000
       0.000 -0.256  0.947 -0.000 -0.194
       0.568  0.000 -0.000  0.823 -0.000
     occupation matrix ns (before diag.):
       0.046 -0.029  0.000  0.007  0.000
      -0.029  0.074 -0.000 -0.009  0.000
       0.000 -0.000  0.048 -0.000  0.031
       0.007 -0.009 -0.000  0.034 -0.000
       0.000  0.000  0.031 -0.000  0.072
     ------------------------ ATOM    2 ------------------------
     Tr[ns(  2)] (up, down, total) =   1.20486  4.96516  6.17002
     Atomic magnetic moment for atom   2 =  -3.76029
     SPIN  1
     eigenvalues:
       0.023  0.028  0.081  0.088  0.986
     eigenvectors (columns):
       0.000  0.234  0.550 -0.000  0.802
       0.000  0.438 -0.796 -0.000  0.419
       0.828  0.000  0.000  0.560 -0.000
      -0.000  0.868  0.253 -0.000 -0.427
      -0.560  0.000  0.000  0.828  0.000
     occupation matrix ns (before diag.):
       0.659  0.298 -0.000 -0.320  0.000
       0.298  0.230 -0.000 -0.182  0.000
      -0.000 -0.000  0.043  0.000  0.030
      -0.320 -0.182  0.000  0.206 -0.000
       0.000  0.000  0.030 -0.000  0.067
     SPIN  2
     eigenvalues:
       0.987  0.988  0.995  0.997  0.997
     eigenvectors (columns):
      -0.577 -0.000 -0.795  0.187 -0.000
       0.801 -0.000 -0.506  0.321 -0.000
       0.000  0.532 -0.000 -0.000 -0.847
      -0.161  0.000  0.334  0.929 -0.000
       0.000  0.847  0.000  0.000  0.532
     occupation matrix ns (before diag.):
       0.992  0.004 -0.000 -0.000  0.000
       0.004  0.990 -0.000  0.002  0.000
      -0.000 -0.000  0.995 -0.000 -0.004
      -0.000  0.002 -0.000  0.997 -0.000
       0.000  0.000 -0.004 -0.000  0.991

     Number of occupied Hubbard levels =   11.3679

     HUBBARD ENERGY =    0.1215  (Ry)

     total cpu time spent up to now is      509.4 secs

     total energy              =   -1035.27583452 Ry
     estimated scf accuracy    <       0.00000003 Ry

     total magnetization       =     1.00 Bohr mag/cell
     absolute magnetization    =     8.77 Bohr mag/cell

     iteration # 30     ecut=   120.00 Ry     beta= 0.70
     Davidson diagonalization with overlap

---- Real-time Memory Report at c_bands before calling an iterative solver
           270 MiB given to the printing process from OS
           235 MiB allocation reported by mallinfo(arena+hblkhd)
        655712 MiB available memory on the node where the printing process lives
------------------
     ethr =  2.97E-11,  avg # of iterations =  4.8

     =================== HUBBARD OCCUPATIONS ===================
     ------------------------ ATOM    1 ------------------------
     Tr[ns(  1)] (up, down, total) =   4.92462  0.27324  5.19787
     Atomic magnetic moment for atom   1 =   4.65138
     SPIN  1
     eigenvalues:
       0.970  0.972  0.994  0.995  0.995
     eigenvectors (columns):
       0.575 -0.000 -0.818  0.000 -0.012
      -0.790 -0.000 -0.552  0.000 -0.269
      -0.000  0.520 -0.000 -0.854 -0.000
       0.213  0.000  0.164  0.000 -0.963
      -0.000  0.854  0.000  0.520  0.000
     occupation matrix ns (before diag.):
       0.986  0.011 -0.000 -0.003  0.000
       0.011  0.979 -0.000  0.004  0.000
      -0.000 -0.000  0.988 -0.000 -0.010
      -0.003  0.004 -0.000  0.994 -0.000
       0.000  0.000 -0.010 -0.000  0.978
     SPIN  2
     eigenvalues:
       0.027  0.027  0.032  0.093  0.095
     eigenvectors (columns):
      -0.000  0.841  0.120  0.000 -0.528
      -0.000  0.477  0.298  0.000  0.827
      -0.823 -0.000  0.000  0.568 -0.000
       0.000 -0.256  0.947 -0.000 -0.194
       0.568  0.000  0.000  0.823 -0.000
     occupation matrix ns (before diag.):
       0.046 -0.029  0.000  0.007  0.000
      -0.029  0.074 -0.000 -0.009  0.000
       0.000 -0.000  0.048 -0.000  0.031
       0.007 -0.009 -0.000  0.034 -0.000
       0.000  0.000  0.031 -0.000  0.072
     ------------------------ ATOM    2 ------------------------
     Tr[ns(  2)] (up, down, total) =   1.20486  4.96516  6.17002
     Atomic magnetic moment for atom   2 =  -3.76030
     SPIN  1
     eigenvalues:
       0.023  0.027  0.081  0.088  0.986
     eigenvectors (columns):
      -0.000  0.235  0.550 -0.000  0.801
      -0.000  0.438 -0.796 -0.000  0.418
      -0.828  0.000  0.000  0.560 -0.000
       0.000  0.868  0.253 -0.000 -0.428
       0.560  0.000 -0.000  0.828  0.000
     occupation matrix ns (before diag.):
       0.659  0.297 -0.000 -0.321  0.000
       0.297  0.229 -0.000 -0.182  0.000
      -0.000 -0.000  0.043  0.000  0.030
      -0.321 -0.182  0.000  0.206 -0.000
       0.000  0.000  0.030 -0.000  0.067
     SPIN  2
     eigenvalues:
       0.987  0.988  0.995  0.997  0.997
     eigenvectors (columns):
      -0.577 -0.000 -0.795  0.188 -0.000
       0.801 -0.000 -0.505  0.321 -0.000
       0.000  0.532 -0.000 -0.000 -0.847
      -0.161  0.000  0.336  0.928 -0.000
       0.000  0.847  0.000  0.000  0.532
     occupation matrix ns (before diag.):
       0.992  0.004 -0.000 -0.000  0.000
       0.004  0.990 -0.000  0.002  0.000
      -0.000 -0.000  0.995 -0.000 -0.004
      -0.000  0.002 -0.000  0.997 -0.000
       0.000  0.000 -0.004 -0.000  0.991

     Number of occupied Hubbard levels =   11.3679

     HUBBARD ENERGY =    0.1215  (Ry)
 
     Magnetic moment per site  (integrated on atomic sphere of radius R)
     atom   1 (R=0.183)  charge= 12.1796  magn=  4.0480
     atom   2 (R=0.183)  charge= 13.2371  magn= -3.4233
     atom   3 (R=0.158)  charge=  7.5350  magn=  0.0061
     atom   4 (R=0.158)  charge=  7.5354  magn=  0.0282
     atom   5 (R=0.158)  charge=  4.9407  magn= -0.0032
     atom   6 (R=0.158)  charge=  4.9407  magn= -0.0032
     atom   7 (R=0.158)  charge=  4.9454  magn=  0.0004
     atom   8 (R=0.158)  charge=  4.9454  magn=  0.0004
     atom   9 (R=0.158)  charge=  4.9526  magn=  0.0061
     atom  10 (R=0.158)  charge=  4.9526  magn=  0.0061
     atom  11 (R=0.158)  charge=  4.9488  magn= -0.0042
     atom  12 (R=0.158)  charge=  4.9488  magn= -0.0042

     total cpu time spent up to now is      527.0 secs

     End of self-consistent calculation

 ------ SPIN UP ------------


          k = 0.0833 0.0678 0.0780 ( 18955 PWs)   bands (ev):

   -72.7748 -68.2736 -63.6723 -63.6280 -39.3140 -38.7335 -38.6658 -37.3401
   -37.3301 -37.3087 -28.2086 -28.1399 -28.1287 -28.0460 -28.0070 -27.9574
    -8.2546  -7.0004  -6.7969  -6.6601  -6.4629  -6.3482  -6.0867  -5.8519
     3.8471   4.0356   4.3704   4.4721   4.7422   5.1938   5.4401   5.7406
     6.0246   6.4754   6.5846   6.8770   7.0161   7.2026   7.4486   7.7424
     7.9489   8.1802   8.4370   8.4996   8.5666   8.9204   9.0027   9.1662
     9.4176   9.6206   9.7873   9.9133  10.5893  10.9568  13.9133  14.1758
    14.3836  14.7259  15.1933  15.4303  16.4606  16.5125  17.0363  17.3524
    17.8955

     occupation numbers 
     1.0000   1.0000   1.0000   1.0000   1.0000   1.0000   1.0000   1.0000
     1.0000   1.0000   1.0000   1.0000   1.0000   1.0000   1.0000   1.0000
     1.0000   1.0000   1.0000   1.0000   1.0000   1.0000   1.0000   1.0000
     1.0000   1.0000   1.0000   1.0000   1.0000   1.0000   1.0000   1.0000
     1.0000   1.0000   1.0000   1.0000   1.0000   1.0000   1.0000   1.0000
     1.0000   1.0000   1.0000   1.0000   1.0000   1.0000   1.0000   1.0000
     1.0000   1.0000   1.0000   1.0000   1.0000   1.0000   0.0000   0.0000
     0.0000   0.0000   0.0000   0.0000   0.0000   0.0000   0.0000   0.0000
     0.0000

          k = 0.0833 0.0678 0.2323 ( 18941 PWs)   bands (ev):

   -72.7749 -68.2735 -63.6721 -63.6282 -39.3140 -38.7335 -38.6658 -37.3401
   -37.3300 -37.3087 -28.2048 -28.1557 -28.1186 -28.0627 -27.9905 -27.9565
    -8.0509  -7.0182  -6.9428  -6.8127  -6.3537  -6.2911  -6.1168  -5.9047
     4.0673   4.1354   4.4362   4.5709   4.7434   4.8243   5.1685   5.7117
     6.0987   6.4141   6.6202   7.0154   7.1973   7.3140   7.4281   7.6755
     7.8597   8.1056   8.1762   8.3687   8.6824   8.7953   9.0291   9.1960
     9.4577   9.5931   9.7439   9.9727  10.7873  11.1025  14.0889  14.1610
    14.3892  14.6833  15.0506  15.2583  16.4923  16.5215  17.1822  17.6839
    17.8490

     occupation numbers 
     1.0000   1.0000   1.0000   1.0000   1.0000   1.0000   1.0000   1.0000
     1.0000   1.0000   1.0000   1.0000   1.0000   1.0000   1.0000   1.0000
     1.0000   1.0000   1.0000   1.0000   1.0000   1.0000   1.0000   1.0000
     1.0000   1.0000   1.0000   1.0000   1.0000   1.0000   1.0000   1.0000
     1.0000   1.0000   1.0000   1.0000   1.0000   1.0000   1.0000   1.0000
     1.0000   1.0000   1.0000   1.0000   1.0000   1.0000   1.0000   1.0000
     1.0000   1.0000   1.0000   1.0000   1.0000   1.0000   0.0000   0.0000
     0.0000   0.0000   0.0000   0.0000   0.0000   0.0000   0.0000   0.0000
     0.0000

          k = 0.0833 0.0678 0.3865 ( 18966 PWs)   bands (ev):

   -72.7749 -68.2735 -63.6718 -63.6285 -39.3140 -38.7335 -38.6658 -37.3402
   -37.3300 -37.3088 -28.1968 -28.1724 -28.1084 -28.0780 -27.9770 -27.9571
    -7.6888  -7.2821  -7.0014  -6.9111  -6.3478  -6.2499  -6.0728  -5.9704
     4.0431   4.1425   4.4492   4.6157   4.8719   5.1216   5.3130   5.5168
     5.9473   6.3610   6.4355   6.8982   7.1152   7.3184   7.5665   7.6854
     7.8270   7.9445   8.1540   8.3890   8.5505   8.8193   9.0410   9.1996
     9.4913   9.5897   9.8003  10.0307  10.9157  11.1999  14.1935  14.3126
    14.4239  14.5975  14.8681  14.9634  16.5085  16.5626  17.0058  17.8050
    18.2253

     occupation numbers 
     1.0000   1.0000   1.0000   1.0000   1.0000   1.0000   1.0000   1.0000
     1.0000   1.0000   1.0000   1.0000   1.0000   1.0000   1.0000   1.0000
     1.0000   1.0000   1.0000   1.0000   1.0000   1.0000   1.0000   1.0000
     1.0000   1.0000   1.0000   1.0000   1.0000   1.0000   1.0000   1.0000
     1.0000   1.0000   1.0000   1.0000   1.0000   1.0000   1.0000   1.0000
     1.0000   1.0000   1.0000   1.0000   1.0000   1.0000   1.0000   1.0000
     1.0000   1.0000   1.0000   1.0000   1.0000   1.0000   0.0000   0.0000
     0.0000   0.0000   0.0000   0.0000   0.0000   0.0000   0.0000   0.0000
     0.0000

          k = 0.0834 0.0678-0.3847 ( 18949 PWs)   bands (ev):

   -72.7749 -68.2735 -63.6719 -63.6284 -39.3140 -38.7335 -38.6658 -37.3402
   -37.3300 -37.3087 -28.1968 -28.1724 -28.1083 -28.0781 -27.9769 -27.9572
    -7.7042  -7.2540  -6.9964  -6.8865  -6.3799  -6.2875  -6.0675  -5.9550
     3.9774   4.1455   4.4323   4.6283   4.9199   5.2795   5.4316   5.6042
     5.7533   6.1973   6.5846   6.8218   7.0849   7.2781   7.4508   7.7287
     7.8390   7.9754   8.2033   8.4401   8.6915   8.7335   9.0016   9.1732
     9.3716   9.6612   9.7259  10.0889  10.9830  11.1193  14.1373  14.3859
    14.4546  14.5409  14.7772  14.9737  16.5161  16.5772  16.9587  17.8475
    18.2644

     occupation numbers 
     1.0000   1.0000   1.0000   1.0000   1.0000   1.0000   1.0000   1.0000
     1.0000   1.0000   1.0000   1.0000   1.0000   1.0000   1.0000   1.0000
     1.0000   1.0000   1.0000   1.0000   1.0000   1.0000   1.0000   1.0000
     1.0000   1.0000   1.0000   1.0000   1.0000   1.0000   1.0000   1.0000
     1.0000   1.0000   1.0000   1.0000   1.0000   1.0000   1.0000   1.0000
     1.0000   1.0000   1.0000   1.0000   1.0000   1.0000   1.0000   1.0000
     1.0000   1.0000   1.0000   1.0000   1.0000   1.0000   0.0000   0.0000
     0.0000   0.0000   0.0000   0.0000   0.0000   0.0000   0.0000   0.0000
     0.0000

          k = 0.0834 0.0678-0.2305 ( 18942 PWs)   bands (ev):

   -72.7749 -68.2735 -63.6721 -63.6282 -39.3140 -38.7335 -38.6658 -37.3401
   -37.3300 -37.3087 -28.2046 -28.1558 -28.1185 -28.0629 -27.9903 -27.9566
    -8.0596  -7.0017  -6.8849  -6.7576  -6.4424  -6.3772  -6.1074  -5.8732
     3.9555   4.0296   4.4687   4.7291   4.7860   5.0028   5.2613   5.8930
     6.0523   6.2197   6.5236   6.9338   7.1061   7.2746   7.5065   7.6298
     7.8678   8.1012   8.3395   8.4172   8.6712   8.7643   8.9122   9.1927
     9.4024   9.6019   9.7285  10.0217  10.8118  11.0333  14.0470  14.1712
    14.4112  14.5771  15.0190  15.2148  16.4828  16.5725  17.0815  17.6782
    17.9310

     occupation numbers 
     1.0000   1.0000   1.0000   1.0000   1.0000   1.0000   1.0000   1.0000
     1.0000   1.0000   1.0000   1.0000   1.0000   1.0000   1.0000   1.0000
     1.0000   1.0000   1.0000   1.0000   1.0000   1.0000   1.0000   1.0000
     1.0000   1.0000   1.0000   1.0000   1.0000   1.0000   1.0000   1.0000
     1.0000   1.0000   1.0000   1.0000   1.0000   1.0000   1.0000   1.0000
     1.0000   1.0000   1.0000   1.0000   1.0000   1.0000   1.0000   1.0000
     1.0000   1.0000   1.0000   1.0000   1.0000   1.0000   0.0000   0.0000
     0.0000   0.0000   0.0000   0.0000   0.0000   0.0000   0.0000   0.0000
     0.0000

          k = 0.0833 0.0678-0.0762 ( 18946 PWs)   bands (ev):

   -72.7748 -68.2736 -63.6724 -63.6279 -39.3140 -38.7335 -38.6658 -37.3401
   -37.3301 -37.3087 -28.2085 -28.1401 -28.1285 -28.0461 -28.0069 -27.9574
    -8.2575  -6.9970  -6.7069  -6.6394  -6.5431  -6.4046  -6.0846  -5.8349
     3.7939   4.0266   4.3160   4.5232   4.8867   5.2250   5.5700   5.6765
     6.0962   6.2655   6.5734   6.8682   6.9942   7.2498   7.4663   7.7175
     7.9392   8.1593   8.4333   8.5013   8.6158   8.8301   8.9599   9.2968
     9.3840   9.5456   9.8200   9.9668  10.5316  10.9630  13.9115  14.1989
    14.3211  14.6869  15.1925  15.4015  16.4515  16.5449  17.0592  17.2969
    17.9501

     occupation numbers 
     1.0000   1.0000   1.0000   1.0000   1.0000   1.0000   1.0000   1.0000
     1.0000   1.0000   1.0000   1.0000   1.0000   1.0000   1.0000   1.0000
     1.0000   1.0000   1.0000   1.0000   1.0000   1.0000   1.0000   1.0000
     1.0000   1.0000   1.0000   1.0000   1.0000   1.0000   1.0000   1.0000
     1.0000   1.0000   1.0000   1.0000   1.0000   1.0000   1.0000   1.0000
     1.0000   1.0000   1.0000   1.0000   1.0000   1.0000   1.0000   1.0000
     1.0000   1.0000   1.0000   1.0000   1.0000   1.0000   0.0000   0.0000
     0.0000   0.0000   0.0000   0.0000   0.0000   0.0000   0.0000   0.0000
     0.0000

          k = 0.0833 0.2035 0.0780 ( 18958 PWs)   bands (ev):

   -72.7748 -68.2736 -63.6724 -63.6279 -39.3140 -38.7335 -38.6658 -37.3401
   -37.3301 -37.3087 -28.2081 -28.1394 -28.1277 -28.0465 -28.0085 -27.9578
    -8.1512  -7.0743  -6.8962  -6.6128  -6.5192  -6.3317  -6.0864  -5.8162
     3.9948   4.1736   4.4424   4.5438   4.7312   5.1791   5.4877   5.7179
     5.9569   6.2632   6.3786   6.7398   7.0415   7.2457   7.5193   7.7293
     7.9594   8.2337   8.3794   8.5032   8.6009   8.7813   8.9070   9.2633
     9.4092   9.5724   9.6819   9.8958  10.7555  11.0180  13.8943  14.1056
    14.4508  14.8477  15.1585  15.3661  16.4726  16.5522  17.3175  17.5224
    17.9559

     occupation numbers 
     1.0000   1.0000   1.0000   1.0000   1.0000   1.0000   1.0000   1.0000
     1.0000   1.0000   1.0000   1.0000   1.0000   1.0000   1.0000   1.0000
     1.0000   1.0000   1.0000   1.0000   1.0000   1.0000   1.0000   1.0000
     1.0000   1.0000   1.0000   1.0000   1.0000   1.0000   1.0000   1.0000
     1.0000   1.0000   1.0000   1.0000   1.0000   1.0000   1.0000   1.0000
     1.0000   1.0000   1.0000   1.0000   1.0000   1.0000   1.0000   1.0000
     1.0000   1.0000   1.0000   1.0000   1.0000   1.0000   0.0000   0.0000
     0.0000   0.0000   0.0000   0.0000   0.0000   0.0000   0.0000   0.0000
     0.0000

          k = 0.0833 0.2035 0.2323 ( 18968 PWs)   bands (ev):

   -72.7749 -68.2735 -63.6721 -63.6282 -39.3140 -38.7335 -38.6658 -37.3401
   -37.3300 -37.3087 -28.2050 -28.1561 -28.1180 -28.0632 -27.9907 -27.9561
    -7.9643  -7.1272  -6.9606  -6.7124  -6.4077  -6.2905  -6.1943  -5.8619
     4.1284   4.1712   4.4432   4.6894   4.7821   4.9706   5.3532   5.7223
     6.0615   6.3028   6.4885   6.7453   6.9730   7.2979   7.4261   7.6592
     7.9072   8.1270   8.2190   8.3997   8.6810   8.8134   8.9788   9.1975
     9.2951   9.5428   9.6843  10.0026  10.9144  11.1549  13.9700  14.2249
    14.4891  14.7580  15.0494  15.1978  16.5174  16.5739  17.2028  17.8567
    17.9988

     occupation numbers 
     1.0000   1.0000   1.0000   1.0000   1.0000   1.0000   1.0000   1.0000
     1.0000   1.0000   1.0000   1.0000   1.0000   1.0000   1.0000   1.0000
     1.0000   1.0000   1.0000   1.0000   1.0000   1.0000   1.0000   1.0000
     1.0000   1.0000   1.0000   1.0000   1.0000   1.0000   1.0000   1.0000
     1.0000   1.0000   1.0000   1.0000   1.0000   1.0000   1.0000   1.0000
     1.0000   1.0000   1.0000   1.0000   1.0000   1.0000   1.0000   1.0000
     1.0000   1.0000   1.0000   1.0000   1.0000   1.0000   0.0000   0.0000
     0.0000   0.0000   0.0000   0.0000   0.0000   0.0000   0.0000   0.0000
     0.0000

          k = 0.0833 0.2035 0.3865 ( 18948 PWs)   bands (ev):

   -72.7749 -68.2734 -63.6718 -63.6284 -39.3140 -38.7335 -38.6658 -37.3402
   -37.3300 -37.3088 -28.1977 -28.1737 -28.1084 -28.0778 -27.9761 -27.9562
    -7.6405  -7.3115  -6.9565  -6.8567  -6.3966  -6.3377  -6.0973  -5.9574
     4.1009   4.2640   4.4008   4.5283   4.9708   5.3170   5.5332   5.5934
     6.1326   6.1953   6.3763   6.7597   6.9058   7.1005   7.3659   7.6533
     7.7959   8.0456   8.1317   8.4197   8.5946   8.7586   8.9946   9.2147
     9.3788   9.5620   9.7530  10.0639  10.9911  11.2596  14.0857  14.3196
    14.4965  14.7142  14.8961  14.9590  16.5228  16.6347  17.0405  17.8061
    18.3030

     occupation numbers 
     1.0000   1.0000   1.0000   1.0000   1.0000   1.0000   1.0000   1.0000
     1.0000   1.0000   1.0000   1.0000   1.0000   1.0000   1.0000   1.0000
     1.0000   1.0000   1.0000   1.0000   1.0000   1.0000   1.0000   1.0000
     1.0000   1.0000   1.0000   1.0000   1.0000   1.0000   1.0000   1.0000
     1.0000   1.0000   1.0000   1.0000   1.0000   1.0000   1.0000   1.0000
     1.0000   1.0000   1.0000   1.0000   1.0000   1.0000   1.0000   1.0000
     1.0000   1.0000   1.0000   1.0000   1.0000   1.0000   0.0000   0.0000
     0.0000   0.0000   0.0000   0.0000   0.0000   0.0000   0.0000   0.0000
     0.0000

          k = 0.0834 0.2035-0.3847 ( 18957 PWs)   bands (ev):

   -72.7749 -68.2734 -63.6719 -63.6284 -39.3140 -38.7335 -38.6658 -37.3402
   -37.3300 -37.3087 -28.1976 -28.1737 -28.1083 -28.0780 -27.9760 -27.9563
    -7.6488  -7.2820  -6.9783  -6.8165  -6.4704  -6.2925  -6.1477  -5.9239
     4.0917   4.2772   4.3245   4.6648   4.9680   5.3753   5.4904   5.7079
     5.9239   6.2506   6.4306   6.7084   6.7853   7.1839   7.3983   7.7092
     7.7787   7.9035   8.1222   8.5527   8.6246   8.7446   8.9643   9.2311
     9.2957   9.5714   9.7727  10.1114  10.9896  11.1915  14.0350  14.3591
    14.4901  14.7085  14.8220  14.9550  16.5305  16.6313  16.9869  17.8567
    18.3933

     occupation numbers 
     1.0000   1.0000   1.0000   1.0000   1.0000   1.0000   1.0000   1.0000
     1.0000   1.0000   1.0000   1.0000   1.0000   1.0000   1.0000   1.0000
     1.0000   1.0000   1.0000   1.0000   1.0000   1.0000   1.0000   1.0000
     1.0000   1.0000   1.0000   1.0000   1.0000   1.0000   1.0000   1.0000
     1.0000   1.0000   1.0000   1.0000   1.0000   1.0000   1.0000   1.0000
     1.0000   1.0000   1.0000   1.0000   1.0000   1.0000   1.0000   1.0000
     1.0000   1.0000   1.0000   1.0000   1.0000   1.0000   0.0000   0.0000
     0.0000   0.0000   0.0000   0.0000   0.0000   0.0000   0.0000   0.0000
     0.0000

          k = 0.0834 0.2035-0.2305 ( 18959 PWs)   bands (ev):

   -72.7749 -68.2735 -63.6721 -63.6281 -39.3140 -38.7335 -38.6658 -37.3401
   -37.3300 -37.3087 -28.2049 -28.1561 -28.1178 -28.0634 -27.9905 -27.9561
    -7.9683  -7.0717  -6.9540  -6.6680  -6.5075  -6.3684  -6.1566  -5.8361
     4.0886   4.1641   4.4330   4.7045   4.9153   5.0851   5.4154   5.7821
     5.9448   6.1803   6.4287   6.6997   7.0295   7.2256   7.5618   7.6564
     7.7847   8.0817   8.3240   8.4610   8.6685   8.7981   8.8500   9.2204
     9.3377   9.5392   9.7332  10.0810  10.8167  11.0828  13.9267  14.2305
    14.4618  14.7194  14.9828  15.1660  16.4864  16.6168  17.0850  17.9134
    18.1690

     occupation numbers 
     1.0000   1.0000   1.0000   1.0000   1.0000   1.0000   1.0000   1.0000
     1.0000   1.0000   1.0000   1.0000   1.0000   1.0000   1.0000   1.0000
     1.0000   1.0000   1.0000   1.0000   1.0000   1.0000   1.0000   1.0000
     1.0000   1.0000   1.0000   1.0000   1.0000   1.0000   1.0000   1.0000
     1.0000   1.0000   1.0000   1.0000   1.0000   1.0000   1.0000   1.0000
     1.0000   1.0000   1.0000   1.0000   1.0000   1.0000   1.0000   1.0000
     1.0000   1.0000   1.0000   1.0000   1.0000   1.0000   0.0000   0.0000
     0.0000   0.0000   0.0000   0.0000   0.0000   0.0000   0.0000   0.0000
     0.0000

          k = 0.0833 0.2035-0.0762 ( 18948 PWs)   bands (ev):

   -72.7748 -68.2736 -63.6724 -63.6279 -39.3140 -38.7335 -38.6658 -37.3401
   -37.3301 -37.3087 -28.2080 -28.1395 -28.1275 -28.0466 -28.0084 -27.9578
    -8.1525  -7.0671  -6.8197  -6.6584  -6.5556  -6.3600  -6.0770  -5.8034
     3.9624   4.1803   4.4322   4.5824   4.7680   5.2636   5.4880   5.7188
     5.9445   6.2534   6.4041   6.5802   7.0730   7.2327   7.5538   7.7555
     7.9190   8.2530   8.3951   8.5237   8.6063   8.6929   8.8663   9.3282
     9.3970   9.5674   9.7248   9.9621  10.6423  11.0151  13.8847  14.1248
    14.3849  14.8466  15.1356  15.3414  16.4461  16.5857  17.2456  17.5821
    18.0099

     occupation numbers 
     1.0000   1.0000   1.0000   1.0000   1.0000   1.0000   1.0000   1.0000
     1.0000   1.0000   1.0000   1.0000   1.0000   1.0000   1.0000   1.0000
     1.0000   1.0000   1.0000   1.0000   1.0000   1.0000   1.0000   1.0000
     1.0000   1.0000   1.0000   1.0000   1.0000   1.0000   1.0000   1.0000
     1.0000   1.0000   1.0000   1.0000   1.0000   1.0000   1.0000   1.0000
     1.0000   1.0000   1.0000   1.0000   1.0000   1.0000   1.0000   1.0000
     1.0000   1.0000   1.0000   1.0000   1.0000   1.0000   0.0000   0.0000
     0.0000   0.0000   0.0000   0.0000   0.0000   0.0000   0.0000   0.0000
     0.0000

          k = 0.0833 0.3392 0.0780 ( 18936 PWs)   bands (ev):

   -72.7748 -68.2736 -63.6724 -63.6279 -39.3140 -38.7335 -38.6659 -37.3401
   -37.3301 -37.3087 -28.2076 -28.1389 -28.1266 -28.0470 -28.0100 -27.9582
    -8.0109  -7.2608  -6.8832  -6.5971  -6.5494  -6.3442  -6.0851  -5.7834
     4.2003   4.3266   4.4743   4.6352   4.7724   5.1910   5.4040   5.5688
     5.7770   6.1740   6.3858   6.7737   6.9687   7.2709   7.5373   7.6837
     8.0205   8.1249   8.3261   8.3763   8.6529   8.6974   8.9082   9.2239
     9.4837   9.5505   9.6373   9.8859  10.8946  11.0785  13.7656  14.2215
    14.5354  14.8945  15.1529  15.2589  16.4767  16.6002  17.3199  17.9331
    18.2174

     occupation numbers 
     1.0000   1.0000   1.0000   1.0000   1.0000   1.0000   1.0000   1.0000
     1.0000   1.0000   1.0000   1.0000   1.0000   1.0000   1.0000   1.0000
     1.0000   1.0000   1.0000   1.0000   1.0000   1.0000   1.0000   1.0000
     1.0000   1.0000   1.0000   1.0000   1.0000   1.0000   1.0000   1.0000
     1.0000   1.0000   1.0000   1.0000   1.0000   1.0000   1.0000   1.0000
     1.0000   1.0000   1.0000   1.0000   1.0000   1.0000   1.0000   1.0000
     1.0000   1.0000   1.0000   1.0000   1.0000   1.0000   0.0000   0.0000
     0.0000   0.0000   0.0000   0.0000   0.0000   0.0000   0.0000   0.0000
     0.0000

          k = 0.0833 0.3392 0.2323 ( 18967 PWs)   bands (ev):

   -72.7749 -68.2735 -63.6721 -63.6281 -39.3140 -38.7335 -38.6658 -37.3401
   -37.3300 -37.3087 -28.2052 -28.1565 -28.1173 -28.0636 -27.9908 -27.9557
    -7.8483  -7.2753  -6.9238  -6.6397  -6.4478  -6.3592  -6.2207  -5.8319
     4.1211   4.2458   4.4801   4.7150   5.0162   5.1628   5.4636   5.8310
     5.9251   6.1395   6.3189   6.6537   6.8127   7.0694   7.4222   7.6948
     7.8942   8.1491   8.3184   8.4086   8.5595   8.6981   9.0827   9.1376
     9.2694   9.4871   9.6661  10.0314  11.0088  11.1946  13.8717  14.3058
    14.6498  14.8017  14.9632  15.1568  16.5534  16.6099  17.2359  17.8469
    18.2874

     occupation numbers 
     1.0000   1.0000   1.0000   1.0000   1.0000   1.0000   1.0000   1.0000
     1.0000   1.0000   1.0000   1.0000   1.0000   1.0000   1.0000   1.0000
     1.0000   1.0000   1.0000   1.0000   1.0000   1.0000   1.0000   1.0000
     1.0000   1.0000   1.0000   1.0000   1.0000   1.0000   1.0000   1.0000
     1.0000   1.0000   1.0000   1.0000   1.0000   1.0000   1.0000   1.0000
     1.0000   1.0000   1.0000   1.0000   1.0000   1.0000   1.0000   1.0000
     1.0000   1.0000   1.0000   1.0000   1.0000   1.0000   0.0000   0.0000
     0.0000   0.0000   0.0000   0.0000   0.0000   0.0000   0.0000   0.0000
     0.0000

          k = 0.0833 0.3392 0.3865 ( 18966 PWs)   bands (ev):

   -72.7750 -68.2734 -63.6718 -63.6284 -39.3140 -38.7335 -38.6658 -37.3402
   -37.3300 -37.3088 -28.1986 -28.1750 -28.1084 -28.0777 -27.9751 -27.9553
    -7.5790  -7.3620  -6.8641  -6.7763  -6.4926  -6.4669  -6.0962  -5.9463
     4.1423   4.2175   4.4724   4.5717   5.1292   5.5361   5.6905   5.7873
     6.0070   6.2523   6.3403   6.5261   6.7820   6.9836   7.1140   7.4439
     7.7735   7.9870   8.2336   8.3846   8.5671   8.7647   9.0701   9.2366
     9.3114   9.5029   9.6708  10.1099  11.0575  11.3116  14.0402  14.3563
    14.5214  14.7534  14.8515  15.0504  16.5377  16.6955  17.1120  17.7599
    18.2735

     occupation numbers 
     1.0000   1.0000   1.0000   1.0000   1.0000   1.0000   1.0000   1.0000
     1.0000   1.0000   1.0000   1.0000   1.0000   1.0000   1.0000   1.0000
     1.0000   1.0000   1.0000   1.0000   1.0000   1.0000   1.0000   1.0000
     1.0000   1.0000   1.0000   1.0000   1.0000   1.0000   1.0000   1.0000
     1.0000   1.0000   1.0000   1.0000   1.0000   1.0000   1.0000   1.0000
     1.0000   1.0000   1.0000   1.0000   1.0000   1.0000   1.0000   1.0000
     1.0000   1.0000   1.0000   1.0000   1.0000   1.0000   0.0000   0.0000
     0.0000   0.0000   0.0000   0.0000   0.0000   0.0000   0.0000   0.0000
     0.0000

          k = 0.0834 0.3392-0.3847 ( 18934 PWs)   bands (ev):

   -72.7750 -68.2734 -63.6719 -63.6284 -39.3140 -38.7335 -38.6658 -37.3402
   -37.3300 -37.3087 -28.1985 -28.1750 -28.1083 -28.0778 -27.9751 -27.9554
    -7.5869  -7.3098  -6.9393  -6.7403  -6.5521  -6.3835  -6.1717  -5.9052
     4.1047   4.3731   4.4250   4.6137   5.1660   5.4464   5.5827   5.8044
     5.9408   6.2219   6.4092   6.5886   6.6623   7.0938   7.2809   7.5116
     7.6980   7.8553   7.9897   8.5264   8.7103   8.8043   9.0365   9.1917
     9.2553   9.5210   9.7602  10.1209  11.0378  11.2398  14.0289  14.2437
    14.5861  14.7338  14.8706  15.0029  16.5519  16.6691  17.0416  17.8394
    18.2120

     occupation numbers 
     1.0000   1.0000   1.0000   1.0000   1.0000   1.0000   1.0000   1.0000
     1.0000   1.0000   1.0000   1.0000   1.0000   1.0000   1.0000   1.0000
     1.0000   1.0000   1.0000   1.0000   1.0000   1.0000   1.0000   1.0000
     1.0000   1.0000   1.0000   1.0000   1.0000   1.0000   1.0000   1.0000
     1.0000   1.0000   1.0000   1.0000   1.0000   1.0000   1.0000   1.0000
     1.0000   1.0000   1.0000   1.0000   1.0000   1.0000   1.0000   1.0000
     1.0000   1.0000   1.0000   1.0000   1.0000   1.0000   0.0000   0.0000
     0.0000   0.0000   0.0000   0.0000   0.0000   0.0000   0.0000   0.0000
     0.0000

          k = 0.0834 0.3392-0.2305 ( 18933 PWs)   bands (ev):

   -72.7749 -68.2735 -63.6722 -63.6281 -39.3140 -38.7335 -38.6658 -37.3401
   -37.3300 -37.3087 -28.2051 -28.1565 -28.1172 -28.0639 -27.9906 -27.9558
    -7.8474  -7.2037  -6.9618  -6.6432  -6.4982  -6.3949  -6.1998  -5.8080
     4.1608   4.3684   4.4317   4.8244   4.9369   5.2288   5.4303   5.6630
     5.8184   6.1434   6.3942   6.4954   7.0810   7.1442   7.3898   7.6814
     7.8001   8.1347   8.2555   8.3227   8.7379   8.7731   8.9377   9.1695
     9.2658   9.5300   9.7788  10.0601  10.8942  11.1082  13.8327  14.2913
    14.6111  14.7557  14.8925  15.1581  16.4935  16.6513  17.0973  17.9397
    18.3510

     occupation numbers 
     1.0000   1.0000   1.0000   1.0000   1.0000   1.0000   1.0000   1.0000
     1.0000   1.0000   1.0000   1.0000   1.0000   1.0000   1.0000   1.0000
     1.0000   1.0000   1.0000   1.0000   1.0000   1.0000   1.0000   1.0000
     1.0000   1.0000   1.0000   1.0000   1.0000   1.0000   1.0000   1.0000
     1.0000   1.0000   1.0000   1.0000   1.0000   1.0000   1.0000   1.0000
     1.0000   1.0000   1.0000   1.0000   1.0000   1.0000   1.0000   1.0000
     1.0000   1.0000   1.0000   1.0000   1.0000   1.0000   0.0000   0.0000
     0.0000   0.0000   0.0000   0.0000   0.0000   0.0000   0.0000   0.0000
     0.0000

          k = 0.0833 0.3392-0.0762 ( 18948 PWs)   bands (ev):

   -72.7748 -68.2736 -63.6724 -63.6278 -39.3140 -38.7335 -38.6659 -37.3401
   -37.3301 -37.3087 -28.2075 -28.1391 -28.1264 -28.0472 -28.0098 -27.9582
    -8.0102  -7.2425  -6.8317  -6.6741  -6.5682  -6.3459  -6.0733  -5.7733
     4.2021   4.4001   4.5334   4.5748   4.7739   5.2325   5.3309   5.5392
     5.7094   6.3105   6.4292   6.6035   7.0762   7.2284   7.4610   7.7247
     7.9866   8.1404   8.3742   8.4381   8.6534   8.7341   8.7827   9.2611
     9.3865   9.6217   9.7004   9.9241  10.7996  11.0589  13.7591  14.2324
    14.4860  14.8794  15.1158  15.2547  16.4321  16.6348  17.2433  17.9583
    18.3712

     occupation numbers 
     1.0000   1.0000   1.0000   1.0000   1.0000   1.0000   1.0000   1.0000
     1.0000   1.0000   1.0000   1.0000   1.0000   1.0000   1.0000   1.0000
     1.0000   1.0000   1.0000   1.0000   1.0000   1.0000   1.0000   1.0000
     1.0000   1.0000   1.0000   1.0000   1.0000   1.0000   1.0000   1.0000
     1.0000   1.0000   1.0000   1.0000   1.0000   1.0000   1.0000   1.0000
     1.0000   1.0000   1.0000   1.0000   1.0000   1.0000   1.0000   1.0000
     1.0000   1.0000   1.0000   1.0000   1.0000   1.0000   0.0000   0.0000
     0.0000   0.0000   0.0000   0.0000   0.0000   0.0000   0.0000   0.0000
     0.0000

          k = 0.2500 0.0678 0.0798 ( 18979 PWs)   bands (ev):

   -72.7748 -68.2736 -63.6723 -63.6279 -39.3140 -38.7336 -38.6658 -37.3401
   -37.3301 -37.3088 -28.2089 -28.1402 -28.1294 -28.0468 -28.0070 -27.9576
    -8.1062  -7.0206  -6.8992  -6.7014  -6.4080  -6.2688  -6.0925  -6.0048
     4.0483   4.1785   4.3252   4.5931   4.7333   5.1233   5.5087   5.7467
     5.8428   6.1641   6.4302   6.6999   7.1448   7.3354   7.7089   7.7983
     7.9160   8.0767   8.3362   8.5356   8.5924   8.8484   8.9822   9.2145
     9.2909   9.4478   9.8644  10.1574  10.6462  11.1257  14.0115  14.0690
    14.3779  14.7141  15.0771  15.5318  16.4488  16.5604  17.3006  17.6598
    17.9004

     occupation numbers 
     1.0000   1.0000   1.0000   1.0000   1.0000   1.0000   1.0000   1.0000
     1.0000   1.0000   1.0000   1.0000   1.0000   1.0000   1.0000   1.0000
     1.0000   1.0000   1.0000   1.0000   1.0000   1.0000   1.0000   1.0000
     1.0000   1.0000   1.0000   1.0000   1.0000   1.0000   1.0000   1.0000
     1.0000   1.0000   1.0000   1.0000   1.0000   1.0000   1.0000   1.0000
     1.0000   1.0000   1.0000   1.0000   1.0000   1.0000   1.0000   1.0000
     1.0000   1.0000   1.0000   1.0000   1.0000   1.0000   0.0000   0.0000
     0.0000   0.0000   0.0000   0.0000   0.0000   0.0000   0.0000   0.0000
     0.0000

          k = 0.2500 0.0678 0.2340 ( 18963 PWs)   bands (ev):

   -72.7749 -68.2735 -63.6722 -63.6281 -39.3140 -38.7336 -38.6658 -37.3401
   -37.3300 -37.3088 -28.2050 -28.1558 -28.1195 -28.0633 -27.9906 -27.9566
    -7.9109  -7.0369  -6.9786  -6.8299  -6.3959  -6.2696  -6.1135  -5.9828
     4.1354   4.3394   4.4678   4.5463   4.7534   4.9427   5.2202   5.3669
     5.9176   6.2903   6.6934   7.0194   7.2412   7.3715   7.5077   7.5850
     7.6756   8.0506   8.2941   8.5577   8.6038   8.7694   9.0940   9.2745
     9.3743   9.4787   9.7814  10.1562  10.6878  11.2833  13.9540  14.2323
    14.4533  14.7354  15.0182  15.3626  16.4561  16.5496  17.2145  17.8257
    17.9809

     occupation numbers 
     1.0000   1.0000   1.0000   1.0000   1.0000   1.0000   1.0000   1.0000
     1.0000   1.0000   1.0000   1.0000   1.0000   1.0000   1.0000   1.0000
     1.0000   1.0000   1.0000   1.0000   1.0000   1.0000   1.0000   1.0000
     1.0000   1.0000   1.0000   1.0000   1.0000   1.0000   1.0000   1.0000
     1.0000   1.0000   1.0000   1.0000   1.0000   1.0000   1.0000   1.0000
     1.0000   1.0000   1.0000   1.0000   1.0000   1.0000   1.0000   1.0000
     1.0000   1.0000   1.0000   1.0000   1.0000   1.0000   0.0000   0.0000
     0.0000   0.0000   0.0000   0.0000   0.0000   0.0000   0.0000   0.0000
     0.0000

          k = 0.2499 0.0678 0.3883 ( 18962 PWs)   bands (ev):

   -72.7749 -68.2735 -63.6720 -63.6283 -39.3140 -38.7336 -38.6658 -37.3402
   -37.3300 -37.3088 -28.1970 -28.1723 -28.1093 -28.0788 -27.9770 -27.9573
    -7.5701  -7.2189  -7.0239  -6.9115  -6.4740  -6.3148  -6.0634  -5.9692
     4.1114   4.2748   4.4080   4.6205   4.8604   5.0790   5.2876   5.4381
     6.1879   6.3473   6.6016   6.7758   6.9648   7.1270   7.3979   7.6281
     7.7961   7.9667   8.2551   8.4768   8.7085   8.7910   9.0505   9.2392
     9.4439   9.5413   9.8229  10.2327  10.7931  11.2556  14.0543  14.3798
    14.4607  14.7320  14.8880  15.0396  16.4689  16.5683  17.0868  17.8519
    18.0322

     occupation numbers 
     1.0000   1.0000   1.0000   1.0000   1.0000   1.0000   1.0000   1.0000
     1.0000   1.0000   1.0000   1.0000   1.0000   1.0000   1.0000   1.0000
     1.0000   1.0000   1.0000   1.0000   1.0000   1.0000   1.0000   1.0000
     1.0000   1.0000   1.0000   1.0000   1.0000   1.0000   1.0000   1.0000
     1.0000   1.0000   1.0000   1.0000   1.0000   1.0000   1.0000   1.0000
     1.0000   1.0000   1.0000   1.0000   1.0000   1.0000   1.0000   1.0000
     1.0000   1.0000   1.0000   1.0000   1.0000   1.0000   0.0000   0.0000
     0.0000   0.0000   0.0000   0.0000   0.0000   0.0000   0.0000   0.0000
     0.0000

          k = 0.2501 0.0678-0.3830 ( 18962 PWs)   bands (ev):

   -72.7749 -68.2735 -63.6721 -63.6282 -39.3140 -38.7336 -38.6658 -37.3402
   -37.3300 -37.3088 -28.1968 -28.1723 -28.1091 -28.0791 -27.9768 -27.9574
    -7.6046  -7.1696  -6.9850  -6.8676  -6.5053  -6.4195  -6.0406  -5.9670
     3.9887   4.1824   4.4729   4.6782   4.9430   5.2526   5.4143   5.7526
     5.9471   6.2739   6.4813   6.7362   6.9021   7.0678   7.2771   7.6183
     7.7688   8.0892   8.4173   8.4909   8.6464   8.8111   9.0666   9.1631
     9.2701   9.6343   9.8289  10.2510  10.9212  11.0734  14.0742  14.3283
    14.5383  14.6405  14.7784  15.0200  16.5002  16.5653  17.0382  17.9047
    18.2267

     occupation numbers 
     1.0000   1.0000   1.0000   1.0000   1.0000   1.0000   1.0000   1.0000
     1.0000   1.0000   1.0000   1.0000   1.0000   1.0000   1.0000   1.0000
     1.0000   1.0000   1.0000   1.0000   1.0000   1.0000   1.0000   1.0000
     1.0000   1.0000   1.0000   1.0000   1.0000   1.0000   1.0000   1.0000
     1.0000   1.0000   1.0000   1.0000   1.0000   1.0000   1.0000   1.0000
     1.0000   1.0000   1.0000   1.0000   1.0000   1.0000   1.0000   1.0000
     1.0000   1.0000   1.0000   1.0000   1.0000   1.0000   0.0000   0.0000
     0.0000   0.0000   0.0000   0.0000   0.0000   0.0000   0.0000   0.0000
     0.0000

          k = 0.2500 0.0678-0.2287 ( 18967 PWs)   bands (ev):

   -72.7749 -68.2735 -63.6723 -63.6280 -39.3140 -38.7336 -38.6658 -37.3402
   -37.3300 -37.3088 -28.2047 -28.1559 -28.1192 -28.0638 -27.9904 -27.9567
    -7.9321  -7.0246  -6.7954  -6.7083  -6.5899  -6.4758  -6.0736  -5.9446
     3.9673   4.0407   4.5023   4.8501   4.9648   5.0921   5.5614   5.7457
     5.9529   6.1610   6.3874   6.6491   6.8939   7.2962   7.5242   7.5961
     7.8054   8.1620   8.3652   8.5128   8.6492   8.7781   8.8926   9.2583
     9.4088   9.5460   9.7910  10.1805  10.8036  11.0219  13.9577  14.2284
    14.4045  14.5711  14.9550  15.2723  16.4975  16.5695  17.0867  17.8803
    18.2090

     occupation numbers 
     1.0000   1.0000   1.0000   1.0000   1.0000   1.0000   1.0000   1.0000
     1.0000   1.0000   1.0000   1.0000   1.0000   1.0000   1.0000   1.0000
     1.0000   1.0000   1.0000   1.0000   1.0000   1.0000   1.0000   1.0000
     1.0000   1.0000   1.0000   1.0000   1.0000   1.0000   1.0000   1.0000
     1.0000   1.0000   1.0000   1.0000   1.0000   1.0000   1.0000   1.0000
     1.0000   1.0000   1.0000   1.0000   1.0000   1.0000   1.0000   1.0000
     1.0000   1.0000   1.0000   1.0000   1.0000   1.0000   0.0000   0.0000
     0.0000   0.0000   0.0000   0.0000   0.0000   0.0000   0.0000   0.0000
     0.0000

          k = 0.2500 0.0678-0.0745 ( 18974 PWs)   bands (ev):

   -72.7748 -68.2736 -63.6724 -63.6279 -39.3140 -38.7336 -38.6658 -37.3401
   -37.3301 -37.3087 -28.2087 -28.1406 -28.1290 -28.0470 -28.0069 -27.9576
    -8.1134  -7.0210  -6.7675  -6.6421  -6.5615  -6.3718  -6.0674  -5.9699
     3.9637   4.0949   4.2482   4.6971   4.9813   5.3063   5.5055   5.7926
     6.0492   6.1811   6.2447   6.5577   6.9758   7.2211   7.6225   7.8052
     8.0223   8.1507   8.2875   8.4536   8.6808   8.7903   9.0127   9.1349
     9.3078   9.5297   9.9009  10.1879  10.6326  11.0231  14.0129  14.1135
    14.2770  14.6099  15.0919  15.4741  16.4691  16.5770  17.2146  17.6533
    18.0326

     occupation numbers 
     1.0000   1.0000   1.0000   1.0000   1.0000   1.0000   1.0000   1.0000
     1.0000   1.0000   1.0000   1.0000   1.0000   1.0000   1.0000   1.0000
     1.0000   1.0000   1.0000   1.0000   1.0000   1.0000   1.0000   1.0000
     1.0000   1.0000   1.0000   1.0000   1.0000   1.0000   1.0000   1.0000
     1.0000   1.0000   1.0000   1.0000   1.0000   1.0000   1.0000   1.0000
     1.0000   1.0000   1.0000   1.0000   1.0000   1.0000   1.0000   1.0000
     1.0000   1.0000   1.0000   1.0000   1.0000   1.0000   0.0000   0.0000
     0.0000   0.0000   0.0000   0.0000   0.0000   0.0000   0.0000   0.0000
     0.0000

          k = 0.2500 0.2035 0.0798 ( 18969 PWs)   bands (ev):

   -72.7748 -68.2736 -63.6723 -63.6280 -39.3140 -38.7336 -38.6659 -37.3401
   -37.3301 -37.3087 -28.2084 -28.1398 -28.1283 -28.0472 -28.0085 -27.9579
    -8.0231  -7.0877  -6.9803  -6.6449  -6.4630  -6.2730  -6.0931  -5.9499
     4.0019   4.2742   4.4242   4.6499   4.7788   5.0759   5.5788   5.6383
     5.8963   6.1359   6.5373   6.7330   6.9219   7.3241   7.7201   7.7857
     7.9116   8.0920   8.2364   8.4689   8.5695   8.8454   8.8969   9.1645
     9.2687   9.5301   9.7846  10.1530  10.7264  11.0876  13.9248  14.1321
    14.4173  14.8278  15.0840  15.4728  16.4641  16.5847  17.2572  17.8500
    18.0085

     occupation numbers 
     1.0000   1.0000   1.0000   1.0000   1.0000   1.0000   1.0000   1.0000
     1.0000   1.0000   1.0000   1.0000   1.0000   1.0000   1.0000   1.0000
     1.0000   1.0000   1.0000   1.0000   1.0000   1.0000   1.0000   1.0000
     1.0000   1.0000   1.0000   1.0000   1.0000   1.0000   1.0000   1.0000
     1.0000   1.0000   1.0000   1.0000   1.0000   1.0000   1.0000   1.0000
     1.0000   1.0000   1.0000   1.0000   1.0000   1.0000   1.0000   1.0000
     1.0000   1.0000   1.0000   1.0000   1.0000   1.0000   0.0000   0.0000
     0.0000   0.0000   0.0000   0.0000   0.0000   0.0000   0.0000   0.0000
     0.0000

          k = 0.2500 0.2035 0.2340 ( 18963 PWs)   bands (ev):

   -72.7749 -68.2735 -63.6721 -63.6282 -39.3140 -38.7336 -38.6658 -37.3401
   -37.3300 -37.3088 -28.2052 -28.1561 -28.1188 -28.0638 -27.9908 -27.9561
    -7.8470  -7.1510  -6.9953  -6.7390  -6.3941  -6.2766  -6.1759  -5.9522
     4.0138   4.2351   4.5842   4.6795   4.8019   5.0238   5.3869   5.5875
     5.8153   6.2201   6.6391   6.8589   7.0543   7.3202   7.5642   7.6719
     7.8382   8.0639   8.3399   8.3889   8.5676   8.7242   8.9663   9.2093
     9.2773   9.4440   9.7466  10.1565  10.8128  11.2553  13.8975  14.2846
    14.5236  14.7299  15.0842  15.3117  16.4640  16.5821  17.2580  17.7979
    18.0660

     occupation numbers 
     1.0000   1.0000   1.0000   1.0000   1.0000   1.0000   1.0000   1.0000
     1.0000   1.0000   1.0000   1.0000   1.0000   1.0000   1.0000   1.0000
     1.0000   1.0000   1.0000   1.0000   1.0000   1.0000   1.0000   1.0000
     1.0000   1.0000   1.0000   1.0000   1.0000   1.0000   1.0000   1.0000
     1.0000   1.0000   1.0000   1.0000   1.0000   1.0000   1.0000   1.0000
     1.0000   1.0000   1.0000   1.0000   1.0000   1.0000   1.0000   1.0000
     1.0000   1.0000   1.0000   1.0000   1.0000   1.0000   0.0000   0.0000
     0.0000   0.0000   0.0000   0.0000   0.0000   0.0000   0.0000   0.0000
     0.0000

          k = 0.2499 0.2035 0.3883 ( 18974 PWs)   bands (ev):

   -72.7749 -68.2734 -63.6720 -63.6284 -39.3140 -38.7336 -38.6658 -37.3402
   -37.3300 -37.3088 -28.1978 -28.1736 -28.1092 -28.0786 -27.9761 -27.9563
    -7.5457  -7.2682  -7.0188  -6.8414  -6.4771  -6.3316  -6.0765  -5.9990
     4.0280   4.2690   4.4523   4.6369   4.8650   5.2415   5.3884   5.6533
     6.0934   6.2260   6.5684   6.7288   6.9432   7.2658   7.3874   7.5891
     7.7543   8.0900   8.2479   8.4191   8.5986   8.7224   8.9908   9.1537
     9.2750   9.5127   9.8021  10.2074  10.8921  11.2380  14.0212  14.3683
    14.5189  14.6791  14.9732  15.0568  16.4484  16.6004  17.1547  17.8176
    18.0676

     occupation numbers 
     1.0000   1.0000   1.0000   1.0000   1.0000   1.0000   1.0000   1.0000
     1.0000   1.0000   1.0000   1.0000   1.0000   1.0000   1.0000   1.0000
     1.0000   1.0000   1.0000   1.0000   1.0000   1.0000   1.0000   1.0000
     1.0000   1.0000   1.0000   1.0000   1.0000   1.0000   1.0000   1.0000
     1.0000   1.0000   1.0000   1.0000   1.0000   1.0000   1.0000   1.0000
     1.0000   1.0000   1.0000   1.0000   1.0000   1.0000   1.0000   1.0000
     1.0000   1.0000   1.0000   1.0000   1.0000   1.0000   0.0000   0.0000
     0.0000   0.0000   0.0000   0.0000   0.0000   0.0000   0.0000   0.0000
     0.0000

          k = 0.2501 0.2035-0.3830 ( 18968 PWs)   bands (ev):

   -72.7749 -68.2734 -63.6720 -63.6283 -39.3140 -38.7336 -38.6658 -37.3402
   -37.3300 -37.3088 -28.1977 -28.1736 -28.1090 -28.0789 -27.9759 -27.9565
    -7.5636  -7.1987  -7.0405  -6.8002  -6.5227  -6.3818  -6.1200  -5.9426
     4.0363   4.2950   4.3968   4.7181   4.9183   5.2206   5.4342   5.7304
     6.0778   6.2515   6.4351   6.7834   6.8909   7.1753   7.3960   7.5393
     7.7057   8.1204   8.3624   8.4668   8.5494   8.7529   8.9910   9.0595
     9.2144   9.6527   9.8125  10.2192  10.9136  11.0818  13.9780  14.3664
    14.5752  14.6521  14.8617  14.9749  16.4803  16.5857  17.0692  17.9005
    18.2828

     occupation numbers 
     1.0000   1.0000   1.0000   1.0000   1.0000   1.0000   1.0000   1.0000
     1.0000   1.0000   1.0000   1.0000   1.0000   1.0000   1.0000   1.0000
     1.0000   1.0000   1.0000   1.0000   1.0000   1.0000   1.0000   1.0000
     1.0000   1.0000   1.0000   1.0000   1.0000   1.0000   1.0000   1.0000
     1.0000   1.0000   1.0000   1.0000   1.0000   1.0000   1.0000   1.0000
     1.0000   1.0000   1.0000   1.0000   1.0000   1.0000   1.0000   1.0000
     1.0000   1.0000   1.0000   1.0000   1.0000   1.0000   0.0000   0.0000
     0.0000   0.0000   0.0000   0.0000   0.0000   0.0000   0.0000   0.0000
     0.0000

          k = 0.2500 0.2035-0.2287 ( 18964 PWs)   bands (ev):

   -72.7749 -68.2735 -63.6722 -63.6281 -39.3140 -38.7336 -38.6658 -37.3402
   -37.3300 -37.3088 -28.2049 -28.1563 -28.1185 -28.0643 -27.9905 -27.9563
    -7.8564  -7.0840  -6.8969  -6.6776  -6.5954  -6.4352  -6.1099  -5.8994
     4.0233   4.2401   4.4969   4.7062   4.9567   5.1909   5.3816   5.7003
     6.0136   6.2495   6.3920   6.6212   6.8920   7.3236   7.5247   7.6920
     7.8622   8.0658   8.3260   8.4415   8.6388   8.7296   8.8534   9.1816
     9.3066   9.5955   9.8098  10.1970  10.7198  11.0279  13.8681  14.3145
    14.4615  14.6523  14.9296  15.1972  16.4782  16.6019  17.0612  17.9385
    18.4384

     occupation numbers 
     1.0000   1.0000   1.0000   1.0000   1.0000   1.0000   1.0000   1.0000
     1.0000   1.0000   1.0000   1.0000   1.0000   1.0000   1.0000   1.0000
     1.0000   1.0000   1.0000   1.0000   1.0000   1.0000   1.0000   1.0000
     1.0000   1.0000   1.0000   1.0000   1.0000   1.0000   1.0000   1.0000
     1.0000   1.0000   1.0000   1.0000   1.0000   1.0000   1.0000   1.0000
     1.0000   1.0000   1.0000   1.0000   1.0000   1.0000   1.0000   1.0000
     1.0000   1.0000   1.0000   1.0000   1.0000   1.0000   0.0000   0.0000
     0.0000   0.0000   0.0000   0.0000   0.0000   0.0000   0.0000   0.0000
     0.0000

          k = 0.2500 0.2035-0.0745 ( 18968 PWs)   bands (ev):

   -72.7748 -68.2736 -63.6723 -63.6279 -39.3140 -38.7336 -38.6658 -37.3401
   -37.3301 -37.3087 -28.2082 -28.1401 -28.1279 -28.0476 -28.0083 -27.9580
    -8.0264  -7.0922  -6.8228  -6.6675  -6.6086  -6.3295  -6.0611  -5.9184
     4.0059   4.2292   4.3931   4.7309   4.8450   5.1956   5.3996   5.7547
     6.0313   6.3240   6.4208   6.5647   6.7710   7.3297   7.5877   7.7252
     7.9955   8.1178   8.2246   8.5168   8.7067   8.7814   8.8951   9.0957
     9.2780   9.5679   9.8702  10.2040  10.6068  10.9959  13.9434  14.1708
    14.3133  14.7630  15.0455  15.4181  16.4564  16.6093  17.1478  17.8808
    18.1990

     occupation numbers 
     1.0000   1.0000   1.0000   1.0000   1.0000   1.0000   1.0000   1.0000
     1.0000   1.0000   1.0000   1.0000   1.0000   1.0000   1.0000   1.0000
     1.0000   1.0000   1.0000   1.0000   1.0000   1.0000   1.0000   1.0000
     1.0000   1.0000   1.0000   1.0000   1.0000   1.0000   1.0000   1.0000
     1.0000   1.0000   1.0000   1.0000   1.0000   1.0000   1.0000   1.0000
     1.0000   1.0000   1.0000   1.0000   1.0000   1.0000   1.0000   1.0000
     1.0000   1.0000   1.0000   1.0000   1.0000   1.0000   0.0000   0.0000
     0.0000   0.0000   0.0000   0.0000   0.0000   0.0000   0.0000   0.0000
     0.0000

          k = 0.2500 0.3392 0.0798 ( 18957 PWs)   bands (ev):

   -72.7748 -68.2736 -63.6722 -63.6280 -39.3140 -38.7336 -38.6659 -37.3401
   -37.3301 -37.3087 -28.2079 -28.1393 -28.1270 -28.0477 -28.0099 -27.9583
    -7.9147  -7.2388  -6.9665  -6.6294  -6.5047  -6.2889  -6.0713  -5.9139
     3.9742   4.3098   4.5388   4.7019   4.8217   5.1840   5.4871   5.6958
     5.8381   6.2207   6.3700   6.6367   7.0681   7.3183   7.6439   7.8003
     7.9910   8.0260   8.1584   8.2885   8.5530   8.7406   8.9933   9.1149
     9.2121   9.5704   9.7568  10.1365  10.8600  11.0052  13.8303  14.2212
    14.4574  15.0056  15.0792  15.3303  16.4760  16.6213  17.2461  17.8718
    18.2028

     occupation numbers 
     1.0000   1.0000   1.0000   1.0000   1.0000   1.0000   1.0000   1.0000
     1.0000   1.0000   1.0000   1.0000   1.0000   1.0000   1.0000   1.0000
     1.0000   1.0000   1.0000   1.0000   1.0000   1.0000   1.0000   1.0000
     1.0000   1.0000   1.0000   1.0000   1.0000   1.0000   1.0000   1.0000
     1.0000   1.0000   1.0000   1.0000   1.0000   1.0000   1.0000   1.0000
     1.0000   1.0000   1.0000   1.0000   1.0000   1.0000   1.0000   1.0000
     1.0000   1.0000   1.0000   1.0000   1.0000   1.0000   0.0000   0.0000
     0.0000   0.0000   0.0000   0.0000   0.0000   0.0000   0.0000   0.0000
     0.0000

          k = 0.2500 0.3392 0.2340 ( 18986 PWs)   bands (ev):

   -72.7749 -68.2735 -63.6720 -63.6283 -39.3140 -38.7336 -38.6658 -37.3401
   -37.3300 -37.3088 -28.2054 -28.1565 -28.1181 -28.0642 -27.9909 -27.9558
    -7.7637  -7.2795  -6.9648  -6.7004  -6.3946  -6.2801  -6.2325  -5.9287
     3.9319   4.1605   4.6086   4.7116   4.9542   5.2887   5.5661   5.6386
     5.8964   6.0905   6.4644   6.6331   7.0061   7.3087   7.5902   7.6530
     7.9429   8.0433   8.3222   8.4188   8.4872   8.7797   8.8786   9.0252
     9.1480   9.4292   9.7553  10.1567  10.9128  11.2167  13.8507  14.3420
    14.5422  14.8188  15.1324  15.2224  16.4692  16.6254  17.3155  17.7421
    17.9942

     occupation numbers 
     1.0000   1.0000   1.0000   1.0000   1.0000   1.0000   1.0000   1.0000
     1.0000   1.0000   1.0000   1.0000   1.0000   1.0000   1.0000   1.0000
     1.0000   1.0000   1.0000   1.0000   1.0000   1.0000   1.0000   1.0000
     1.0000   1.0000   1.0000   1.0000   1.0000   1.0000   1.0000   1.0000
     1.0000   1.0000   1.0000   1.0000   1.0000   1.0000   1.0000   1.0000
     1.0000   1.0000   1.0000   1.0000   1.0000   1.0000   1.0000   1.0000
     1.0000   1.0000   1.0000   1.0000   1.0000   1.0000   0.0000   0.0000
     0.0000   0.0000   0.0000   0.0000   0.0000   0.0000   0.0000   0.0000
     0.0000

          k = 0.2499 0.3392 0.3883 ( 18976 PWs)   bands (ev):

   -72.7749 -68.2734 -63.6719 -63.6284 -39.3140 -38.7336 -38.6658 -37.3402
   -37.3300 -37.3088 -28.1986 -28.1748 -28.1091 -28.0784 -27.9752 -27.9554
    -7.5092  -7.3415  -6.9347  -6.8354  -6.4589  -6.3859  -6.0852  -6.0193
     3.9884   4.1737   4.4638   4.6822   4.9890   5.4246   5.5903   5.8051
     5.9860   6.1694   6.3946   6.6738   6.8585   7.2830   7.4045   7.6620
     7.7859   8.0817   8.2344   8.4684   8.5103   8.6633   8.9347   9.0190
     9.0975   9.4960   9.7862  10.2023  10.9735  11.1976  14.0009  14.3889
    14.5483  14.6268  15.0495  15.0721  16.4357  16.6396  17.2373  17.7852
    17.9057

     occupation numbers 
     1.0000   1.0000   1.0000   1.0000   1.0000   1.0000   1.0000   1.0000
     1.0000   1.0000   1.0000   1.0000   1.0000   1.0000   1.0000   1.0000
     1.0000   1.0000   1.0000   1.0000   1.0000   1.0000   1.0000   1.0000
     1.0000   1.0000   1.0000   1.0000   1.0000   1.0000   1.0000   1.0000
     1.0000   1.0000   1.0000   1.0000   1.0000   1.0000   1.0000   1.0000
     1.0000   1.0000   1.0000   1.0000   1.0000   1.0000   1.0000   1.0000
     1.0000   1.0000   1.0000   1.0000   1.0000   1.0000   0.0000   0.0000
     0.0000   0.0000   0.0000   0.0000   0.0000   0.0000   0.0000   0.0000
     0.0000

          k = 0.2501 0.3392-0.3830 ( 18947 PWs)   bands (ev):

   -72.7749 -68.2734 -63.6720 -63.6284 -39.3140 -38.7336 -38.6658 -37.3402
   -37.3300 -37.3088 -28.1985 -28.1748 -28.1089 -28.0788 -27.9750 -27.9555
    -7.5253  -7.2169  -7.0431  -6.8297  -6.4829  -6.3466  -6.2061  -5.9302
     4.0815   4.2613   4.4703   4.7017   5.0200   5.2564   5.3546   5.7724
     6.0566   6.2030   6.5719   6.6875   6.8754   7.3002   7.4590   7.5902
     7.7081   8.0175   8.2456   8.4079   8.5721   8.6943   8.8399   9.0425
     9.1578   9.6405   9.7971  10.2364  10.9310  11.0300  13.9693  14.2370
    14.6904  14.7167  14.8967  14.9349  16.4885  16.5946  17.1065  17.8733
    18.1227

     occupation numbers 
     1.0000   1.0000   1.0000   1.0000   1.0000   1.0000   1.0000   1.0000
     1.0000   1.0000   1.0000   1.0000   1.0000   1.0000   1.0000   1.0000
     1.0000   1.0000   1.0000   1.0000   1.0000   1.0000   1.0000   1.0000
     1.0000   1.0000   1.0000   1.0000   1.0000   1.0000   1.0000   1.0000
     1.0000   1.0000   1.0000   1.0000   1.0000   1.0000   1.0000   1.0000
     1.0000   1.0000   1.0000   1.0000   1.0000   1.0000   1.0000   1.0000
     1.0000   1.0000   1.0000   1.0000   1.0000   1.0000   0.0000   0.0000
     0.0000   0.0000   0.0000   0.0000   0.0000   0.0000   0.0000   0.0000
     0.0000

          k = 0.2500 0.3392-0.2287 ( 18954 PWs)   bands (ev):

   -72.7749 -68.2735 -63.6722 -63.6281 -39.3140 -38.7336 -38.6658 -37.3402
   -37.3300 -37.3088 -28.2051 -28.1566 -28.1178 -28.0648 -27.9906 -27.9559
    -7.7609  -7.1617  -6.9606  -6.7176  -6.5706  -6.3967  -6.1261  -5.8708
     4.1420   4.3138   4.4932   4.7586   4.9234   5.1234   5.4594   5.6620
     5.9046   6.0337   6.3978   6.8348   7.0180   7.3902   7.5369   7.6425
     7.9288   8.0513   8.2436   8.3304   8.5281   8.6582   8.8507   9.1606
     9.2006   9.6808   9.7924  10.2489  10.7002  10.9537  13.8263  14.3456
    14.5502  14.7343  14.9154  15.0821  16.4918  16.6180  17.0466  17.9171
    18.5142

     occupation numbers 
     1.0000   1.0000   1.0000   1.0000   1.0000   1.0000   1.0000   1.0000
     1.0000   1.0000   1.0000   1.0000   1.0000   1.0000   1.0000   1.0000
     1.0000   1.0000   1.0000   1.0000   1.0000   1.0000   1.0000   1.0000
     1.0000   1.0000   1.0000   1.0000   1.0000   1.0000   1.0000   1.0000
     1.0000   1.0000   1.0000   1.0000   1.0000   1.0000   1.0000   1.0000
     1.0000   1.0000   1.0000   1.0000   1.0000   1.0000   1.0000   1.0000
     1.0000   1.0000   1.0000   1.0000   1.0000   1.0000   0.0000   0.0000
     0.0000   0.0000   0.0000   0.0000   0.0000   0.0000   0.0000   0.0000
     0.0000

          k = 0.2500 0.3392-0.0745 ( 18957 PWs)   bands (ev):

   -72.7748 -68.2736 -63.6723 -63.6280 -39.3140 -38.7336 -38.6659 -37.3401
   -37.3301 -37.3087 -28.2077 -28.1396 -28.1267 -28.0481 -28.0097 -27.9584
    -7.9130  -7.2177  -6.8209  -6.7296  -6.6295  -6.3076  -6.0363  -5.8838
     4.0788   4.3952   4.4419   4.6674   4.9202   5.1064   5.4898   5.6280
     5.7963   6.2205   6.4717   6.7141   6.9350   7.4094   7.6002   7.6549
     7.9293   8.0590   8.1605   8.4032   8.6696   8.7768   8.8940   9.0367
     9.2481   9.6370   9.8326  10.2094  10.6774  10.9151  13.8573  14.2646
    14.3918  14.8979  15.0212  15.2760  16.4565  16.6431  17.1135  17.9356
    18.4690

     occupation numbers 
     1.0000   1.0000   1.0000   1.0000   1.0000   1.0000   1.0000   1.0000
     1.0000   1.0000   1.0000   1.0000   1.0000   1.0000   1.0000   1.0000
     1.0000   1.0000   1.0000   1.0000   1.0000   1.0000   1.0000   1.0000
     1.0000   1.0000   1.0000   1.0000   1.0000   1.0000   1.0000   1.0000
     1.0000   1.0000   1.0000   1.0000   1.0000   1.0000   1.0000   1.0000
     1.0000   1.0000   1.0000   1.0000   1.0000   1.0000   1.0000   1.0000
     1.0000   1.0000   1.0000   1.0000   1.0000   1.0000   0.0000   0.0000
     0.0000   0.0000   0.0000   0.0000   0.0000   0.0000   0.0000   0.0000
     0.0000

          k = 0.4166 0.0678 0.0816 ( 19004 PWs)   bands (ev):

   -72.7748 -68.2736 -63.6724 -63.6279 -39.3140 -38.7336 -38.6658 -37.3401
   -37.3301 -37.3088 -28.2091 -28.1409 -28.1298 -28.0477 -28.0070 -27.9577
    -7.9211  -7.0363  -6.9767  -6.7210  -6.4317  -6.2322  -6.2007  -6.0260
     4.0779   4.3355   4.4265   4.7528   4.8506   5.2082   5.3122   5.4864
     5.9117   6.0363   6.3403   6.8179   7.2560   7.4376   7.5471   7.7064
     7.8091   7.9875   8.2076   8.3672   8.5872   8.8811   9.0054   9.1599
     9.2604   9.5702   9.9788  10.3685  10.7840  11.1339  13.9732  14.1898
    14.3054  14.6857  15.0028  15.4569  16.4567  16.5702  17.2669  17.8719
    18.1850

     occupation numbers 
     1.0000   1.0000   1.0000   1.0000   1.0000   1.0000   1.0000   1.0000
     1.0000   1.0000   1.0000   1.0000   1.0000   1.0000   1.0000   1.0000
     1.0000   1.0000   1.0000   1.0000   1.0000   1.0000   1.0000   1.0000
     1.0000   1.0000   1.0000   1.0000   1.0000   1.0000   1.0000   1.0000
     1.0000   1.0000   1.0000   1.0000   1.0000   1.0000   1.0000   1.0000
     1.0000   1.0000   1.0000   1.0000   1.0000   1.0000   1.0000   1.0000
     1.0000   1.0000   1.0000   1.0000   1.0000   1.0000   0.0000   0.0000
     0.0000   0.0000   0.0000   0.0000   0.0000   0.0000   0.0000   0.0000
     0.0000

          k = 0.4166 0.0678 0.2358 ( 18994 PWs)   bands (ev):

   -72.7748 -68.2735 -63.6723 -63.6280 -39.3140 -38.7336 -38.6658 -37.3402
   -37.3300 -37.3088 -28.2050 -28.1560 -28.1202 -28.0642 -27.9906 -27.9567
    -7.7457  -7.0670  -6.9330  -6.7994  -6.5798  -6.3361  -6.1110  -5.9850
     4.0884   4.3469   4.5825   4.7419   4.8460   5.0479   5.2425   5.4109
     5.8261   6.2379   6.5612   6.8610   7.0820   7.1523   7.4561   7.6918
     7.8623   8.0360   8.3254   8.4515   8.6596   8.8316   9.0810   9.1759
     9.2742   9.4122   9.9969  10.3610  10.7460  11.2122  13.8912  14.3036
    14.5131  14.6857  14.9427  15.3616  16.4243  16.5778  17.2420  17.8492
    18.0186

     occupation numbers 
     1.0000   1.0000   1.0000   1.0000   1.0000   1.0000   1.0000   1.0000
     1.0000   1.0000   1.0000   1.0000   1.0000   1.0000   1.0000   1.0000
     1.0000   1.0000   1.0000   1.0000   1.0000   1.0000   1.0000   1.0000
     1.0000   1.0000   1.0000   1.0000   1.0000   1.0000   1.0000   1.0000
     1.0000   1.0000   1.0000   1.0000   1.0000   1.0000   1.0000   1.0000
     1.0000   1.0000   1.0000   1.0000   1.0000   1.0000   1.0000   1.0000
     1.0000   1.0000   1.0000   1.0000   1.0000   1.0000   0.0000   0.0000
     0.0000   0.0000   0.0000   0.0000   0.0000   0.0000   0.0000   0.0000
     0.0000

          k = 0.4166 0.0678 0.3901 ( 18964 PWs)   bands (ev):

   -72.7749 -68.2735 -63.6723 -63.6281 -39.3140 -38.7336 -38.6658 -37.3402
   -37.3300 -37.3089 -28.1971 -28.1722 -28.1100 -28.0798 -27.9769 -27.9575
    -7.4448  -7.1239  -7.0068  -6.8670  -6.6640  -6.4592  -6.0512  -5.9570
     4.1578   4.3200   4.4148   4.5347   4.9401   5.1780   5.3934   5.6205
     6.1172   6.1777   6.4749   6.7792   6.8470   7.1146   7.3988   7.6285
     7.7733   7.9456   8.2406   8.3986   8.8028   8.9494   9.1439   9.2104
     9.2343   9.3872  10.0366  10.4248  10.8035  11.1125  14.0570  14.3223
    14.5804  14.7686  14.8557  15.1103  16.4337  16.5535  17.2085  17.8669
    18.0017

     occupation numbers 
     1.0000   1.0000   1.0000   1.0000   1.0000   1.0000   1.0000   1.0000
     1.0000   1.0000   1.0000   1.0000   1.0000   1.0000   1.0000   1.0000
     1.0000   1.0000   1.0000   1.0000   1.0000   1.0000   1.0000   1.0000
     1.0000   1.0000   1.0000   1.0000   1.0000   1.0000   1.0000   1.0000
     1.0000   1.0000   1.0000   1.0000   1.0000   1.0000   1.0000   1.0000
     1.0000   1.0000   1.0000   1.0000   1.0000   1.0000   1.0000   1.0000
     1.0000   1.0000   1.0000   1.0000   1.0000   1.0000   0.0000   0.0000
     0.0000   0.0000   0.0000   0.0000   0.0000   0.0000   0.0000   0.0000
     0.0000

          k = 0.4167 0.0678-0.3812 ( 18982 PWs)   bands (ev):

   -72.7749 -68.2735 -63.6723 -63.6281 -39.3140 -38.7336 -38.6658 -37.3402
   -37.3300 -37.3088 -28.1970 -28.1722 -28.1099 -28.0799 -27.9768 -27.9575
    -7.4641  -7.1207  -6.9389  -6.8670  -6.6190  -6.5687  -6.0390  -5.9631
     4.1005   4.2274   4.4354   4.5758   5.1252   5.2356   5.4877   5.6440
     6.0064   6.2017   6.4594   6.6658   6.8223   7.0447   7.3646   7.6725
     7.8214   7.8926   8.3073   8.4794   8.7218   8.8551   9.0635   9.1867
     9.3506   9.4454  10.0167  10.4665  10.8739  10.9799  14.0858  14.3038
    14.5894  14.6770  14.8435  15.1087  16.4518  16.5418  17.2077  17.8635
    18.1498

     occupation numbers 
     1.0000   1.0000   1.0000   1.0000   1.0000   1.0000   1.0000   1.0000
     1.0000   1.0000   1.0000   1.0000   1.0000   1.0000   1.0000   1.0000
     1.0000   1.0000   1.0000   1.0000   1.0000   1.0000   1.0000   1.0000
     1.0000   1.0000   1.0000   1.0000   1.0000   1.0000   1.0000   1.0000
     1.0000   1.0000   1.0000   1.0000   1.0000   1.0000   1.0000   1.0000
     1.0000   1.0000   1.0000   1.0000   1.0000   1.0000   1.0000   1.0000
     1.0000   1.0000   1.0000   1.0000   1.0000   1.0000   0.0000   0.0000
     0.0000   0.0000   0.0000   0.0000   0.0000   0.0000   0.0000   0.0000
     0.0000

          k = 0.4167 0.0678-0.2269 ( 18981 PWs)   bands (ev):

   -72.7748 -68.2735 -63.6724 -63.6279 -39.3140 -38.7336 -38.6658 -37.3402
   -37.3300 -37.3088 -28.2049 -28.1560 -28.1201 -28.0644 -27.9905 -27.9568
    -7.7603  -7.0596  -6.8009  -6.7262  -6.7062  -6.4507  -6.0797  -5.9866
     4.0183   4.1905   4.5678   4.8277   4.9502   5.2411   5.3380   5.6988
     5.9112   6.0893   6.4522   6.7529   6.7997   7.1400   7.3531   7.8053
     7.8765   8.0771   8.2827   8.4242   8.6691   8.8164   8.9870   9.1960
     9.3391   9.5212   9.9650  10.4198  10.8293  11.0004  13.9125  14.2615
    14.5251  14.6090  14.8879  15.3223  16.4703  16.5474  17.2168  17.8551
    18.2908

     occupation numbers 
     1.0000   1.0000   1.0000   1.0000   1.0000   1.0000   1.0000   1.0000
     1.0000   1.0000   1.0000   1.0000   1.0000   1.0000   1.0000   1.0000
     1.0000   1.0000   1.0000   1.0000   1.0000   1.0000   1.0000   1.0000
     1.0000   1.0000   1.0000   1.0000   1.0000   1.0000   1.0000   1.0000
     1.0000   1.0000   1.0000   1.0000   1.0000   1.0000   1.0000   1.0000
     1.0000   1.0000   1.0000   1.0000   1.0000   1.0000   1.0000   1.0000
     1.0000   1.0000   1.0000   1.0000   1.0000   1.0000   0.0000   0.0000
     0.0000   0.0000   0.0000   0.0000   0.0000   0.0000   0.0000   0.0000
     0.0000

          k = 0.4167 0.0678-0.0727 ( 19010 PWs)   bands (ev):

   -72.7748 -68.2736 -63.6724 -63.6278 -39.3140 -38.7336 -38.6658 -37.3401
   -37.3301 -37.3088 -28.2090 -28.1411 -28.1296 -28.0478 -28.0069 -27.9578
    -7.9264  -7.0447  -6.9179  -6.6946  -6.5073  -6.2821  -6.1626  -6.0167
     4.0602   4.2375   4.3840   4.8397   4.9756   5.1776   5.4376   5.5788
     5.8501   6.1034   6.3311   6.7924   7.0730   7.2764   7.5093   7.8127
     7.8683   7.9565   8.1617   8.4186   8.5475   8.9185   9.0106   9.1063
     9.3079   9.6406   9.9632  10.3907  10.8536  10.9905  14.0009  14.1680
    14.2873  14.6246  15.0132  15.4242  16.4949  16.5423  17.2445  17.8566
    18.3699

     occupation numbers 
     1.0000   1.0000   1.0000   1.0000   1.0000   1.0000   1.0000   1.0000
     1.0000   1.0000   1.0000   1.0000   1.0000   1.0000   1.0000   1.0000
     1.0000   1.0000   1.0000   1.0000   1.0000   1.0000   1.0000   1.0000
     1.0000   1.0000   1.0000   1.0000   1.0000   1.0000   1.0000   1.0000
     1.0000   1.0000   1.0000   1.0000   1.0000   1.0000   1.0000   1.0000
     1.0000   1.0000   1.0000   1.0000   1.0000   1.0000   1.0000   1.0000
     1.0000   1.0000   1.0000   1.0000   1.0000   1.0000   0.0000   0.0000
     0.0000   0.0000   0.0000   0.0000   0.0000   0.0000   0.0000   0.0000
     0.0000

          k = 0.4166 0.2035 0.0816 ( 18961 PWs)   bands (ev):

   -72.7748 -68.2736 -63.6722 -63.6280 -39.3140 -38.7336 -38.6658 -37.3401
   -37.3301 -37.3088 -28.2086 -28.1404 -28.1285 -28.0482 -28.0084 -27.9581
    -7.8670  -7.1079  -7.0163  -6.6777  -6.4747  -6.2438  -6.1567  -6.0022
     3.8806   4.3285   4.5057   4.7883   5.0359   5.1922   5.3263   5.5767
     5.9364   6.0640   6.5063   6.8650   6.9885   7.4170   7.5236   7.7084
     7.7517   8.0223   8.0925   8.3871   8.5366   8.8027   9.0166   9.1545
     9.3218   9.5708   9.9538  10.3773  10.6852  11.0089  13.9190  14.2190
    14.3329  14.7836  14.9971  15.4813  16.4795  16.5917  17.2066  17.8534
    18.2769

     occupation numbers 
     1.0000   1.0000   1.0000   1.0000   1.0000   1.0000   1.0000   1.0000
     1.0000   1.0000   1.0000   1.0000   1.0000   1.0000   1.0000   1.0000
     1.0000   1.0000   1.0000   1.0000   1.0000   1.0000   1.0000   1.0000
     1.0000   1.0000   1.0000   1.0000   1.0000   1.0000   1.0000   1.0000
     1.0000   1.0000   1.0000   1.0000   1.0000   1.0000   1.0000   1.0000
     1.0000   1.0000   1.0000   1.0000   1.0000   1.0000   1.0000   1.0000
     1.0000   1.0000   1.0000   1.0000   1.0000   1.0000   0.0000   0.0000
     0.0000   0.0000   0.0000   0.0000   0.0000   0.0000   0.0000   0.0000
     0.0000

          k = 0.4166 0.2035 0.2358 ( 18964 PWs)   bands (ev):

   -72.7749 -68.2735 -63.6722 -63.6282 -39.3140 -38.7336 -38.6658 -37.3402
   -37.3300 -37.3088 -28.2053 -28.1563 -28.1195 -28.0647 -27.9907 -27.9563
    -7.7089  -7.1707  -6.9530  -6.7516  -6.5359  -6.3225  -6.1233  -5.9886
     3.9149   4.3666   4.5561   4.7453   4.8887   5.1082   5.3580   5.5533
     5.9013   6.1032   6.5636   6.8547   7.1619   7.3209   7.5839   7.6606
     7.7941   8.0469   8.1975   8.3623   8.6178   8.7494   8.9490   9.1533
     9.2462   9.4261   9.9835  10.3172  10.7047  11.1274  13.8521  14.3482
    14.4972  14.7110  14.9803  15.3726  16.4250  16.5814  17.2431  17.8283
    18.0055

     occupation numbers 
     1.0000   1.0000   1.0000   1.0000   1.0000   1.0000   1.0000   1.0000
     1.0000   1.0000   1.0000   1.0000   1.0000   1.0000   1.0000   1.0000
     1.0000   1.0000   1.0000   1.0000   1.0000   1.0000   1.0000   1.0000
     1.0000   1.0000   1.0000   1.0000   1.0000   1.0000   1.0000   1.0000
     1.0000   1.0000   1.0000   1.0000   1.0000   1.0000   1.0000   1.0000
     1.0000   1.0000   1.0000   1.0000   1.0000   1.0000   1.0000   1.0000
     1.0000   1.0000   1.0000   1.0000   1.0000   1.0000   0.0000   0.0000
     0.0000   0.0000   0.0000   0.0000   0.0000   0.0000   0.0000   0.0000
     0.0000

          k = 0.4166 0.2035 0.3901 ( 18982 PWs)   bands (ev):

   -72.7749 -68.2734 -63.6722 -63.6283 -39.3140 -38.7336 -38.6658 -37.3402
   -37.3300 -37.3089 -28.1979 -28.1735 -28.1099 -28.0796 -27.9760 -27.9565
    -7.4447  -7.2175  -6.9914  -6.8733  -6.5659  -6.4097  -6.0635  -6.0020
     4.0396   4.3836   4.4365   4.5459   4.8054   5.2233   5.4153   5.5392
     6.1755   6.2611   6.5739   6.8189   7.0038   7.3012   7.5144   7.5867
     7.7117   8.0183   8.2370   8.3291   8.6415   8.8296   8.9997   9.1473
     9.2353   9.3343  10.0405  10.3012  10.7933  11.0296  14.0320  14.3195
    14.5260  14.7627  14.9043  15.1560  16.3855  16.5509  17.2335  17.8586
    17.9661

     occupation numbers 
     1.0000   1.0000   1.0000   1.0000   1.0000   1.0000   1.0000   1.0000
     1.0000   1.0000   1.0000   1.0000   1.0000   1.0000   1.0000   1.0000
     1.0000   1.0000   1.0000   1.0000   1.0000   1.0000   1.0000   1.0000
     1.0000   1.0000   1.0000   1.0000   1.0000   1.0000   1.0000   1.0000
     1.0000   1.0000   1.0000   1.0000   1.0000   1.0000   1.0000   1.0000
     1.0000   1.0000   1.0000   1.0000   1.0000   1.0000   1.0000   1.0000
     1.0000   1.0000   1.0000   1.0000   1.0000   1.0000   0.0000   0.0000
     0.0000   0.0000   0.0000   0.0000   0.0000   0.0000   0.0000   0.0000
     0.0000

          k = 0.4167 0.2035-0.3812 ( 18972 PWs)   bands (ev):

   -72.7749 -68.2734 -63.6722 -63.6282 -39.3140 -38.7336 -38.6658 -37.3402
   -37.3300 -37.3089 -28.1978 -28.1735 -28.1098 -28.0797 -27.9759 -27.9566
    -7.4548  -7.1858  -6.9892  -6.8690  -6.5301  -6.4910  -6.0748  -5.9794
     4.0788   4.3301   4.4151   4.5620   4.9913   5.1019   5.3430   5.5981
     6.2118   6.3845   6.5990   6.6861   7.0591   7.1186   7.4281   7.6863
     7.7329   7.9800   8.2704   8.4268   8.6048   8.7992   8.9616   9.1010
     9.2261   9.4630  10.0079  10.3355  10.8329  10.9179  14.0153  14.3436
    14.5412  14.7027  14.8888  15.0979  16.4106  16.5398  17.2019  17.8749
    18.1642

     occupation numbers 
     1.0000   1.0000   1.0000   1.0000   1.0000   1.0000   1.0000   1.0000
     1.0000   1.0000   1.0000   1.0000   1.0000   1.0000   1.0000   1.0000
     1.0000   1.0000   1.0000   1.0000   1.0000   1.0000   1.0000   1.0000
     1.0000   1.0000   1.0000   1.0000   1.0000   1.0000   1.0000   1.0000
     1.0000   1.0000   1.0000   1.0000   1.0000   1.0000   1.0000   1.0000
     1.0000   1.0000   1.0000   1.0000   1.0000   1.0000   1.0000   1.0000
     1.0000   1.0000   1.0000   1.0000   1.0000   1.0000   0.0000   0.0000
     0.0000   0.0000   0.0000   0.0000   0.0000   0.0000   0.0000   0.0000
     0.0000

          k = 0.4167 0.2035-0.2269 ( 18964 PWs)   bands (ev):

   -72.7749 -68.2735 -63.6722 -63.6281 -39.3140 -38.7336 -38.6658 -37.3402
   -37.3300 -37.3088 -28.2051 -28.1564 -28.1193 -28.0649 -27.9906 -27.9564
    -7.7153  -7.1483  -6.8527  -6.7425  -6.6443  -6.4020  -6.0977  -5.9635
     3.9416   4.3489   4.5784   4.7660   4.8435   5.1321   5.3820   5.6153
     6.0496   6.2262   6.4705   6.7985   6.9272   7.2073   7.5528   7.7222
     7.8501   8.0351   8.1836   8.3950   8.6071   8.7978   8.9422   9.1125
     9.2710   9.5238   9.9500  10.3721  10.7126  10.9570  13.8497  14.3572
    14.5296  14.6569  14.8449  15.3106  16.4791  16.5505  17.1585  17.9068
    18.1800

     occupation numbers 
     1.0000   1.0000   1.0000   1.0000   1.0000   1.0000   1.0000   1.0000
     1.0000   1.0000   1.0000   1.0000   1.0000   1.0000   1.0000   1.0000
     1.0000   1.0000   1.0000   1.0000   1.0000   1.0000   1.0000   1.0000
     1.0000   1.0000   1.0000   1.0000   1.0000   1.0000   1.0000   1.0000
     1.0000   1.0000   1.0000   1.0000   1.0000   1.0000   1.0000   1.0000
     1.0000   1.0000   1.0000   1.0000   1.0000   1.0000   1.0000   1.0000
     1.0000   1.0000   1.0000   1.0000   1.0000   1.0000   0.0000   0.0000
     0.0000   0.0000   0.0000   0.0000   0.0000   0.0000   0.0000   0.0000
     0.0000

          k = 0.4167 0.2035-0.0727 ( 18978 PWs)   bands (ev):

   -72.7748 -68.2736 -63.6723 -63.6280 -39.3140 -38.7336 -38.6658 -37.3401
   -37.3301 -37.3088 -28.2085 -28.1406 -28.1283 -28.0483 -28.0083 -27.9581
    -7.8694  -7.1201  -6.9426  -6.6686  -6.5611  -6.2775  -6.1286  -5.9842
     3.8935   4.2877   4.5519   4.8162   4.9536   5.2008   5.3497   5.7007
     5.9224   6.1667   6.5243   6.7122   6.9634   7.3049   7.5049   7.6996
     7.8232   7.9289   8.1191   8.4537   8.5791   8.8136   8.9945   9.1455
     9.3171   9.6250   9.9490  10.4001  10.7132  10.8851  13.9407  14.2379
    14.3016  14.7408  14.9543  15.4551  16.5139  16.5671  17.1580  17.8815
    18.3702

     occupation numbers 
     1.0000   1.0000   1.0000   1.0000   1.0000   1.0000   1.0000   1.0000
     1.0000   1.0000   1.0000   1.0000   1.0000   1.0000   1.0000   1.0000
     1.0000   1.0000   1.0000   1.0000   1.0000   1.0000   1.0000   1.0000
     1.0000   1.0000   1.0000   1.0000   1.0000   1.0000   1.0000   1.0000
     1.0000   1.0000   1.0000   1.0000   1.0000   1.0000   1.0000   1.0000
     1.0000   1.0000   1.0000   1.0000   1.0000   1.0000   1.0000   1.0000
     1.0000   1.0000   1.0000   1.0000   1.0000   1.0000   0.0000   0.0000
     0.0000   0.0000   0.0000   0.0000   0.0000   0.0000   0.0000   0.0000
     0.0000

          k = 0.4166 0.3392 0.0816 ( 18948 PWs)   bands (ev):

   -72.7748 -68.2736 -63.6721 -63.6282 -39.3140 -38.7336 -38.6659 -37.3401
   -37.3301 -37.3088 -28.2081 -28.1399 -28.1272 -28.0487 -28.0097 -27.9585
    -7.8041  -7.1907  -7.0228  -6.6764  -6.5132  -6.2558  -6.0751  -6.0083
     3.7274   4.4128   4.4945   4.7661   5.0702   5.1889   5.5374   5.8192
     5.9323   6.1563   6.4935   6.6477   7.0100   7.2804   7.3703   7.6084
     7.8634   8.0094   8.1571   8.3878   8.5694   8.8033   8.9353   9.1440
     9.3118   9.5693   9.9066  10.3536  10.6398  10.8893  13.8650  14.2528
    14.3770  14.8981  14.9746  15.4777  16.5030  16.6144  17.1667  17.8304
    18.0400

     occupation numbers 
     1.0000   1.0000   1.0000   1.0000   1.0000   1.0000   1.0000   1.0000
     1.0000   1.0000   1.0000   1.0000   1.0000   1.0000   1.0000   1.0000
     1.0000   1.0000   1.0000   1.0000   1.0000   1.0000   1.0000   1.0000
     1.0000   1.0000   1.0000   1.0000   1.0000   1.0000   1.0000   1.0000
     1.0000   1.0000   1.0000   1.0000   1.0000   1.0000   1.0000   1.0000
     1.0000   1.0000   1.0000   1.0000   1.0000   1.0000   1.0000   1.0000
     1.0000   1.0000   1.0000   1.0000   1.0000   1.0000   0.0000   0.0000
     0.0000   0.0000   0.0000   0.0000   0.0000   0.0000   0.0000   0.0000
     0.0000

          k = 0.4166 0.3392 0.2358 ( 18956 PWs)   bands (ev):

   -72.7749 -68.2735 -63.6720 -63.6283 -39.3140 -38.7336 -38.6659 -37.3402
   -37.3300 -37.3088 -28.2054 -28.1567 -28.1187 -28.0651 -27.9908 -27.9559
    -7.6669  -7.2518  -6.9634  -6.7498  -6.4671  -6.3400  -6.1247  -5.9879
     3.7809   4.3188   4.6109   4.7388   4.8580   5.1807   5.5809   5.6902
     5.9167   6.1271   6.4738   6.7373   7.3312   7.4498   7.5169   7.6781
     7.8138   7.9427   8.1769   8.2464   8.6605   8.7808   8.8471   9.0464
     9.2327   9.3814   9.9407  10.2311  10.6873  11.0614  13.8260  14.3687
    14.4875  14.7461  15.0133  15.3785  16.4293  16.5899  17.2492  17.7928
    17.8725

     occupation numbers 
     1.0000   1.0000   1.0000   1.0000   1.0000   1.0000   1.0000   1.0000
     1.0000   1.0000   1.0000   1.0000   1.0000   1.0000   1.0000   1.0000
     1.0000   1.0000   1.0000   1.0000   1.0000   1.0000   1.0000   1.0000
     1.0000   1.0000   1.0000   1.0000   1.0000   1.0000   1.0000   1.0000
     1.0000   1.0000   1.0000   1.0000   1.0000   1.0000   1.0000   1.0000
     1.0000   1.0000   1.0000   1.0000   1.0000   1.0000   1.0000   1.0000
     1.0000   1.0000   1.0000   1.0000   1.0000   1.0000   0.0000   0.0000
     0.0000   0.0000   0.0000   0.0000   0.0000   0.0000   0.0000   0.0000
     0.0000

          k = 0.4166 0.3392 0.3901 ( 18971 PWs)   bands (ev):

   -72.7749 -68.2734 -63.6720 -63.6284 -39.3140 -38.7336 -38.6658 -37.3402
   -37.3300 -37.3089 -28.1986 -28.1747 -28.1097 -28.0794 -27.9751 -27.9555
    -7.4441  -7.2921  -6.9610  -6.8897  -6.4633  -6.3889  -6.0844  -6.0387
     3.9822   4.3001   4.4088   4.5498   4.8902   5.1343   5.4518   5.7319
     6.1427   6.2401   6.5825   6.9213   7.2197   7.3540   7.4063   7.7532
     7.7982   8.0807   8.1826   8.2201   8.5822   8.7403   8.8796   9.0222
     9.1963   9.3213  10.0215  10.1480  10.7631  10.9651  13.9970  14.3640
    14.4619  14.6917  14.9917  15.1944  16.3505  16.5540  17.2617  17.7802
    17.9342

     occupation numbers 
     1.0000   1.0000   1.0000   1.0000   1.0000   1.0000   1.0000   1.0000
     1.0000   1.0000   1.0000   1.0000   1.0000   1.0000   1.0000   1.0000
     1.0000   1.0000   1.0000   1.0000   1.0000   1.0000   1.0000   1.0000
     1.0000   1.0000   1.0000   1.0000   1.0000   1.0000   1.0000   1.0000
     1.0000   1.0000   1.0000   1.0000   1.0000   1.0000   1.0000   1.0000
     1.0000   1.0000   1.0000   1.0000   1.0000   1.0000   1.0000   1.0000
     1.0000   1.0000   1.0000   1.0000   1.0000   1.0000   0.0000   0.0000
     0.0000   0.0000   0.0000   0.0000   0.0000   0.0000   0.0000   0.0000
     0.0000

          k = 0.4167 0.3392-0.3812 ( 18959 PWs)   bands (ev):

   -72.7749 -68.2734 -63.6720 -63.6284 -39.3140 -38.7336 -38.6658 -37.3402
   -37.3300 -37.3089 -28.1986 -28.1747 -28.1096 -28.0795 -27.9750 -27.9556
    -7.4521  -7.2389  -6.9915  -6.8928  -6.4545  -6.4292  -6.1201  -5.9884
     4.1025   4.2728   4.4451   4.5362   4.8569   5.0832   5.2940   5.7395
     6.2156   6.4402   6.5236   6.9692   7.1014   7.3359   7.4504   7.6641
     7.7974   8.1146   8.1450   8.3345   8.4660   8.7799   8.8698   9.0676
     9.1201   9.4554   9.9809  10.2128  10.7003  10.9071  13.9807  14.3116
    14.5266  14.7235  14.9234  15.0966  16.3832  16.5412  17.2091  17.7937
    18.1739

     occupation numbers 
     1.0000   1.0000   1.0000   1.0000   1.0000   1.0000   1.0000   1.0000
     1.0000   1.0000   1.0000   1.0000   1.0000   1.0000   1.0000   1.0000
     1.0000   1.0000   1.0000   1.0000   1.0000   1.0000   1.0000   1.0000
     1.0000   1.0000   1.0000   1.0000   1.0000   1.0000   1.0000   1.0000
     1.0000   1.0000   1.0000   1.0000   1.0000   1.0000   1.0000   1.0000
     1.0000   1.0000   1.0000   1.0000   1.0000   1.0000   1.0000   1.0000
     1.0000   1.0000   1.0000   1.0000   1.0000   1.0000   0.0000   0.0000
     0.0000   0.0000   0.0000   0.0000   0.0000   0.0000   0.0000   0.0000
     0.0000

          k = 0.4167 0.3392-0.2269 ( 18957 PWs)   bands (ev):

   -72.7749 -68.2735 -63.6721 -63.6283 -39.3140 -38.7336 -38.6658 -37.3402
   -37.3300 -37.3088 -28.2053 -28.1567 -28.1185 -28.0654 -27.9907 -27.9560
    -7.6647  -7.2168  -6.8977  -6.7595  -6.6057  -6.3825  -6.0824  -5.9528
     3.8780   4.4249   4.6400   4.6914   4.8704   4.9639   5.3873   5.7962
     6.0542   6.2117   6.3988   6.9704   7.0473   7.3535   7.6030   7.7318
     7.8412   7.9872   8.1123   8.2647   8.4595   8.8043   8.9122   9.1291
     9.2687   9.4803   9.9085  10.3337  10.6085  10.8734  13.8263  14.4099
    14.5297  14.7217  14.8054  15.2749  16.4969  16.5546  17.1215  17.8684
    18.1393

     occupation numbers 
     1.0000   1.0000   1.0000   1.0000   1.0000   1.0000   1.0000   1.0000
     1.0000   1.0000   1.0000   1.0000   1.0000   1.0000   1.0000   1.0000
     1.0000   1.0000   1.0000   1.0000   1.0000   1.0000   1.0000   1.0000
     1.0000   1.0000   1.0000   1.0000   1.0000   1.0000   1.0000   1.0000
     1.0000   1.0000   1.0000   1.0000   1.0000   1.0000   1.0000   1.0000
     1.0000   1.0000   1.0000   1.0000   1.0000   1.0000   1.0000   1.0000
     1.0000   1.0000   1.0000   1.0000   1.0000   1.0000   0.0000   0.0000
     0.0000   0.0000   0.0000   0.0000   0.0000   0.0000   0.0000   0.0000
     0.0000

          k = 0.4167 0.3392-0.0727 ( 18963 PWs)   bands (ev):

   -72.7748 -68.2736 -63.6721 -63.6281 -39.3140 -38.7336 -38.6659 -37.3401
   -37.3301 -37.3088 -28.2080 -28.1401 -28.1271 -28.0489 -28.0096 -27.9585
    -7.8030  -7.1961  -6.9476  -6.6802  -6.6130  -6.2773  -6.0506  -5.9836
     3.7667   4.4015   4.5656   4.7019   5.0843   5.2049   5.4448   5.7719
     6.0018   6.1985   6.4494   6.8105   6.8920   7.2342   7.4633   7.5688
     7.8268   7.9428   8.1419   8.3824   8.6619   8.8442   8.9184   9.1714
     9.2807   9.5929   9.9473  10.4175  10.5745  10.7691  13.8899  14.3149
    14.3407  14.8380  14.9044  15.4426  16.5356  16.5930  17.0953  17.8915
    18.1537

     occupation numbers 
     1.0000   1.0000   1.0000   1.0000   1.0000   1.0000   1.0000   1.0000
     1.0000   1.0000   1.0000   1.0000   1.0000   1.0000   1.0000   1.0000
     1.0000   1.0000   1.0000   1.0000   1.0000   1.0000   1.0000   1.0000
     1.0000   1.0000   1.0000   1.0000   1.0000   1.0000   1.0000   1.0000
     1.0000   1.0000   1.0000   1.0000   1.0000   1.0000   1.0000   1.0000
     1.0000   1.0000   1.0000   1.0000   1.0000   1.0000   1.0000   1.0000
     1.0000   1.0000   1.0000   1.0000   1.0000   1.0000   0.0000   0.0000
     0.0000   0.0000   0.0000   0.0000   0.0000   0.0000   0.0000   0.0000
     0.0000

 ------ SPIN DOWN ----------


          k = 0.0833 0.0678 0.0780 ( 18955 PWs)   bands (ev):

   -76.7565 -63.7119 -63.6384 -63.6197 -44.1672 -42.5539 -42.4222 -32.5304
   -32.5138 -32.4999 -28.1798 -28.1080 -28.0981 -28.0198 -27.9812 -27.9356
    -8.2442  -6.9942  -6.8040  -6.6753  -6.4731  -6.3447  -6.0911  -5.8546
     3.7487   3.8365   4.0489   4.1934   4.2541   4.4974   4.9686   5.3607
     5.5075   5.8081   6.2042   6.3452   6.7272   6.8918   7.0396   7.2941
     7.6128   7.9124   8.0768   8.2004   8.3756   8.6856   8.8330   8.9965
     9.3107   9.5193   9.6834   9.8894  10.0192  13.9260  14.0563  14.3932
    14.6699  15.1991  15.3322  16.8376  16.9016  17.0440  17.3091  17.8955
    18.0512

     occupation numbers 
     1.0000   1.0000   1.0000   1.0000   1.0000   1.0000   1.0000   1.0000
     1.0000   1.0000   1.0000   1.0000   1.0000   1.0000   1.0000   1.0000
     1.0000   1.0000   1.0000   1.0000   1.0000   1.0000   1.0000   1.0000
     1.0000   1.0000   1.0000   1.0000   1.0000   1.0000   1.0000   1.0000
     1.0000   1.0000   1.0000   1.0000   1.0000   1.0000   1.0000   1.0000
     1.0000   1.0000   1.0000   1.0000   1.0000   1.0000   1.0000   1.0000
     1.0000   1.0000   1.0000   1.0000   1.0000   0.0000   0.0000   0.0000
     0.0000   0.0000   0.0000   0.0000   0.0000   0.0000   0.0000   0.0000
     0.0000

          k = 0.0833 0.0678 0.2323 ( 18941 PWs)   bands (ev):

   -76.7565 -63.7119 -63.6378 -63.6203 -44.1672 -42.5539 -42.4222 -32.5304
   -32.5138 -32.4999 -28.1767 -28.1213 -28.0900 -28.0370 -27.9644 -27.9343
    -8.0420  -7.0060  -6.9545  -6.8207  -6.3579  -6.2931  -6.1223  -5.9139
     3.7728   3.8647   4.0219   4.2201   4.4539   4.5641   4.8410   5.2403
     5.5000   5.8248   5.9994   6.4123   6.7131   6.9127   7.0973   7.3784
     7.6042   7.7248   7.9777   8.2094   8.4139   8.5626   8.8701   9.0645
     9.3634   9.4702   9.6788   9.9362  10.1827  14.0396  14.1544  14.3710
    14.6380  15.0606  15.1435  16.8758  16.9685  17.1460  17.6533  17.7892
    17.9947

     occupation numbers 
     1.0000   1.0000   1.0000   1.0000   1.0000   1.0000   1.0000   1.0000
     1.0000   1.0000   1.0000   1.0000   1.0000   1.0000   1.0000   1.0000
     1.0000   1.0000   1.0000   1.0000   1.0000   1.0000   1.0000   1.0000
     1.0000   1.0000   1.0000   1.0000   1.0000   1.0000   1.0000   1.0000
     1.0000   1.0000   1.0000   1.0000   1.0000   1.0000   1.0000   1.0000
     1.0000   1.0000   1.0000   1.0000   1.0000   1.0000   1.0000   1.0000
     1.0000   1.0000   1.0000   1.0000   1.0000   0.0000   0.0000   0.0000
     0.0000   0.0000   0.0000   0.0000   0.0000   0.0000   0.0000   0.0000
     0.0000

          k = 0.0833 0.0678 0.3865 ( 18966 PWs)   bands (ev):

   -76.7565 -63.7119 -63.6372 -63.6210 -44.1672 -42.5539 -42.4222 -32.5304
   -32.5138 -32.4998 -28.1711 -28.1351 -28.0799 -28.0533 -27.9504 -27.9351
    -7.6837  -7.2786  -6.9926  -6.9233  -6.3239  -6.2895  -6.0714  -5.9795
     3.7663   3.8420   3.9760   4.0607   4.5648   4.8651   5.1102   5.2527
     5.4950   5.7488   5.8526   6.4399   6.7135   6.8451   7.0595   7.2409
     7.4756   7.6155   7.7702   8.2670   8.4499   8.6208   8.8404   9.2291
     9.4118   9.5217   9.6565   9.9521  10.2499  14.1709  14.2871  14.4330
    14.5917  14.7590  14.9215  16.9049  16.9595  17.1760  17.6011  17.8488
    18.4491

     occupation numbers 
     1.0000   1.0000   1.0000   1.0000   1.0000   1.0000   1.0000   1.0000
     1.0000   1.0000   1.0000   1.0000   1.0000   1.0000   1.0000   1.0000
     1.0000   1.0000   1.0000   1.0000   1.0000   1.0000   1.0000   1.0000
     1.0000   1.0000   1.0000   1.0000   1.0000   1.0000   1.0000   1.0000
     1.0000   1.0000   1.0000   1.0000   1.0000   1.0000   1.0000   1.0000
     1.0000   1.0000   1.0000   1.0000   1.0000   1.0000   1.0000   1.0000
     1.0000   1.0000   1.0000   1.0000   1.0000   0.0000   0.0000   0.0000
     0.0000   0.0000   0.0000   0.0000   0.0000   0.0000   0.0000   0.0000
     0.0000

          k = 0.0834 0.0678-0.3847 ( 18949 PWs)   bands (ev):

   -76.7565 -63.7119 -63.6371 -63.6210 -44.1672 -42.5539 -42.4222 -32.5304
   -32.5138 -32.4998 -28.1711 -28.1351 -28.0799 -28.0533 -27.9503 -27.9352
    -7.6968  -7.2561  -6.9852  -6.9050  -6.3671  -6.3047  -6.0646  -5.9686
     3.7153   3.8764   3.9396   4.1226   4.6001   4.7945   5.1046   5.2675
     5.5418   5.6880   5.9673   6.5511   6.6751   6.8701   7.1010   7.2257
     7.3762   7.5893   7.6701   8.3678   8.4863   8.5817   8.8336   9.1993
     9.3155   9.5441   9.6219   9.9865  10.2454  14.1200  14.3503  14.4557
    14.5449  14.7009  14.8945  16.9136  17.0046  17.1767  17.5570  17.9441
    18.4351

     occupation numbers 
     1.0000   1.0000   1.0000   1.0000   1.0000   1.0000   1.0000   1.0000
     1.0000   1.0000   1.0000   1.0000   1.0000   1.0000   1.0000   1.0000
     1.0000   1.0000   1.0000   1.0000   1.0000   1.0000   1.0000   1.0000
     1.0000   1.0000   1.0000   1.0000   1.0000   1.0000   1.0000   1.0000
     1.0000   1.0000   1.0000   1.0000   1.0000   1.0000   1.0000   1.0000
     1.0000   1.0000   1.0000   1.0000   1.0000   1.0000   1.0000   1.0000
     1.0000   1.0000   1.0000   1.0000   1.0000   0.0000   0.0000   0.0000
     0.0000   0.0000   0.0000   0.0000   0.0000   0.0000   0.0000   0.0000
     0.0000

          k = 0.0834 0.0678-0.2305 ( 18942 PWs)   bands (ev):

   -76.7565 -63.7119 -63.6378 -63.6204 -44.1672 -42.5539 -42.4222 -32.5304
   -32.5138 -32.4998 -28.1766 -28.1213 -28.0899 -28.0371 -27.9643 -27.9345
    -8.0501  -6.9932  -6.9023  -6.7722  -6.4449  -6.3699  -6.1065  -5.8821
     3.6920   3.8724   4.0072   4.3393   4.4603   4.5178   4.9151   5.1436
     5.5600   5.9221   6.0813   6.4823   6.6569   6.9740   7.1665   7.3883
     7.4897   7.7296   7.7697   8.2465   8.5060   8.6051   8.7054   8.9954
     9.3138   9.4513   9.6622   9.9619  10.1923  14.0406  14.1539  14.3326
    14.5655  14.9574  15.1543  16.8980  17.0460  17.1430  17.5733  17.8832
    18.0911

     occupation numbers 
     1.0000   1.0000   1.0000   1.0000   1.0000   1.0000   1.0000   1.0000
     1.0000   1.0000   1.0000   1.0000   1.0000   1.0000   1.0000   1.0000
     1.0000   1.0000   1.0000   1.0000   1.0000   1.0000   1.0000   1.0000
     1.0000   1.0000   1.0000   1.0000   1.0000   1.0000   1.0000   1.0000
     1.0000   1.0000   1.0000   1.0000   1.0000   1.0000   1.0000   1.0000
     1.0000   1.0000   1.0000   1.0000   1.0000   1.0000   1.0000   1.0000
     1.0000   1.0000   1.0000   1.0000   1.0000   0.0000   0.0000   0.0000
     0.0000   0.0000   0.0000   0.0000   0.0000   0.0000   0.0000   0.0000
     0.0000

          k = 0.0833 0.0678-0.0762 ( 18946 PWs)   bands (ev):

   -76.7565 -63.7119 -63.6384 -63.6198 -44.1672 -42.5539 -42.4222 -32.5304
   -32.5138 -32.4999 -28.1798 -28.1082 -28.0979 -28.0199 -27.9811 -27.9357
    -8.2470  -6.9930  -6.7230  -6.6560  -6.5318  -6.4180  -6.0809  -5.8369
     3.7227   3.7866   4.0588   4.2429   4.3059   4.5106   4.8373   5.4883
     5.6235   5.7828   6.1533   6.3168   6.6608   6.9145   7.2995   7.3976
     7.4557   7.7692   7.9372   8.2931   8.4633   8.7029   8.7440   8.9104
     9.2653   9.5215   9.7336   9.8694  10.0420  13.9179  14.1054  14.3091
    14.6341  15.1570  15.3369  16.8448  16.9605  17.0505  17.3058  17.9023
    18.1097

     occupation numbers 
     1.0000   1.0000   1.0000   1.0000   1.0000   1.0000   1.0000   1.0000
     1.0000   1.0000   1.0000   1.0000   1.0000   1.0000   1.0000   1.0000
     1.0000   1.0000   1.0000   1.0000   1.0000   1.0000   1.0000   1.0000
     1.0000   1.0000   1.0000   1.0000   1.0000   1.0000   1.0000   1.0000
     1.0000   1.0000   1.0000   1.0000   1.0000   1.0000   1.0000   1.0000
     1.0000   1.0000   1.0000   1.0000   1.0000   1.0000   1.0000   1.0000
     1.0000   1.0000   1.0000   1.0000   1.0000   0.0000   0.0000   0.0000
     0.0000   0.0000   0.0000   0.0000   0.0000   0.0000   0.0000   0.0000
     0.0000

          k = 0.0833 0.2035 0.0780 ( 18958 PWs)   bands (ev):

   -76.7566 -63.7119 -63.6384 -63.6198 -44.1672 -42.5539 -42.4222 -32.5304
   -32.5137 -32.4999 -28.1794 -28.1076 -28.0968 -28.0202 -27.9828 -27.9360
    -8.1412  -7.0643  -6.8987  -6.6269  -6.5166  -6.3412  -6.0955  -5.8270
     3.8075   3.9515   4.1022   4.2558   4.3646   4.6808   4.9525   5.2025
     5.4504   5.7190   6.0945   6.1672   6.6896   6.8150   7.0765   7.2283
     7.6122   7.8970   8.1774   8.2498   8.4856   8.7027   8.8097   8.9238
     9.1454   9.5207   9.5852   9.9079  10.1159  13.8613  14.0501  14.4510
    14.8051  15.1543  15.2861  16.8422  17.0099  17.1466  17.5878  17.9827
    18.0781

     occupation numbers 
     1.0000   1.0000   1.0000   1.0000   1.0000   1.0000   1.0000   1.0000
     1.0000   1.0000   1.0000   1.0000   1.0000   1.0000   1.0000   1.0000
     1.0000   1.0000   1.0000   1.0000   1.0000   1.0000   1.0000   1.0000
     1.0000   1.0000   1.0000   1.0000   1.0000   1.0000   1.0000   1.0000
     1.0000   1.0000   1.0000   1.0000   1.0000   1.0000   1.0000   1.0000
     1.0000   1.0000   1.0000   1.0000   1.0000   1.0000   1.0000   1.0000
     1.0000   1.0000   1.0000   1.0000   1.0000   0.0000   0.0000   0.0000
     0.0000   0.0000   0.0000   0.0000   0.0000   0.0000   0.0000   0.0000
     0.0000

          k = 0.0833 0.2035 0.2323 ( 18968 PWs)   bands (ev):

   -76.7565 -63.7119 -63.6378 -63.6204 -44.1672 -42.5539 -42.4222 -32.5304
   -32.5137 -32.4999 -28.1771 -28.1215 -28.0894 -28.0375 -27.9647 -27.9338
    -7.9555  -7.1197  -6.9584  -6.7230  -6.4071  -6.2960  -6.2030  -5.8790
     3.7939   3.9355   4.0497   4.3620   4.5032   4.7610   4.7836   5.2379
     5.4600   5.6765   6.2010   6.3071   6.4645   6.7928   7.0249   7.4057
     7.5388   7.8713   8.0194   8.1809   8.3837   8.6341   8.7699   9.0887
     9.1377   9.4540   9.5840  10.0169  10.2361  13.9043  14.2362  14.4671
    14.7307  15.0608  15.0996  16.9445  17.0291  17.1473  17.8201  17.9104
    18.1033

     occupation numbers 
     1.0000   1.0000   1.0000   1.0000   1.0000   1.0000   1.0000   1.0000
     1.0000   1.0000   1.0000   1.0000   1.0000   1.0000   1.0000   1.0000
     1.0000   1.0000   1.0000   1.0000   1.0000   1.0000   1.0000   1.0000
     1.0000   1.0000   1.0000   1.0000   1.0000   1.0000   1.0000   1.0000
     1.0000   1.0000   1.0000   1.0000   1.0000   1.0000   1.0000   1.0000
     1.0000   1.0000   1.0000   1.0000   1.0000   1.0000   1.0000   1.0000
     1.0000   1.0000   1.0000   1.0000   1.0000   0.0000   0.0000   0.0000
     0.0000   0.0000   0.0000   0.0000   0.0000   0.0000   0.0000   0.0000
     0.0000

          k = 0.0833 0.2035 0.3865 ( 18948 PWs)   bands (ev):

   -76.7565 -63.7120 -63.6371 -63.6210 -44.1672 -42.5539 -42.4222 -32.5303
   -32.5138 -32.4998 -28.1722 -28.1362 -28.0798 -28.0533 -27.9495 -27.9340
    -7.6344  -7.3074  -6.9483  -6.8619  -6.3896  -6.3556  -6.1004  -5.9776
     3.7689   3.9284   4.0665   4.1796   4.5625   4.7597   5.1178   5.3522
     5.5001   5.7911   6.0597   6.2343   6.6143   6.7436   7.0730   7.1903
     7.4373   7.7071   7.8618   8.1304   8.4114   8.5593   8.6869   9.2035
     9.3281   9.4921   9.5665  10.0069  10.3254  14.0313  14.2980  14.4880
    14.7297  14.8077  14.9458  16.9928  17.0733  17.1586  17.6941  17.8334
    18.4722

     occupation numbers 
     1.0000   1.0000   1.0000   1.0000   1.0000   1.0000   1.0000   1.0000
     1.0000   1.0000   1.0000   1.0000   1.0000   1.0000   1.0000   1.0000
     1.0000   1.0000   1.0000   1.0000   1.0000   1.0000   1.0000   1.0000
     1.0000   1.0000   1.0000   1.0000   1.0000   1.0000   1.0000   1.0000
     1.0000   1.0000   1.0000   1.0000   1.0000   1.0000   1.0000   1.0000
     1.0000   1.0000   1.0000   1.0000   1.0000   1.0000   1.0000   1.0000
     1.0000   1.0000   1.0000   1.0000   1.0000   0.0000   0.0000   0.0000
     0.0000   0.0000   0.0000   0.0000   0.0000   0.0000   0.0000   0.0000
     0.0000

          k = 0.0834 0.2035-0.3847 ( 18957 PWs)   bands (ev):

   -76.7565 -63.7120 -63.6371 -63.6211 -44.1672 -42.5539 -42.4222 -32.5304
   -32.5138 -32.4998 -28.1722 -28.1361 -28.0798 -28.0534 -27.9494 -27.9341
    -7.6417  -7.2812  -6.9725  -6.8216  -6.4728  -6.2994  -6.1448  -5.9462
     3.7757   3.9467   4.0109   4.2603   4.5136   4.8416   5.0209   5.3068
     5.5927   5.7320   6.0920   6.3662   6.6365   6.7889   6.9423   7.0992
     7.4499   7.7124   7.8920   8.1517   8.4609   8.5509   8.6604   9.1790
     9.2758   9.4948   9.6395   9.9387  10.3065  14.0201  14.3017  14.4921
    14.6702  14.7805  14.9174  16.9594  17.1246  17.1708  17.6394  17.9193
    18.5850

     occupation numbers 
     1.0000   1.0000   1.0000   1.0000   1.0000   1.0000   1.0000   1.0000
     1.0000   1.0000   1.0000   1.0000   1.0000   1.0000   1.0000   1.0000
     1.0000   1.0000   1.0000   1.0000   1.0000   1.0000   1.0000   1.0000
     1.0000   1.0000   1.0000   1.0000   1.0000   1.0000   1.0000   1.0000
     1.0000   1.0000   1.0000   1.0000   1.0000   1.0000   1.0000   1.0000
     1.0000   1.0000   1.0000   1.0000   1.0000   1.0000   1.0000   1.0000
     1.0000   1.0000   1.0000   1.0000   1.0000   0.0000   0.0000   0.0000
     0.0000   0.0000   0.0000   0.0000   0.0000   0.0000   0.0000   0.0000
     0.0000

          k = 0.0834 0.2035-0.2305 ( 18959 PWs)   bands (ev):

   -76.7565 -63.7119 -63.6377 -63.6204 -44.1672 -42.5539 -42.4222 -32.5304
   -32.5137 -32.4998 -28.1770 -28.1215 -28.0892 -28.0377 -27.9646 -27.9339
    -7.9596  -7.0650  -6.9586  -6.6760  -6.5134  -6.3687  -6.1576  -5.8526
     3.8049   3.9390   4.0572   4.3562   4.4590   4.7147   4.9309   5.2020
     5.4822   5.7636   6.1273   6.3250   6.5119   6.8170   6.9507   7.4212
     7.6557   7.7265   7.9642   8.3109   8.3708   8.6295   8.7451   9.0023
     9.1934   9.4409   9.6594   9.8422  10.2282  13.9061  14.2251  14.3950
    14.7287  14.8777  15.1338  16.8821  17.1232  17.1711  17.7091  18.0498
    18.2510

     occupation numbers 
     1.0000   1.0000   1.0000   1.0000   1.0000   1.0000   1.0000   1.0000
     1.0000   1.0000   1.0000   1.0000   1.0000   1.0000   1.0000   1.0000
     1.0000   1.0000   1.0000   1.0000   1.0000   1.0000   1.0000   1.0000
     1.0000   1.0000   1.0000   1.0000   1.0000   1.0000   1.0000   1.0000
     1.0000   1.0000   1.0000   1.0000   1.0000   1.0000   1.0000   1.0000
     1.0000   1.0000   1.0000   1.0000   1.0000   1.0000   1.0000   1.0000
     1.0000   1.0000   1.0000   1.0000   1.0000   0.0000   0.0000   0.0000
     0.0000   0.0000   0.0000   0.0000   0.0000   0.0000   0.0000   0.0000
     0.0000

          k = 0.0833 0.2035-0.0762 ( 18948 PWs)   bands (ev):

   -76.7566 -63.7119 -63.6383 -63.6198 -44.1672 -42.5539 -42.4222 -32.5304
   -32.5137 -32.4999 -28.1794 -28.1078 -28.0967 -28.0203 -27.9827 -27.9361
    -8.1428  -7.0597  -6.8250  -6.6654  -6.5483  -6.3822  -6.0803  -5.8126
     3.8436   3.8752   4.1535   4.2698   4.3346   4.7111   4.8847   5.3167
     5.4525   5.7278   6.1009   6.2255   6.4644   6.8221   7.1861   7.3443
     7.6370   7.7778   8.0821   8.3353   8.5328   8.5828   8.8034   9.0159
     9.1647   9.4629   9.6138   9.8272  10.1207  13.8633  14.0563  14.3919
    14.7997  15.0787  15.2983  16.8173  17.0574  17.1582  17.6051  17.9637
    18.1604

     occupation numbers 
     1.0000   1.0000   1.0000   1.0000   1.0000   1.0000   1.0000   1.0000
     1.0000   1.0000   1.0000   1.0000   1.0000   1.0000   1.0000   1.0000
     1.0000   1.0000   1.0000   1.0000   1.0000   1.0000   1.0000   1.0000
     1.0000   1.0000   1.0000   1.0000   1.0000   1.0000   1.0000   1.0000
     1.0000   1.0000   1.0000   1.0000   1.0000   1.0000   1.0000   1.0000
     1.0000   1.0000   1.0000   1.0000   1.0000   1.0000   1.0000   1.0000
     1.0000   1.0000   1.0000   1.0000   1.0000   0.0000   0.0000   0.0000
     0.0000   0.0000   0.0000   0.0000   0.0000   0.0000   0.0000   0.0000
     0.0000

          k = 0.0833 0.3392 0.0780 ( 18936 PWs)   bands (ev):

   -76.7566 -63.7119 -63.6383 -63.6198 -44.1672 -42.5539 -42.4222 -32.5304
   -32.5137 -32.4999 -28.1791 -28.1073 -28.0955 -28.0206 -27.9844 -27.9364
    -8.0017  -7.2511  -6.8795  -6.5918  -6.5543  -6.3617  -6.1004  -5.8008
     3.9011   4.1063   4.1438   4.3179   4.4888   4.7613   4.9452   5.1646
     5.3517   5.6566   5.7978   6.1711   6.5220   6.8242   7.0399   7.3017
     7.6577   7.9438   7.9944   8.3517   8.4932   8.6333   8.8636   8.9210
     9.0718   9.3987   9.6031   9.9401  10.1833  13.7350  14.1976  14.5247
    14.7960  15.1669  15.2340  16.8344  17.0697  17.1789  17.9495  18.0989
    18.2654

     occupation numbers 
     1.0000   1.0000   1.0000   1.0000   1.0000   1.0000   1.0000   1.0000
     1.0000   1.0000   1.0000   1.0000   1.0000   1.0000   1.0000   1.0000
     1.0000   1.0000   1.0000   1.0000   1.0000   1.0000   1.0000   1.0000
     1.0000   1.0000   1.0000   1.0000   1.0000   1.0000   1.0000   1.0000
     1.0000   1.0000   1.0000   1.0000   1.0000   1.0000   1.0000   1.0000
     1.0000   1.0000   1.0000   1.0000   1.0000   1.0000   1.0000   1.0000
     1.0000   1.0000   1.0000   1.0000   1.0000   0.0000   0.0000   0.0000
     0.0000   0.0000   0.0000   0.0000   0.0000   0.0000   0.0000   0.0000
     0.0000

          k = 0.0833 0.3392 0.2323 ( 18967 PWs)   bands (ev):

   -76.7565 -63.7119 -63.6378 -63.6204 -44.1672 -42.5539 -42.4222 -32.5304
   -32.5137 -32.4999 -28.1775 -28.1218 -28.0887 -28.0381 -27.9649 -27.9334
    -7.8396  -7.2667  -6.9171  -6.6455  -6.4507  -6.3580  -6.2396  -5.8554
     3.8263   4.0321   4.1655   4.3935   4.4273   4.7308   5.0692   5.2897
     5.5616   5.5939   5.9723   6.2276   6.5136   6.7247   6.8663   7.2292
     7.4825   7.9203   8.0990   8.2768   8.4186   8.6043   8.7150   8.9477
     9.1836   9.3011   9.5981  10.0501  10.2572  13.8124  14.3147  14.6112
    14.7558  14.9635  15.1435  16.9938  17.0904  17.1403  17.8881  18.0013
    18.3666

     occupation numbers 
     1.0000   1.0000   1.0000   1.0000   1.0000   1.0000   1.0000   1.0000
     1.0000   1.0000   1.0000   1.0000   1.0000   1.0000   1.0000   1.0000
     1.0000   1.0000   1.0000   1.0000   1.0000   1.0000   1.0000   1.0000
     1.0000   1.0000   1.0000   1.0000   1.0000   1.0000   1.0000   1.0000
     1.0000   1.0000   1.0000   1.0000   1.0000   1.0000   1.0000   1.0000
     1.0000   1.0000   1.0000   1.0000   1.0000   1.0000   1.0000   1.0000
     1.0000   1.0000   1.0000   1.0000   1.0000   0.0000   0.0000   0.0000
     0.0000   0.0000   0.0000   0.0000   0.0000   0.0000   0.0000   0.0000
     0.0000

          k = 0.0833 0.3392 0.3865 ( 18966 PWs)   bands (ev):

   -76.7565 -63.7120 -63.6371 -63.6210 -44.1672 -42.5539 -42.4222 -32.5303
   -32.5137 -32.4998 -28.1733 -28.1372 -28.0797 -28.0534 -27.9486 -27.9329
    -7.5711  -7.3575  -6.8559  -6.7733  -6.5042  -6.4659  -6.1042  -5.9751
     3.8018   4.0068   4.1483   4.3292   4.5015   4.6115   5.1749   5.4848
     5.6451   5.8252   6.0610   6.3606   6.4208   6.6271   6.9523   7.0710
     7.3766   7.6795   7.8976   8.1675   8.3423   8.5256   8.6894   9.1468
     9.2922   9.3070   9.5445  10.0420  10.3994  13.9622  14.3057  14.5261
    14.7668  14.8301  15.0469  17.0760  17.1530  17.1591  17.7762  17.8437
    18.3766

     occupation numbers 
     1.0000   1.0000   1.0000   1.0000   1.0000   1.0000   1.0000   1.0000
     1.0000   1.0000   1.0000   1.0000   1.0000   1.0000   1.0000   1.0000
     1.0000   1.0000   1.0000   1.0000   1.0000   1.0000   1.0000   1.0000
     1.0000   1.0000   1.0000   1.0000   1.0000   1.0000   1.0000   1.0000
     1.0000   1.0000   1.0000   1.0000   1.0000   1.0000   1.0000   1.0000
     1.0000   1.0000   1.0000   1.0000   1.0000   1.0000   1.0000   1.0000
     1.0000   1.0000   1.0000   1.0000   1.0000   0.0000   0.0000   0.0000
     0.0000   0.0000   0.0000   0.0000   0.0000   0.0000   0.0000   0.0000
     0.0000

          k = 0.0834 0.3392-0.3847 ( 18934 PWs)   bands (ev):

   -76.7565 -63.7120 -63.6371 -63.6211 -44.1672 -42.5539 -42.4222 -32.5304
   -32.5137 -32.4998 -28.1733 -28.1372 -28.0796 -28.0535 -27.9485 -27.9330
    -7.5804  -7.3059  -6.9329  -6.7342  -6.5626  -6.3843  -6.1787  -5.9329
     3.8279   4.0226   4.1506   4.3570   4.4244   4.7424   5.0685   5.4422
     5.6207   5.7876   6.1731   6.3147   6.4442   6.7027   6.8624   7.0918
     7.3242   7.8022   7.8748   8.1472   8.3337   8.5659   8.7428   9.0909
     9.1818   9.3972   9.6140   9.9549  10.3651  14.0183  14.1812  14.5146
    14.7301  14.8590  15.0030  17.0396  17.1408  17.1991  17.7409  17.8844
    18.3790

     occupation numbers 
     1.0000   1.0000   1.0000   1.0000   1.0000   1.0000   1.0000   1.0000
     1.0000   1.0000   1.0000   1.0000   1.0000   1.0000   1.0000   1.0000
     1.0000   1.0000   1.0000   1.0000   1.0000   1.0000   1.0000   1.0000
     1.0000   1.0000   1.0000   1.0000   1.0000   1.0000   1.0000   1.0000
     1.0000   1.0000   1.0000   1.0000   1.0000   1.0000   1.0000   1.0000
     1.0000   1.0000   1.0000   1.0000   1.0000   1.0000   1.0000   1.0000
     1.0000   1.0000   1.0000   1.0000   1.0000   0.0000   0.0000   0.0000
     0.0000   0.0000   0.0000   0.0000   0.0000   0.0000   0.0000   0.0000
     0.0000

          k = 0.0834 0.3392-0.2305 ( 18933 PWs)   bands (ev):

   -76.7565 -63.7119 -63.6377 -63.6204 -44.1672 -42.5539 -42.4222 -32.5304
   -32.5137 -32.4998 -28.1773 -28.1218 -28.0886 -28.0383 -27.9647 -27.9334
    -7.8404  -7.1960  -6.9572  -6.6379  -6.5134  -6.3983  -6.2084  -5.8299
     3.9177   4.0616   4.1384   4.3067   4.4291   4.8990   4.9501   5.3516
     5.5169   5.6225   5.9613   6.1202   6.3901   6.6991   6.9706   7.3262
     7.5630   7.9381   8.0361   8.2838   8.5336   8.5719   8.7659   8.8998
     9.0958   9.4493   9.5874   9.8368  10.2401  13.8186  14.3024  14.5119
    14.6812  14.8854  15.1483  16.8821  17.1593  17.1844  17.7938  18.0474
    18.5265

     occupation numbers 
     1.0000   1.0000   1.0000   1.0000   1.0000   1.0000   1.0000   1.0000
     1.0000   1.0000   1.0000   1.0000   1.0000   1.0000   1.0000   1.0000
     1.0000   1.0000   1.0000   1.0000   1.0000   1.0000   1.0000   1.0000
     1.0000   1.0000   1.0000   1.0000   1.0000   1.0000   1.0000   1.0000
     1.0000   1.0000   1.0000   1.0000   1.0000   1.0000   1.0000   1.0000
     1.0000   1.0000   1.0000   1.0000   1.0000   1.0000   1.0000   1.0000
     1.0000   1.0000   1.0000   1.0000   1.0000   0.0000   0.0000   0.0000
     0.0000   0.0000   0.0000   0.0000   0.0000   0.0000   0.0000   0.0000
     0.0000

          k = 0.0833 0.3392-0.0762 ( 18948 PWs)   bands (ev):

   -76.7566 -63.7119 -63.6383 -63.6198 -44.1672 -42.5539 -42.4222 -32.5304
   -32.5137 -32.4999 -28.1790 -28.1074 -28.0953 -28.0208 -27.9842 -27.9365
    -8.0018  -7.2336  -6.8278  -6.6732  -6.5613  -6.3747  -6.0848  -5.7886
     3.9830   4.0255   4.2069   4.2696   4.4559   4.7946   5.0115   5.1374
     5.3842   5.5644   5.8819   6.1875   6.3283   6.8657   7.0658   7.3273
     7.6668   7.9851   8.0554   8.3859   8.5299   8.6268   8.6868   8.9192
     9.1683   9.4545   9.5317   9.8723  10.1672  13.7343  14.2012  14.4905
    14.7443  15.1167  15.2435  16.7849  17.1057  17.1919  17.8964  18.1132
    18.4048

     occupation numbers 
     1.0000   1.0000   1.0000   1.0000   1.0000   1.0000   1.0000   1.0000
     1.0000   1.0000   1.0000   1.0000   1.0000   1.0000   1.0000   1.0000
     1.0000   1.0000   1.0000   1.0000   1.0000   1.0000   1.0000   1.0000
     1.0000   1.0000   1.0000   1.0000   1.0000   1.0000   1.0000   1.0000
     1.0000   1.0000   1.0000   1.0000   1.0000   1.0000   1.0000   1.0000
     1.0000   1.0000   1.0000   1.0000   1.0000   1.0000   1.0000   1.0000
     1.0000   1.0000   1.0000   1.0000   1.0000   0.0000   0.0000   0.0000
     0.0000   0.0000   0.0000   0.0000   0.0000   0.0000   0.0000   0.0000
     0.0000

          k = 0.2500 0.0678 0.0798 ( 18979 PWs)   bands (ev):

   -76.7566 -63.7119 -63.6384 -63.6197 -44.1672 -42.5540 -42.4222 -32.5304
   -32.5137 -32.4999 -28.1801 -28.1088 -28.0985 -28.0206 -27.9812 -27.9357
    -8.0969  -7.0113  -6.8932  -6.7168  -6.4314  -6.2590  -6.0970  -6.0188
     3.6878   3.9668   4.1578   4.2934   4.4068   4.6259   4.7770   5.3339
     5.4718   5.7487   6.1568   6.2603   6.4454   6.6385   7.2512   7.3985
     7.7095   7.8719   8.0086   8.2971   8.5086   8.5796   8.9602   8.9881
     9.1973   9.4217   9.6966   9.8822  10.1899  13.9740  14.0633  14.3964
    14.6881  15.0960  15.4612  16.8581  16.9821  17.1126  17.6806  17.8993
    18.0248

     occupation numbers 
     1.0000   1.0000   1.0000   1.0000   1.0000   1.0000   1.0000   1.0000
     1.0000   1.0000   1.0000   1.0000   1.0000   1.0000   1.0000   1.0000
     1.0000   1.0000   1.0000   1.0000   1.0000   1.0000   1.0000   1.0000
     1.0000   1.0000   1.0000   1.0000   1.0000   1.0000   1.0000   1.0000
     1.0000   1.0000   1.0000   1.0000   1.0000   1.0000   1.0000   1.0000
     1.0000   1.0000   1.0000   1.0000   1.0000   1.0000   1.0000   1.0000
     1.0000   1.0000   1.0000   1.0000   1.0000   0.0000   0.0000   0.0000
     0.0000   0.0000   0.0000   0.0000   0.0000   0.0000   0.0000   0.0000
     0.0000

          k = 0.2500 0.0678 0.2340 ( 18963 PWs)   bands (ev):

   -76.7566 -63.7119 -63.6377 -63.6204 -44.1672 -42.5540 -42.4222 -32.5304
   -32.5137 -32.5000 -28.1768 -28.1217 -28.0908 -28.0378 -27.9645 -27.9343
    -7.9035  -7.0289  -6.9730  -6.8318  -6.3945  -6.2956  -6.1160  -5.9989
     3.7468   3.9616   4.0972   4.3134   4.5567   4.6411   4.9911   5.1637
     5.3383   5.5997   5.9083   6.1217   6.6688   6.8470   7.2326   7.3835
     7.5903   7.8794   8.1220   8.2582   8.3994   8.4864   9.0499   9.0958
     9.1748   9.4858   9.6967   9.8709  10.3170  13.9317  14.2342  14.4554
    14.7076  15.0304  15.2997  16.8717  16.9334  17.1050  17.6807  17.8591
    18.2919

     occupation numbers 
     1.0000   1.0000   1.0000   1.0000   1.0000   1.0000   1.0000   1.0000
     1.0000   1.0000   1.0000   1.0000   1.0000   1.0000   1.0000   1.0000
     1.0000   1.0000   1.0000   1.0000   1.0000   1.0000   1.0000   1.0000
     1.0000   1.0000   1.0000   1.0000   1.0000   1.0000   1.0000   1.0000
     1.0000   1.0000   1.0000   1.0000   1.0000   1.0000   1.0000   1.0000
     1.0000   1.0000   1.0000   1.0000   1.0000   1.0000   1.0000   1.0000
     1.0000   1.0000   1.0000   1.0000   1.0000   0.0000   0.0000   0.0000
     0.0000   0.0000   0.0000   0.0000   0.0000   0.0000   0.0000   0.0000
     0.0000

          k = 0.2499 0.0678 0.3883 ( 18962 PWs)   bands (ev):

   -76.7566 -63.7119 -63.6370 -63.6212 -44.1672 -42.5540 -42.4222 -32.5304
   -32.5137 -32.5000 -28.1711 -28.1353 -28.0807 -28.0541 -27.9505 -27.9350
    -7.5667  -7.2140  -7.0180  -6.9084  -6.4627  -6.3419  -6.0758  -5.9818
     3.8414   3.9448   4.0488   4.2196   4.3696   4.8903   4.9279   5.2201
     5.5694   5.7706   5.9248   6.2318   6.6686   6.7770   6.9672   7.3428
     7.4193   7.5289   7.9772   8.2973   8.4607   8.6479   9.0525   9.1588
     9.2986   9.5359   9.6902   9.8955  10.3221  14.0618  14.3544  14.4282
    14.7388  14.8416  15.0114  16.8893  17.0079  17.1025  17.5612  17.8939
    18.3185

     occupation numbers 
     1.0000   1.0000   1.0000   1.0000   1.0000   1.0000   1.0000   1.0000
     1.0000   1.0000   1.0000   1.0000   1.0000   1.0000   1.0000   1.0000
     1.0000   1.0000   1.0000   1.0000   1.0000   1.0000   1.0000   1.0000
     1.0000   1.0000   1.0000   1.0000   1.0000   1.0000   1.0000   1.0000
     1.0000   1.0000   1.0000   1.0000   1.0000   1.0000   1.0000   1.0000
     1.0000   1.0000   1.0000   1.0000   1.0000   1.0000   1.0000   1.0000
     1.0000   1.0000   1.0000   1.0000   1.0000   0.0000   0.0000   0.0000
     0.0000   0.0000   0.0000   0.0000   0.0000   0.0000   0.0000   0.0000
     0.0000

          k = 0.2501 0.0678-0.3830 ( 18962 PWs)   bands (ev):

   -76.7565 -63.7119 -63.6369 -63.6213 -44.1672 -42.5540 -42.4222 -32.5305
   -32.5137 -32.4999 -28.1711 -28.1352 -28.0806 -28.0541 -27.9503 -27.9352
    -7.5959  -7.1737  -6.9799  -6.8758  -6.4992  -6.4211  -6.0503  -5.9845
     3.7975   3.9818   4.0207   4.2431   4.4297   4.6536   4.8998   5.5161
     5.6839   5.8217   5.9410   6.4071   6.5911   6.7826   6.9782   7.1228
     7.3597   7.5116   7.8277   8.4244   8.5245   8.7507   8.9217   9.0737
     9.3260   9.4728   9.6336   9.9438  10.2869  14.0571  14.3015  14.5002
    14.6560  14.7474  14.9836  16.9348  17.0580  17.0987  17.5943  18.0176
    18.4253

     occupation numbers 
     1.0000   1.0000   1.0000   1.0000   1.0000   1.0000   1.0000   1.0000
     1.0000   1.0000   1.0000   1.0000   1.0000   1.0000   1.0000   1.0000
     1.0000   1.0000   1.0000   1.0000   1.0000   1.0000   1.0000   1.0000
     1.0000   1.0000   1.0000   1.0000   1.0000   1.0000   1.0000   1.0000
     1.0000   1.0000   1.0000   1.0000   1.0000   1.0000   1.0000   1.0000
     1.0000   1.0000   1.0000   1.0000   1.0000   1.0000   1.0000   1.0000
     1.0000   1.0000   1.0000   1.0000   1.0000   0.0000   0.0000   0.0000
     0.0000   0.0000   0.0000   0.0000   0.0000   0.0000   0.0000   0.0000
     0.0000

          k = 0.2500 0.0678-0.2287 ( 18967 PWs)   bands (ev):

   -76.7565 -63.7119 -63.6376 -63.6206 -44.1672 -42.5540 -42.4222 -32.5305
   -32.5137 -32.4999 -28.1767 -28.1217 -28.0905 -28.0379 -27.9643 -27.9346
    -7.9232  -7.0178  -6.8146  -6.7138  -6.5901  -6.4756  -6.0739  -5.9550
     3.7002   3.9659   4.1460   4.2932   4.4092   4.5347   4.9437   5.4278
     5.6000   5.9118   6.1045   6.2754   6.4622   6.7881   7.0331   7.3048
     7.5304   7.7181   7.9878   8.3261   8.3570   8.7081   8.9191   9.0704
     9.1290   9.3833   9.6714   9.9424  10.2157  13.9558  14.2093  14.3702
    14.5432  14.9451  15.2356  16.9128  17.0618  17.1366  17.6615  18.0856
    18.3379

     occupation numbers 
     1.0000   1.0000   1.0000   1.0000   1.0000   1.0000   1.0000   1.0000
     1.0000   1.0000   1.0000   1.0000   1.0000   1.0000   1.0000   1.0000
     1.0000   1.0000   1.0000   1.0000   1.0000   1.0000   1.0000   1.0000
     1.0000   1.0000   1.0000   1.0000   1.0000   1.0000   1.0000   1.0000
     1.0000   1.0000   1.0000   1.0000   1.0000   1.0000   1.0000   1.0000
     1.0000   1.0000   1.0000   1.0000   1.0000   1.0000   1.0000   1.0000
     1.0000   1.0000   1.0000   1.0000   1.0000   0.0000   0.0000   0.0000
     0.0000   0.0000   0.0000   0.0000   0.0000   0.0000   0.0000   0.0000
     0.0000

          k = 0.2500 0.0678-0.0745 ( 18974 PWs)   bands (ev):

   -76.7566 -63.7119 -63.6384 -63.6198 -44.1672 -42.5540 -42.4222 -32.5305
   -32.5137 -32.4999 -28.1800 -28.1091 -28.0981 -28.0208 -27.9810 -27.9358
    -8.1039  -7.0147  -6.7648  -6.6581  -6.5664  -6.3904  -6.0645  -5.9722
     3.6724   3.9472   4.1461   4.3060   4.3845   4.5330   4.8125   5.4677
     5.6559   5.8606   6.1291   6.3059   6.4597   6.7006   7.0985   7.3547
     7.5500   7.8018   8.0231   8.3231   8.4714   8.7405   8.7892   8.9784
     9.2443   9.3118   9.8198   9.8820  10.0965  14.0157  14.1140  14.2316
    14.5931  15.0833  15.4227  16.8736  17.0636  17.1240  17.6437  17.9822
    18.1578

     occupation numbers 
     1.0000   1.0000   1.0000   1.0000   1.0000   1.0000   1.0000   1.0000
     1.0000   1.0000   1.0000   1.0000   1.0000   1.0000   1.0000   1.0000
     1.0000   1.0000   1.0000   1.0000   1.0000   1.0000   1.0000   1.0000
     1.0000   1.0000   1.0000   1.0000   1.0000   1.0000   1.0000   1.0000
     1.0000   1.0000   1.0000   1.0000   1.0000   1.0000   1.0000   1.0000
     1.0000   1.0000   1.0000   1.0000   1.0000   1.0000   1.0000   1.0000
     1.0000   1.0000   1.0000   1.0000   1.0000   0.0000   0.0000   0.0000
     0.0000   0.0000   0.0000   0.0000   0.0000   0.0000   0.0000   0.0000
     0.0000

          k = 0.2500 0.2035 0.0798 ( 18969 PWs)   bands (ev):

   -76.7566 -63.7119 -63.6384 -63.6197 -44.1672 -42.5540 -42.4222 -32.5304
   -32.5137 -32.4999 -28.1796 -28.1085 -28.0971 -28.0210 -27.9828 -27.9361
    -8.0152  -7.0742  -6.9826  -6.6593  -6.4706  -6.2721  -6.1006  -5.9627
     3.7156   4.0156   4.1064   4.3230   4.4635   4.5928   5.0291   5.2314
     5.4697   5.6157   6.1247   6.3724   6.4421   6.8733   7.1147   7.2678
     7.5574   7.9353   8.0460   8.2099   8.4097   8.7061   8.8119   9.0327
     9.1444   9.4246   9.6136   9.9242  10.1387  13.8937  14.1398  14.4098
    14.8361  15.0866  15.4113  16.8852  16.9886  17.1385  17.7856  17.9398
    18.1502

     occupation numbers 
     1.0000   1.0000   1.0000   1.0000   1.0000   1.0000   1.0000   1.0000
     1.0000   1.0000   1.0000   1.0000   1.0000   1.0000   1.0000   1.0000
     1.0000   1.0000   1.0000   1.0000   1.0000   1.0000   1.0000   1.0000
     1.0000   1.0000   1.0000   1.0000   1.0000   1.0000   1.0000   1.0000
     1.0000   1.0000   1.0000   1.0000   1.0000   1.0000   1.0000   1.0000
     1.0000   1.0000   1.0000   1.0000   1.0000   1.0000   1.0000   1.0000
     1.0000   1.0000   1.0000   1.0000   1.0000   0.0000   0.0000   0.0000
     0.0000   0.0000   0.0000   0.0000   0.0000   0.0000   0.0000   0.0000
     0.0000

          k = 0.2500 0.2035 0.2340 ( 18963 PWs)   bands (ev):

   -76.7565 -63.7119 -63.6378 -63.6204 -44.1672 -42.5540 -42.4222 -32.5304
   -32.5137 -32.5000 -28.1772 -28.1218 -28.0900 -28.0383 -27.9648 -27.9338
    -7.8405  -7.1426  -6.9912  -6.7420  -6.3971  -6.2946  -6.1803  -5.9658
     3.7584   3.9490   4.0329   4.3168   4.5636   4.8251   4.9314   5.2561
     5.4149   5.5861   5.9417   6.2997   6.5613   6.8930   7.0908   7.3468
     7.5642   7.8812   8.0464   8.2065   8.4221   8.5831   8.8456   8.9760
     9.1444   9.3746   9.6705   9.9755  10.2880  13.8688  14.2918  14.5189
    14.7458  15.0820  15.2613  16.8847  16.9813  17.1066  17.7550  17.8790
    18.2913

     occupation numbers 
     1.0000   1.0000   1.0000   1.0000   1.0000   1.0000   1.0000   1.0000
     1.0000   1.0000   1.0000   1.0000   1.0000   1.0000   1.0000   1.0000
     1.0000   1.0000   1.0000   1.0000   1.0000   1.0000   1.0000   1.0000
     1.0000   1.0000   1.0000   1.0000   1.0000   1.0000   1.0000   1.0000
     1.0000   1.0000   1.0000   1.0000   1.0000   1.0000   1.0000   1.0000
     1.0000   1.0000   1.0000   1.0000   1.0000   1.0000   1.0000   1.0000
     1.0000   1.0000   1.0000   1.0000   1.0000   0.0000   0.0000   0.0000
     0.0000   0.0000   0.0000   0.0000   0.0000   0.0000   0.0000   0.0000
     0.0000

          k = 0.2499 0.2035 0.3883 ( 18974 PWs)   bands (ev):

   -76.7565 -63.7119 -63.6370 -63.6211 -44.1672 -42.5540 -42.4222 -32.5304
   -32.5137 -32.5000 -28.1722 -28.1363 -28.0805 -28.0541 -27.9496 -27.9339
    -7.5422  -7.2651  -7.0132  -6.8343  -6.4836  -6.3439  -6.0834  -6.0144
     3.8095   3.8939   4.0969   4.2560   4.4655   4.7732   4.9597   5.2744
     5.6952   5.8394   5.9055   6.2960   6.6066   6.7917   6.9412   7.3766
     7.4090   7.6840   7.8917   8.2756   8.4385   8.5393   8.8914   9.0601
     9.2354   9.3242   9.7071   9.9846  10.3188  13.9930  14.3714  14.4928
    14.6906  14.9368  15.0459  16.8503  17.0480  17.1002  17.6916  17.8525
    18.3915

     occupation numbers 
     1.0000   1.0000   1.0000   1.0000   1.0000   1.0000   1.0000   1.0000
     1.0000   1.0000   1.0000   1.0000   1.0000   1.0000   1.0000   1.0000
     1.0000   1.0000   1.0000   1.0000   1.0000   1.0000   1.0000   1.0000
     1.0000   1.0000   1.0000   1.0000   1.0000   1.0000   1.0000   1.0000
     1.0000   1.0000   1.0000   1.0000   1.0000   1.0000   1.0000   1.0000
     1.0000   1.0000   1.0000   1.0000   1.0000   1.0000   1.0000   1.0000
     1.0000   1.0000   1.0000   1.0000   1.0000   0.0000   0.0000   0.0000
     0.0000   0.0000   0.0000   0.0000   0.0000   0.0000   0.0000   0.0000
     0.0000

          k = 0.2501 0.2035-0.3830 ( 18968 PWs)   bands (ev):

   -76.7565 -63.7119 -63.6370 -63.6212 -44.1672 -42.5540 -42.4222 -32.5305
   -32.5137 -32.4999 -28.1722 -28.1362 -28.0805 -28.0542 -27.9494 -27.9341
    -7.5583  -7.2008  -7.0374  -6.7956  -6.5384  -6.3757  -6.1205  -5.9633
     3.7963   3.9680   4.1162   4.3024   4.3885   4.6624   5.0047   5.2611
     5.7375   5.8161   6.1084   6.3504   6.5961   6.7902   6.8758   7.1830
     7.4404   7.7618   7.9140   8.3234   8.3658   8.6008   8.8368   9.0282
     9.2286   9.4229   9.5826   9.9822  10.2545  13.9714  14.3436  14.5338
    14.6614  14.8365  14.9447  16.8791  17.0539  17.1188  17.6886  17.9705
    18.5168

     occupation numbers 
     1.0000   1.0000   1.0000   1.0000   1.0000   1.0000   1.0000   1.0000
     1.0000   1.0000   1.0000   1.0000   1.0000   1.0000   1.0000   1.0000
     1.0000   1.0000   1.0000   1.0000   1.0000   1.0000   1.0000   1.0000
     1.0000   1.0000   1.0000   1.0000   1.0000   1.0000   1.0000   1.0000
     1.0000   1.0000   1.0000   1.0000   1.0000   1.0000   1.0000   1.0000
     1.0000   1.0000   1.0000   1.0000   1.0000   1.0000   1.0000   1.0000
     1.0000   1.0000   1.0000   1.0000   1.0000   0.0000   0.0000   0.0000
     0.0000   0.0000   0.0000   0.0000   0.0000   0.0000   0.0000   0.0000
     0.0000

          k = 0.2500 0.2035-0.2287 ( 18964 PWs)   bands (ev):

   -76.7565 -63.7119 -63.6377 -63.6205 -44.1672 -42.5540 -42.4222 -32.5305
   -32.5137 -32.4999 -28.1770 -28.1219 -28.0898 -28.0385 -27.9645 -27.9340
    -7.8504  -7.0783  -6.9040  -6.6725  -6.6069  -6.4436  -6.1067  -5.9115
     3.7583   4.0692   4.1197   4.2309   4.4120   4.6323   5.0582   5.3746
     5.4997   5.8023   6.1421   6.2373   6.3979   6.8066   6.9628   7.4221
     7.7341   7.8018   7.9429   8.2861   8.3830   8.5808   8.8753   9.0085
     9.1013   9.3259   9.6352   9.8817  10.1729  13.8662  14.2909  14.4202
    14.6678  14.8918  15.1624  16.8727  17.0534  17.1660  17.6841  18.0808
    18.5550

     occupation numbers 
     1.0000   1.0000   1.0000   1.0000   1.0000   1.0000   1.0000   1.0000
     1.0000   1.0000   1.0000   1.0000   1.0000   1.0000   1.0000   1.0000
     1.0000   1.0000   1.0000   1.0000   1.0000   1.0000   1.0000   1.0000
     1.0000   1.0000   1.0000   1.0000   1.0000   1.0000   1.0000   1.0000
     1.0000   1.0000   1.0000   1.0000   1.0000   1.0000   1.0000   1.0000
     1.0000   1.0000   1.0000   1.0000   1.0000   1.0000   1.0000   1.0000
     1.0000   1.0000   1.0000   1.0000   1.0000   0.0000   0.0000   0.0000
     0.0000   0.0000   0.0000   0.0000   0.0000   0.0000   0.0000   0.0000
     0.0000

          k = 0.2500 0.2035-0.0745 ( 18968 PWs)   bands (ev):

   -76.7566 -63.7119 -63.6384 -63.6198 -44.1672 -42.5540 -42.4222 -32.5305
   -32.5137 -32.4999 -28.1795 -28.1087 -28.0968 -28.0213 -27.9825 -27.9362
    -8.0190  -7.0851  -6.8236  -6.6826  -6.6026  -6.3488  -6.0616  -5.9235
     3.7217   4.0148   4.1749   4.2606   4.4380   4.5560   5.0353   5.2696
     5.5285   5.7890   6.1019   6.3190   6.5661   6.6910   7.0712   7.4099
     7.4304   7.9367   7.9762   8.3120   8.4910   8.6949   8.7687   8.9436
     9.2502   9.3278   9.6770   9.8233  10.0854  13.9243  14.1576  14.3021
    14.7720  15.0111  15.3753  16.8530  17.0581  17.1609  17.7107  18.0610
    18.3048

     occupation numbers 
     1.0000   1.0000   1.0000   1.0000   1.0000   1.0000   1.0000   1.0000
     1.0000   1.0000   1.0000   1.0000   1.0000   1.0000   1.0000   1.0000
     1.0000   1.0000   1.0000   1.0000   1.0000   1.0000   1.0000   1.0000
     1.0000   1.0000   1.0000   1.0000   1.0000   1.0000   1.0000   1.0000
     1.0000   1.0000   1.0000   1.0000   1.0000   1.0000   1.0000   1.0000
     1.0000   1.0000   1.0000   1.0000   1.0000   1.0000   1.0000   1.0000
     1.0000   1.0000   1.0000   1.0000   1.0000   0.0000   0.0000   0.0000
     0.0000   0.0000   0.0000   0.0000   0.0000   0.0000   0.0000   0.0000
     0.0000

          k = 0.2500 0.3392 0.0798 ( 18957 PWs)   bands (ev):

   -76.7566 -63.7118 -63.6385 -63.6197 -44.1672 -42.5540 -42.4222 -32.5304
   -32.5137 -32.4999 -28.1792 -28.1081 -28.0956 -28.0214 -27.9843 -27.9365
    -7.9090  -7.2279  -6.9689  -6.6407  -6.5026  -6.2911  -6.0845  -5.9255
     3.7736   4.0164   4.1241   4.2389   4.5137   4.7174   5.0294   5.2444
     5.5263   5.7105   5.9229   6.3896   6.5586   6.8507   7.0457   7.3025
     7.5365   7.8723   7.9719   8.1292   8.3879   8.5581   8.8589   9.0666
     9.1927   9.3255   9.6004   9.9770  10.0595  13.8131  14.2347  14.4481
    15.0227  15.0728  15.2697  16.9014  17.0207  17.1564  17.7785  18.0854
    18.2793

     occupation numbers 
     1.0000   1.0000   1.0000   1.0000   1.0000   1.0000   1.0000   1.0000
     1.0000   1.0000   1.0000   1.0000   1.0000   1.0000   1.0000   1.0000
     1.0000   1.0000   1.0000   1.0000   1.0000   1.0000   1.0000   1.0000
     1.0000   1.0000   1.0000   1.0000   1.0000   1.0000   1.0000   1.0000
     1.0000   1.0000   1.0000   1.0000   1.0000   1.0000   1.0000   1.0000
     1.0000   1.0000   1.0000   1.0000   1.0000   1.0000   1.0000   1.0000
     1.0000   1.0000   1.0000   1.0000   1.0000   0.0000   0.0000   0.0000
     0.0000   0.0000   0.0000   0.0000   0.0000   0.0000   0.0000   0.0000
     0.0000

          k = 0.2500 0.3392 0.2340 ( 18986 PWs)   bands (ev):

   -76.7565 -63.7119 -63.6378 -63.6203 -44.1672 -42.5540 -42.4222 -32.5304
   -32.5137 -32.5000 -28.1775 -28.1220 -28.0894 -28.0387 -27.9650 -27.9334
    -7.7581  -7.2708  -6.9650  -6.7022  -6.3909  -6.2978  -6.2400  -5.9415
     3.7580   3.9517   4.0643   4.2523   4.4941   4.7901   5.1180   5.3232
     5.5861   5.7537   5.8895   6.3888   6.5361   6.7528   7.0819   7.2324
     7.4284   7.8405   8.0877   8.2122   8.4153   8.6719   8.7486   8.8075
     9.1245   9.2310   9.6859  10.0282  10.2459  13.8172  14.3510  14.5537
    14.8429  15.1198  15.1866  16.9232  17.0044  17.1140  17.7769  17.9222
    18.2080

     occupation numbers 
     1.0000   1.0000   1.0000   1.0000   1.0000   1.0000   1.0000   1.0000
     1.0000   1.0000   1.0000   1.0000   1.0000   1.0000   1.0000   1.0000
     1.0000   1.0000   1.0000   1.0000   1.0000   1.0000   1.0000   1.0000
     1.0000   1.0000   1.0000   1.0000   1.0000   1.0000   1.0000   1.0000
     1.0000   1.0000   1.0000   1.0000   1.0000   1.0000   1.0000   1.0000
     1.0000   1.0000   1.0000   1.0000   1.0000   1.0000   1.0000   1.0000
     1.0000   1.0000   1.0000   1.0000   1.0000   0.0000   0.0000   0.0000
     0.0000   0.0000   0.0000   0.0000   0.0000   0.0000   0.0000   0.0000
     0.0000

          k = 0.2499 0.3392 0.3883 ( 18976 PWs)   bands (ev):

   -76.7565 -63.7120 -63.6371 -63.6211 -44.1672 -42.5540 -42.4222 -32.5304
   -32.5137 -32.5000 -28.1733 -28.1372 -28.0804 -28.0541 -27.9487 -27.9329
    -7.5038  -7.3403  -6.9369  -6.8231  -6.4718  -6.3879  -6.0902  -6.0366
     3.7684   3.9427   4.1086   4.2410   4.4845   4.6232   5.1182   5.3696
     5.7717   5.9672   6.0472   6.2736   6.5131   6.6316   6.9021   7.4267
     7.5300   7.6660   7.8851   8.2381   8.4636   8.4880   8.6618   9.0108
     9.1354   9.1811   9.7097  10.0424  10.2887  13.9415  14.4139  14.4923
    14.6828  15.0245  15.0680  16.8770  17.0211  17.1087  17.7750  17.8613
    18.1855

     occupation numbers 
     1.0000   1.0000   1.0000   1.0000   1.0000   1.0000   1.0000   1.0000
     1.0000   1.0000   1.0000   1.0000   1.0000   1.0000   1.0000   1.0000
     1.0000   1.0000   1.0000   1.0000   1.0000   1.0000   1.0000   1.0000
     1.0000   1.0000   1.0000   1.0000   1.0000   1.0000   1.0000   1.0000
     1.0000   1.0000   1.0000   1.0000   1.0000   1.0000   1.0000   1.0000
     1.0000   1.0000   1.0000   1.0000   1.0000   1.0000   1.0000   1.0000
     1.0000   1.0000   1.0000   1.0000   1.0000   0.0000   0.0000   0.0000
     0.0000   0.0000   0.0000   0.0000   0.0000   0.0000   0.0000   0.0000
     0.0000

          k = 0.2501 0.3392-0.3830 ( 18947 PWs)   bands (ev):

   -76.7565 -63.7120 -63.6371 -63.6212 -44.1672 -42.5540 -42.4222 -32.5305
   -32.5137 -32.4999 -28.1732 -28.1372 -28.0803 -28.0542 -27.9486 -27.9331
    -7.5237  -7.2180  -7.0378  -6.8241  -6.5000  -6.3438  -6.2026  -5.9498
     3.7936   4.0040   4.1679   4.2896   4.4365   4.6565   5.0288   5.1418
     5.7602   5.9454   6.1353   6.4324   6.5682   6.6419   6.8587   7.2563
     7.5356   7.7621   8.0533   8.2539   8.3056   8.5416   8.7166   8.9272
     9.1368   9.2993   9.6429  10.0243  10.1597  13.9688  14.2124  14.5988
    14.7529  14.8857  14.9248  16.8994  17.0164  17.0992  17.7565  17.9419
    18.3459

     occupation numbers 
     1.0000   1.0000   1.0000   1.0000   1.0000   1.0000   1.0000   1.0000
     1.0000   1.0000   1.0000   1.0000   1.0000   1.0000   1.0000   1.0000
     1.0000   1.0000   1.0000   1.0000   1.0000   1.0000   1.0000   1.0000
     1.0000   1.0000   1.0000   1.0000   1.0000   1.0000   1.0000   1.0000
     1.0000   1.0000   1.0000   1.0000   1.0000   1.0000   1.0000   1.0000
     1.0000   1.0000   1.0000   1.0000   1.0000   1.0000   1.0000   1.0000
     1.0000   1.0000   1.0000   1.0000   1.0000   0.0000   0.0000   0.0000
     0.0000   0.0000   0.0000   0.0000   0.0000   0.0000   0.0000   0.0000
     0.0000

          k = 0.2500 0.3392-0.2287 ( 18954 PWs)   bands (ev):

   -76.7565 -63.7119 -63.6378 -63.6204 -44.1672 -42.5540 -42.4222 -32.5305
   -32.5137 -32.4999 -28.1772 -28.1221 -28.0891 -28.0391 -27.9647 -27.9335
    -7.7594  -7.1553  -6.9594  -6.7164  -6.5749  -6.4106  -6.1248  -5.8828
     3.8390   4.0376   4.1366   4.2713   4.4572   4.7387   4.9937   5.2607
     5.6254   5.7987   5.9782   6.0466   6.6826   6.8026   6.9381   7.4040
     7.6802   7.9057   8.0513   8.1729   8.3551   8.6094   8.8412   8.9065
     9.0647   9.3584   9.5801   9.8549  10.0661  13.8207  14.3523  14.4899
    14.7104  14.9146  15.0479  16.8791  17.0360  17.1610  17.6895  18.0582
    18.6674

     occupation numbers 
     1.0000   1.0000   1.0000   1.0000   1.0000   1.0000   1.0000   1.0000
     1.0000   1.0000   1.0000   1.0000   1.0000   1.0000   1.0000   1.0000
     1.0000   1.0000   1.0000   1.0000   1.0000   1.0000   1.0000   1.0000
     1.0000   1.0000   1.0000   1.0000   1.0000   1.0000   1.0000   1.0000
     1.0000   1.0000   1.0000   1.0000   1.0000   1.0000   1.0000   1.0000
     1.0000   1.0000   1.0000   1.0000   1.0000   1.0000   1.0000   1.0000
     1.0000   1.0000   1.0000   1.0000   1.0000   0.0000   0.0000   0.0000
     0.0000   0.0000   0.0000   0.0000   0.0000   0.0000   0.0000   0.0000
     0.0000

          k = 0.2500 0.3392-0.0745 ( 18957 PWs)   bands (ev):

   -76.7566 -63.7118 -63.6384 -63.6197 -44.1672 -42.5540 -42.4222 -32.5305
   -32.5137 -32.4999 -28.1790 -28.1083 -28.0954 -28.0218 -27.9840 -27.9366
    -7.9090  -7.2094  -6.8265  -6.7282  -6.6277  -6.3247  -6.0432  -5.8898
     3.8202   4.0430   4.1159   4.2240   4.5779   4.6782   5.0207   5.3391
     5.4100   5.6614   5.9273   6.3199   6.6822   6.8223   7.0266   7.2379
     7.6200   7.8856   8.0371   8.2382   8.4217   8.5345   8.8027   8.9884
     9.2781   9.3884   9.5553   9.7828  10.0335  13.8315  14.2625  14.3878
    14.8778  15.0151  15.2298  16.8506  17.0638  17.1787  17.7078  18.1283
    18.5635

     occupation numbers 
     1.0000   1.0000   1.0000   1.0000   1.0000   1.0000   1.0000   1.0000
     1.0000   1.0000   1.0000   1.0000   1.0000   1.0000   1.0000   1.0000
     1.0000   1.0000   1.0000   1.0000   1.0000   1.0000   1.0000   1.0000
     1.0000   1.0000   1.0000   1.0000   1.0000   1.0000   1.0000   1.0000
     1.0000   1.0000   1.0000   1.0000   1.0000   1.0000   1.0000   1.0000
     1.0000   1.0000   1.0000   1.0000   1.0000   1.0000   1.0000   1.0000
     1.0000   1.0000   1.0000   1.0000   1.0000   0.0000   0.0000   0.0000
     0.0000   0.0000   0.0000   0.0000   0.0000   0.0000   0.0000   0.0000
     0.0000

          k = 0.4166 0.0678 0.0816 ( 19004 PWs)   bands (ev):

   -76.7566 -63.7118 -63.6384 -63.6198 -44.1672 -42.5540 -42.4222 -32.5304
   -32.5137 -32.4999 -28.1803 -28.1098 -28.0986 -28.0215 -27.9811 -27.9358
    -7.9134  -7.0285  -6.9611  -6.7346  -6.4535  -6.2366  -6.1900  -6.0533
     3.7690   4.0690   4.1558   4.2269   4.4524   4.7013   4.9367   5.3065
     5.5367   5.7357   5.9870   6.1716   6.4263   6.6386   7.2428   7.4149
     7.6305   7.8769   8.0476   8.0986   8.4429   8.5951   8.8642   8.9398
     9.1390   9.6008   9.8405   9.9524  10.2129  13.9755  14.2077  14.3230
    14.6985  14.9901  15.4534  16.9226  16.9773  17.0806  17.8850  17.9999
    18.3810

     occupation numbers 
     1.0000   1.0000   1.0000   1.0000   1.0000   1.0000   1.0000   1.0000
     1.0000   1.0000   1.0000   1.0000   1.0000   1.0000   1.0000   1.0000
     1.0000   1.0000   1.0000   1.0000   1.0000   1.0000   1.0000   1.0000
     1.0000   1.0000   1.0000   1.0000   1.0000   1.0000   1.0000   1.0000
     1.0000   1.0000   1.0000   1.0000   1.0000   1.0000   1.0000   1.0000
     1.0000   1.0000   1.0000   1.0000   1.0000   1.0000   1.0000   1.0000
     1.0000   1.0000   1.0000   1.0000   1.0000   0.0000   0.0000   0.0000
     0.0000   0.0000   0.0000   0.0000   0.0000   0.0000   0.0000   0.0000
     0.0000

          k = 0.4166 0.0678 0.2358 ( 18994 PWs)   bands (ev):

   -76.7566 -63.7119 -63.6376 -63.6206 -44.1672 -42.5540 -42.4222 -32.5305
   -32.5137 -32.5000 -28.1769 -28.1221 -28.0913 -28.0386 -27.9645 -27.9344
    -7.7398  -7.0582  -6.9237  -6.7949  -6.5798  -6.3644  -6.1229  -6.0002
     3.7886   4.0989   4.1447   4.2500   4.5594   4.7417   4.9888   5.1645
     5.4333   5.6209   5.8280   6.1259   6.5495   6.7868   7.1125   7.4604
     7.5315   7.8079   8.0861   8.2227   8.5663   8.5863   8.8297   9.0483
     9.1449   9.5699   9.7957   9.9304  10.2768  13.9058  14.2837  14.5186
    14.7056  14.9292  15.3578  16.9114  16.9357  17.0869  17.7228  17.9751
    18.3243

     occupation numbers 
     1.0000   1.0000   1.0000   1.0000   1.0000   1.0000   1.0000   1.0000
     1.0000   1.0000   1.0000   1.0000   1.0000   1.0000   1.0000   1.0000
     1.0000   1.0000   1.0000   1.0000   1.0000   1.0000   1.0000   1.0000
     1.0000   1.0000   1.0000   1.0000   1.0000   1.0000   1.0000   1.0000
     1.0000   1.0000   1.0000   1.0000   1.0000   1.0000   1.0000   1.0000
     1.0000   1.0000   1.0000   1.0000   1.0000   1.0000   1.0000   1.0000
     1.0000   1.0000   1.0000   1.0000   1.0000   0.0000   0.0000   0.0000
     0.0000   0.0000   0.0000   0.0000   0.0000   0.0000   0.0000   0.0000
     0.0000

          k = 0.4166 0.0678 0.3901 ( 18964 PWs)   bands (ev):

   -76.7566 -63.7119 -63.6367 -63.6215 -44.1672 -42.5540 -42.4222 -32.5306
   -32.5137 -32.5001 -28.1712 -28.1355 -28.0814 -28.0549 -27.9505 -27.9350
    -7.4401  -7.1221  -6.9967  -6.8632  -6.6574  -6.4704  -6.0766  -5.9748
     3.8644   4.1227   4.1913   4.2882   4.4972   4.5985   4.6643   5.2348
     5.6457   5.8670   5.9744   6.1552   6.5484   6.8865   6.9850   7.2609
     7.4053   7.5618   7.7433   8.3706   8.5237   8.7953   9.0432   9.1214
     9.2209   9.5536   9.7795   9.8673  10.2812  14.0536  14.2684  14.5941
    14.7680  14.8492  15.1170  16.9304  16.9921  17.0514  17.6237  17.9540
    18.2165

     occupation numbers 
     1.0000   1.0000   1.0000   1.0000   1.0000   1.0000   1.0000   1.0000
     1.0000   1.0000   1.0000   1.0000   1.0000   1.0000   1.0000   1.0000
     1.0000   1.0000   1.0000   1.0000   1.0000   1.0000   1.0000   1.0000
     1.0000   1.0000   1.0000   1.0000   1.0000   1.0000   1.0000   1.0000
     1.0000   1.0000   1.0000   1.0000   1.0000   1.0000   1.0000   1.0000
     1.0000   1.0000   1.0000   1.0000   1.0000   1.0000   1.0000   1.0000
     1.0000   1.0000   1.0000   1.0000   1.0000   0.0000   0.0000   0.0000
     0.0000   0.0000   0.0000   0.0000   0.0000   0.0000   0.0000   0.0000
     0.0000

          k = 0.4167 0.0678-0.3812 ( 18982 PWs)   bands (ev):

   -76.7566 -63.7119 -63.6367 -63.6215 -44.1672 -42.5540 -42.4222 -32.5306
   -32.5137 -32.5000 -28.1712 -28.1354 -28.0814 -28.0549 -27.9504 -27.9351
    -7.4563  -7.1187  -6.9346  -6.8690  -6.6316  -6.5514  -6.0646  -5.9809
     3.9194   4.0663   4.1783   4.3087   4.3759   4.5316   4.7712   5.3451
     5.7281   5.8911   6.0806   6.2194   6.4650   6.7003   7.0486   7.1777
     7.3866   7.5812   7.7438   8.4231   8.5229   8.7065   9.0070   9.1609
     9.2653   9.5663   9.6831   9.9009  10.2617  14.0677  14.2385  14.6192
    14.6864  14.8334  15.1113  16.9447  16.9998  17.0637  17.7331  17.9615
    18.2182

     occupation numbers 
     1.0000   1.0000   1.0000   1.0000   1.0000   1.0000   1.0000   1.0000
     1.0000   1.0000   1.0000   1.0000   1.0000   1.0000   1.0000   1.0000
     1.0000   1.0000   1.0000   1.0000   1.0000   1.0000   1.0000   1.0000
     1.0000   1.0000   1.0000   1.0000   1.0000   1.0000   1.0000   1.0000
     1.0000   1.0000   1.0000   1.0000   1.0000   1.0000   1.0000   1.0000
     1.0000   1.0000   1.0000   1.0000   1.0000   1.0000   1.0000   1.0000
     1.0000   1.0000   1.0000   1.0000   1.0000   0.0000   0.0000   0.0000
     0.0000   0.0000   0.0000   0.0000   0.0000   0.0000   0.0000   0.0000
     0.0000

          k = 0.4167 0.0678-0.2269 ( 18981 PWs)   bands (ev):

   -76.7566 -63.7119 -63.6376 -63.6206 -44.1672 -42.5540 -42.4222 -32.5305
   -32.5137 -32.5000 -28.1769 -28.1221 -28.0912 -28.0387 -27.9644 -27.9345
    -7.7533  -7.0507  -6.7978  -6.7262  -6.7056  -6.4720  -6.0935  -5.9958
     3.8795   3.9570   4.2244   4.2543   4.4108   4.5115   5.0765   5.4309
     5.6694   5.7535   5.9592   6.2223   6.3823   6.5975   7.1955   7.2235
     7.4164   7.8544   8.0345   8.2816   8.3888   8.6728   8.8989   9.0503
     9.2293   9.4943   9.7700   9.9558  10.1864  13.9246  14.2284  14.5455
    14.5918  14.8892  15.3235  16.9259  16.9660  17.1362  17.8588  17.9781
    18.3731

     occupation numbers 
     1.0000   1.0000   1.0000   1.0000   1.0000   1.0000   1.0000   1.0000
     1.0000   1.0000   1.0000   1.0000   1.0000   1.0000   1.0000   1.0000
     1.0000   1.0000   1.0000   1.0000   1.0000   1.0000   1.0000   1.0000
     1.0000   1.0000   1.0000   1.0000   1.0000   1.0000   1.0000   1.0000
     1.0000   1.0000   1.0000   1.0000   1.0000   1.0000   1.0000   1.0000
     1.0000   1.0000   1.0000   1.0000   1.0000   1.0000   1.0000   1.0000
     1.0000   1.0000   1.0000   1.0000   1.0000   0.0000   0.0000   0.0000
     0.0000   0.0000   0.0000   0.0000   0.0000   0.0000   0.0000   0.0000
     0.0000

          k = 0.4167 0.0678-0.0727 ( 19010 PWs)   bands (ev):

   -76.7566 -63.7118 -63.6383 -63.6198 -44.1672 -42.5540 -42.4222 -32.5305
   -32.5137 -32.4999 -28.1803 -28.1099 -28.0984 -28.0216 -27.9810 -27.9359
    -7.9186  -7.0347  -6.9083  -6.7029  -6.5277  -6.2924  -6.1623  -6.0296
     3.8110   3.9837   4.2043   4.2551   4.3420   4.6066   5.0140   5.4233
     5.6400   5.8409   5.9712   6.1268   6.5147   6.6695   7.1121   7.3444
     7.5351   7.7906   7.9492   8.2603   8.3605   8.6787   8.8952   8.9822
     9.1267   9.5726   9.9033   9.9543  10.1099  14.0273  14.1740  14.2769
    14.6400  14.9973  15.4269  16.9319  16.9833  17.1176  17.9131  17.9957
    18.4798

     occupation numbers 
     1.0000   1.0000   1.0000   1.0000   1.0000   1.0000   1.0000   1.0000
     1.0000   1.0000   1.0000   1.0000   1.0000   1.0000   1.0000   1.0000
     1.0000   1.0000   1.0000   1.0000   1.0000   1.0000   1.0000   1.0000
     1.0000   1.0000   1.0000   1.0000   1.0000   1.0000   1.0000   1.0000
     1.0000   1.0000   1.0000   1.0000   1.0000   1.0000   1.0000   1.0000
     1.0000   1.0000   1.0000   1.0000   1.0000   1.0000   1.0000   1.0000
     1.0000   1.0000   1.0000   1.0000   1.0000   0.0000   0.0000   0.0000
     0.0000   0.0000   0.0000   0.0000   0.0000   0.0000   0.0000   0.0000
     0.0000

          k = 0.4166 0.2035 0.0816 ( 18961 PWs)   bands (ev):

   -76.7566 -63.7118 -63.6385 -63.6197 -44.1672 -42.5540 -42.4222 -32.5304
   -32.5137 -32.5000 -28.1798 -28.1094 -28.0971 -28.0220 -27.9826 -27.9362
    -7.8626  -7.0960  -7.0160  -6.6905  -6.4856  -6.2434  -6.1520  -6.0207
     3.7097   3.9710   4.0862   4.2213   4.5619   4.7298   5.0903   5.1883
     5.6407   5.8331   5.9663   6.3723   6.5224   6.8542   7.0805   7.3228
     7.4891   7.6180   7.9097   8.1725   8.3705   8.7641   8.8233   8.9826
     9.2210   9.5500   9.6936   9.9271  10.0780  13.9344  14.2345  14.3373
    14.7958  14.9754  15.4919  16.9161  16.9612  17.1131  17.8376  17.9952
    18.3830

     occupation numbers 
     1.0000   1.0000   1.0000   1.0000   1.0000   1.0000   1.0000   1.0000
     1.0000   1.0000   1.0000   1.0000   1.0000   1.0000   1.0000   1.0000
     1.0000   1.0000   1.0000   1.0000   1.0000   1.0000   1.0000   1.0000
     1.0000   1.0000   1.0000   1.0000   1.0000   1.0000   1.0000   1.0000
     1.0000   1.0000   1.0000   1.0000   1.0000   1.0000   1.0000   1.0000
     1.0000   1.0000   1.0000   1.0000   1.0000   1.0000   1.0000   1.0000
     1.0000   1.0000   1.0000   1.0000   1.0000   0.0000   0.0000   0.0000
     0.0000   0.0000   0.0000   0.0000   0.0000   0.0000   0.0000   0.0000
     0.0000

          k = 0.4166 0.2035 0.2358 ( 18964 PWs)   bands (ev):

   -76.7566 -63.7119 -63.6377 -63.6204 -44.1672 -42.5540 -42.4222 -32.5305
   -32.5137 -32.5000 -28.1772 -28.1222 -28.0906 -28.0391 -27.9647 -27.9339
    -7.7060  -7.1625  -6.9540  -6.7454  -6.5362  -6.3477  -6.1280  -5.9963
     3.7399   3.9867   4.1267   4.1854   4.5589   4.8188   5.0206   5.1413
     5.5805   5.6877   5.9838   6.2498   6.6369   6.7802   7.0567   7.4548
     7.4669   7.8889   7.9875   8.2134   8.3724   8.5442   8.8215   9.0164
     9.1567   9.5495   9.6640   9.9166  10.1734  13.8728  14.3269  14.5159
    14.7239  14.9529  15.3833  16.8435  16.9415  17.0993  17.7524  17.9259
    18.3169

     occupation numbers 
     1.0000   1.0000   1.0000   1.0000   1.0000   1.0000   1.0000   1.0000
     1.0000   1.0000   1.0000   1.0000   1.0000   1.0000   1.0000   1.0000
     1.0000   1.0000   1.0000   1.0000   1.0000   1.0000   1.0000   1.0000
     1.0000   1.0000   1.0000   1.0000   1.0000   1.0000   1.0000   1.0000
     1.0000   1.0000   1.0000   1.0000   1.0000   1.0000   1.0000   1.0000
     1.0000   1.0000   1.0000   1.0000   1.0000   1.0000   1.0000   1.0000
     1.0000   1.0000   1.0000   1.0000   1.0000   0.0000   0.0000   0.0000
     0.0000   0.0000   0.0000   0.0000   0.0000   0.0000   0.0000   0.0000
     0.0000

          k = 0.4166 0.2035 0.3901 ( 18982 PWs)   bands (ev):

   -76.7566 -63.7119 -63.6369 -63.6213 -44.1672 -42.5540 -42.4222 -32.5306
   -32.5137 -32.5001 -28.1722 -28.1363 -28.0812 -28.0549 -27.9496 -27.9340
    -7.4424  -7.2167  -6.9913  -6.8659  -6.5630  -6.4187  -6.0791  -6.0130
     3.8321   3.9680   4.1612   4.2581   4.4595   4.6587   4.8694   5.0989
     5.6729   5.8759   6.1345   6.2786   6.5687   6.9136   6.9836   7.3852
     7.4474   7.6993   7.8063   8.2646   8.4222   8.6173   8.9640   9.0998
     9.1188   9.4678   9.7643   9.8324  10.1607  14.0261  14.2884  14.5612
    14.7387  14.8945  15.1578  16.8351  16.9348  17.0341  17.6765  17.8905
    18.3507

     occupation numbers 
     1.0000   1.0000   1.0000   1.0000   1.0000   1.0000   1.0000   1.0000
     1.0000   1.0000   1.0000   1.0000   1.0000   1.0000   1.0000   1.0000
     1.0000   1.0000   1.0000   1.0000   1.0000   1.0000   1.0000   1.0000
     1.0000   1.0000   1.0000   1.0000   1.0000   1.0000   1.0000   1.0000
     1.0000   1.0000   1.0000   1.0000   1.0000   1.0000   1.0000   1.0000
     1.0000   1.0000   1.0000   1.0000   1.0000   1.0000   1.0000   1.0000
     1.0000   1.0000   1.0000   1.0000   1.0000   0.0000   0.0000   0.0000
     0.0000   0.0000   0.0000   0.0000   0.0000   0.0000   0.0000   0.0000
     0.0000

          k = 0.4167 0.2035-0.3812 ( 18972 PWs)   bands (ev):

   -76.7566 -63.7119 -63.6369 -63.6214 -44.1672 -42.5540 -42.4222 -32.5306
   -32.5137 -32.5000 -28.1721 -28.1363 -28.0812 -28.0549 -27.9495 -27.9341
    -7.4520  -7.1850  -6.9924  -6.8639  -6.5463  -6.4746  -6.0860  -5.9950
     3.8845   3.9425   4.1478   4.3173   4.4605   4.5620   4.7994   5.2219
     5.6589   5.8791   6.1874   6.3106   6.5819   6.8527   7.0447   7.2801
     7.4330   7.7257   7.8432   8.2507   8.4606   8.6150   8.8815   9.0619
     9.2280   9.4874   9.5929   9.9307  10.1215  14.0055  14.3068  14.5715
    14.6934  14.8745  15.0919  16.8815  16.9367  17.0194  17.7066  17.9392
    18.3739

     occupation numbers 
     1.0000   1.0000   1.0000   1.0000   1.0000   1.0000   1.0000   1.0000
     1.0000   1.0000   1.0000   1.0000   1.0000   1.0000   1.0000   1.0000
     1.0000   1.0000   1.0000   1.0000   1.0000   1.0000   1.0000   1.0000
     1.0000   1.0000   1.0000   1.0000   1.0000   1.0000   1.0000   1.0000
     1.0000   1.0000   1.0000   1.0000   1.0000   1.0000   1.0000   1.0000
     1.0000   1.0000   1.0000   1.0000   1.0000   1.0000   1.0000   1.0000
     1.0000   1.0000   1.0000   1.0000   1.0000   0.0000   0.0000   0.0000
     0.0000   0.0000   0.0000   0.0000   0.0000   0.0000   0.0000   0.0000
     0.0000

          k = 0.4167 0.2035-0.2269 ( 18964 PWs)   bands (ev):

   -76.7566 -63.7119 -63.6377 -63.6205 -44.1672 -42.5540 -42.4222 -32.5305
   -32.5137 -32.5000 -28.1771 -28.1222 -28.0904 -28.0393 -27.9646 -27.9340
    -7.7128  -7.1414  -6.8620  -6.7294  -6.6484  -6.4212  -6.1004  -5.9703
     3.8103   3.9037   4.1707   4.2872   4.4742   4.6608   4.8849   5.4153
     5.6440   5.8141   6.0177   6.3077   6.4200   6.8249   7.0822   7.2649
     7.5904   7.8388   8.0249   8.2333   8.3832   8.5668   8.7335   9.0473
     9.1860   9.4772   9.6529   9.9490  10.0695  13.8688  14.3210  14.5352
    14.6474  14.8503  15.3122  16.9104  16.9389  17.1054  17.7591  17.9997
    18.3937

     occupation numbers 
     1.0000   1.0000   1.0000   1.0000   1.0000   1.0000   1.0000   1.0000
     1.0000   1.0000   1.0000   1.0000   1.0000   1.0000   1.0000   1.0000
     1.0000   1.0000   1.0000   1.0000   1.0000   1.0000   1.0000   1.0000
     1.0000   1.0000   1.0000   1.0000   1.0000   1.0000   1.0000   1.0000
     1.0000   1.0000   1.0000   1.0000   1.0000   1.0000   1.0000   1.0000
     1.0000   1.0000   1.0000   1.0000   1.0000   1.0000   1.0000   1.0000
     1.0000   1.0000   1.0000   1.0000   1.0000   0.0000   0.0000   0.0000
     0.0000   0.0000   0.0000   0.0000   0.0000   0.0000   0.0000   0.0000
     0.0000

          k = 0.4167 0.2035-0.0727 ( 18978 PWs)   bands (ev):

   -76.7566 -63.7118 -63.6385 -63.6197 -44.1672 -42.5540 -42.4222 -32.5305
   -32.5137 -32.4999 -28.1797 -28.1095 -28.0970 -28.0221 -27.9825 -27.9363
    -7.8654  -7.1114  -6.9415  -6.6768  -6.5719  -6.2843  -6.1268  -5.9935
     3.7480   3.8900   4.1270   4.2809   4.5080   4.7084   4.9757   5.2976
     5.6892   5.9039   6.0456   6.3697   6.5549   6.6879   7.1337   7.2784
     7.3804   7.6885   7.9260   8.2175   8.3685   8.6921   8.8414   8.9972
     9.2211   9.5582   9.7377   9.8937  10.0050  13.9614  14.2322  14.3020
    14.7478  14.9433  15.4641  16.9297  16.9792  17.1160  17.7999  18.0311
    18.4913

     occupation numbers 
     1.0000   1.0000   1.0000   1.0000   1.0000   1.0000   1.0000   1.0000
     1.0000   1.0000   1.0000   1.0000   1.0000   1.0000   1.0000   1.0000
     1.0000   1.0000   1.0000   1.0000   1.0000   1.0000   1.0000   1.0000
     1.0000   1.0000   1.0000   1.0000   1.0000   1.0000   1.0000   1.0000
     1.0000   1.0000   1.0000   1.0000   1.0000   1.0000   1.0000   1.0000
     1.0000   1.0000   1.0000   1.0000   1.0000   1.0000   1.0000   1.0000
     1.0000   1.0000   1.0000   1.0000   1.0000   0.0000   0.0000   0.0000
     0.0000   0.0000   0.0000   0.0000   0.0000   0.0000   0.0000   0.0000
     0.0000

          k = 0.4166 0.3392 0.0816 ( 18948 PWs)   bands (ev):

   -76.7566 -63.7118 -63.6386 -63.6196 -44.1672 -42.5540 -42.4222 -32.5304
   -32.5137 -32.5000 -28.1793 -28.1091 -28.0956 -28.0224 -27.9841 -27.9367
    -7.8038  -7.1787  -7.0317  -6.6889  -6.5117  -6.2545  -6.0746  -6.0183
     3.6571   3.8739   4.0522   4.2354   4.4490   4.9211   5.1971   5.3102
     5.7019   5.8777   6.0102   6.4284   6.6321   6.7714   7.0302   7.2447
     7.3411   7.6762   7.9086   8.1633   8.3370   8.6041   8.8481   8.9164
     9.3130   9.4832   9.6736   9.8810   9.9606  13.8814  14.2731  14.3808
    14.8949  14.9573  15.4907  16.8872  16.9828  17.1242  17.8085  17.9492
    18.2200

     occupation numbers 
     1.0000   1.0000   1.0000   1.0000   1.0000   1.0000   1.0000   1.0000
     1.0000   1.0000   1.0000   1.0000   1.0000   1.0000   1.0000   1.0000
     1.0000   1.0000   1.0000   1.0000   1.0000   1.0000   1.0000   1.0000
     1.0000   1.0000   1.0000   1.0000   1.0000   1.0000   1.0000   1.0000
     1.0000   1.0000   1.0000   1.0000   1.0000   1.0000   1.0000   1.0000
     1.0000   1.0000   1.0000   1.0000   1.0000   1.0000   1.0000   1.0000
     1.0000   1.0000   1.0000   1.0000   1.0000   0.0000   0.0000   0.0000
     0.0000   0.0000   0.0000   0.0000   0.0000   0.0000   0.0000   0.0000
     0.0000

          k = 0.4166 0.3392 0.2358 ( 18956 PWs)   bands (ev):

   -76.7565 -63.7119 -63.6379 -63.6203 -44.1672 -42.5540 -42.4222 -32.5305
   -32.5137 -32.5000 -28.1774 -28.1224 -28.0898 -28.0396 -27.9649 -27.9335
    -7.6673  -7.2438  -6.9750  -6.7431  -6.4555  -6.3708  -6.1253  -5.9873
     3.6728   3.9362   4.1148   4.1553   4.3536   4.9483   5.1662   5.3095
     5.5813   5.8074   5.9873   6.3917   6.5223   6.9597   7.1436   7.3010
     7.4472   7.7609   8.0434   8.1666   8.3089   8.6029   8.7004   8.9883
     9.0869   9.4165   9.6666   9.8887  10.0906  13.8502  14.3649  14.5006
    14.7504  14.9796  15.3948  16.8056  16.9542  17.0674  17.7651  17.8831
    18.2095

     occupation numbers 
     1.0000   1.0000   1.0000   1.0000   1.0000   1.0000   1.0000   1.0000
     1.0000   1.0000   1.0000   1.0000   1.0000   1.0000   1.0000   1.0000
     1.0000   1.0000   1.0000   1.0000   1.0000   1.0000   1.0000   1.0000
     1.0000   1.0000   1.0000   1.0000   1.0000   1.0000   1.0000   1.0000
     1.0000   1.0000   1.0000   1.0000   1.0000   1.0000   1.0000   1.0000
     1.0000   1.0000   1.0000   1.0000   1.0000   1.0000   1.0000   1.0000
     1.0000   1.0000   1.0000   1.0000   1.0000   0.0000   0.0000   0.0000
     0.0000   0.0000   0.0000   0.0000   0.0000   0.0000   0.0000   0.0000
     0.0000

          k = 0.4166 0.3392 0.3901 ( 18971 PWs)   bands (ev):

   -76.7565 -63.7120 -63.6371 -63.6212 -44.1672 -42.5540 -42.4222 -32.5306
   -32.5137 -32.5001 -28.1731 -28.1372 -28.0811 -28.0549 -27.9487 -27.9330
    -7.4427  -7.2931  -6.9776  -6.8749  -6.4585  -6.3990  -6.0923  -6.0405
     3.7690   3.9547   4.0822   4.2340   4.3092   4.7469   4.9717   5.1887
     5.7697   5.9256   6.1575   6.2927   6.6007   6.9014   7.0580   7.4031
     7.5078   7.8197   7.9141   8.2679   8.3811   8.4584   8.8476   8.9772
     9.0418   9.3275   9.7742   9.8317  10.0107  13.9957  14.3591  14.4757
    14.6802  14.9729  15.1929  16.7680  16.8982  16.9794  17.6959  17.8788
    18.3106

     occupation numbers 
     1.0000   1.0000   1.0000   1.0000   1.0000   1.0000   1.0000   1.0000
     1.0000   1.0000   1.0000   1.0000   1.0000   1.0000   1.0000   1.0000
     1.0000   1.0000   1.0000   1.0000   1.0000   1.0000   1.0000   1.0000
     1.0000   1.0000   1.0000   1.0000   1.0000   1.0000   1.0000   1.0000
     1.0000   1.0000   1.0000   1.0000   1.0000   1.0000   1.0000   1.0000
     1.0000   1.0000   1.0000   1.0000   1.0000   1.0000   1.0000   1.0000
     1.0000   1.0000   1.0000   1.0000   1.0000   0.0000   0.0000   0.0000
     0.0000   0.0000   0.0000   0.0000   0.0000   0.0000   0.0000   0.0000
     0.0000

          k = 0.4167 0.3392-0.3812 ( 18959 PWs)   bands (ev):

   -76.7565 -63.7120 -63.6370 -63.6212 -44.1672 -42.5540 -42.4222 -32.5306
   -32.5137 -32.5000 -28.1731 -28.1372 -28.0810 -28.0549 -27.9487 -27.9330
    -7.4536  -7.2391  -7.0012  -6.8861  -6.4694  -6.4152  -6.1207  -5.9978
     3.7937   3.9388   4.1181   4.2778   4.4869   4.5779   4.7829   5.2036
     5.7805   5.9907   6.0857   6.3956   6.6846   6.8286   7.1011   7.2760
     7.4905   7.9368   8.0603   8.1447   8.3717   8.4777   8.7788   8.9229
     9.2066   9.3926   9.5547   9.8519  10.0055  13.9843  14.3086  14.5473
    14.6750  14.9346  15.0747  16.8030  16.9131  16.9544  17.7048  17.9197
    18.4285

     occupation numbers 
     1.0000   1.0000   1.0000   1.0000   1.0000   1.0000   1.0000   1.0000
     1.0000   1.0000   1.0000   1.0000   1.0000   1.0000   1.0000   1.0000
     1.0000   1.0000   1.0000   1.0000   1.0000   1.0000   1.0000   1.0000
     1.0000   1.0000   1.0000   1.0000   1.0000   1.0000   1.0000   1.0000
     1.0000   1.0000   1.0000   1.0000   1.0000   1.0000   1.0000   1.0000
     1.0000   1.0000   1.0000   1.0000   1.0000   1.0000   1.0000   1.0000
     1.0000   1.0000   1.0000   1.0000   1.0000   0.0000   0.0000   0.0000
     0.0000   0.0000   0.0000   0.0000   0.0000   0.0000   0.0000   0.0000
     0.0000

          k = 0.4167 0.3392-0.2269 ( 18957 PWs)   bands (ev):

   -76.7565 -63.7119 -63.6379 -63.6204 -44.1672 -42.5540 -42.4222 -32.5306
   -32.5137 -32.5000 -28.1772 -28.1224 -28.0897 -28.0398 -27.9648 -27.9335
    -7.6677  -7.2102  -6.9119  -6.7493  -6.6037  -6.3989  -6.0808  -5.9542
     3.7445   3.8601   4.1302   4.3301   4.4516   4.7916   4.8330   5.4286
     5.6157   5.8894   6.0898   6.1922   6.5471   6.9394   7.2080   7.3622
     7.5618   7.7840   8.0424   8.1288   8.3039   8.5240   8.6673   9.0841
     9.2239   9.3732   9.5555   9.8623   9.9699  13.8462  14.3873  14.5255
    14.7058  14.8105  15.2790  16.8597  16.9504  17.0632  17.7110  17.9808
    18.4138

     occupation numbers 
     1.0000   1.0000   1.0000   1.0000   1.0000   1.0000   1.0000   1.0000
     1.0000   1.0000   1.0000   1.0000   1.0000   1.0000   1.0000   1.0000
     1.0000   1.0000   1.0000   1.0000   1.0000   1.0000   1.0000   1.0000
     1.0000   1.0000   1.0000   1.0000   1.0000   1.0000   1.0000   1.0000
     1.0000   1.0000   1.0000   1.0000   1.0000   1.0000   1.0000   1.0000
     1.0000   1.0000   1.0000   1.0000   1.0000   1.0000   1.0000   1.0000
     1.0000   1.0000   1.0000   1.0000   1.0000   0.0000   0.0000   0.0000
     0.0000   0.0000   0.0000   0.0000   0.0000   0.0000   0.0000   0.0000
     0.0000

          k = 0.4167 0.3392-0.0727 ( 18963 PWs)   bands (ev):

   -76.7566 -63.7118 -63.6386 -63.6196 -44.1672 -42.5540 -42.4222 -32.5305
   -32.5137 -32.5000 -28.1792 -28.1092 -28.0955 -28.0226 -27.9840 -27.9367
    -7.8037  -7.1876  -6.9556  -6.6877  -6.6116  -6.2820  -6.0497  -5.9883
     3.7162   3.7965   4.0710   4.2784   4.5075   4.9010   5.0690   5.3300
     5.6751   5.8664   6.1764   6.3371   6.5428   6.8350   7.0866   7.1783
     7.4393   7.6634   7.9114   8.1819   8.3254   8.6307   8.7287   9.0542
     9.2999   9.4988   9.6705   9.8433   9.8676  13.8966  14.3237  14.3364
    14.8169  14.9193  15.4508  16.9083  16.9845  17.1190  17.7314  18.0289
    18.3466

     occupation numbers 
     1.0000   1.0000   1.0000   1.0000   1.0000   1.0000   1.0000   1.0000
     1.0000   1.0000   1.0000   1.0000   1.0000   1.0000   1.0000   1.0000
     1.0000   1.0000   1.0000   1.0000   1.0000   1.0000   1.0000   1.0000
     1.0000   1.0000   1.0000   1.0000   1.0000   1.0000   1.0000   1.0000
     1.0000   1.0000   1.0000   1.0000   1.0000   1.0000   1.0000   1.0000
     1.0000   1.0000   1.0000   1.0000   1.0000   1.0000   1.0000   1.0000
     1.0000   1.0000   1.0000   1.0000   1.0000   0.0000   0.0000   0.0000
     0.0000   0.0000   0.0000   0.0000   0.0000   0.0000   0.0000   0.0000
     0.0000

     the Fermi energy is    12.5233 ev

!    total energy              =   -1035.27583544 Ry
     estimated scf accuracy    <          6.4E-11 Ry
     smearing contrib. (-TS)   =       0.00000000 Ry
     internal energy E=F+TS    =   -1035.27583544 Ry

     The total energy is F=E-TS. E is the sum of the following terms:
     one-electron contribution =    -398.42621361 Ry
     hartree contribution      =     257.42010059 Ry
     xc contribution           =    -204.01911242 Ry
     ewald contribution        =    -690.37209177 Ry
     Hubbard energy            =       0.12148177 Ry

     total magnetization       =     1.00 Bohr mag/cell
     absolute magnetization    =     8.77 Bohr mag/cell

     convergence has been achieved in  30 iterations

     Writing all to output data dir ./tmp/MnFeWO4_AFM/MnFeWO4_AFM.save/ :
     XML data file, charge density, pseudopotentials, collected wavefunctions
 
     init_run     :      5.87s CPU      6.01s WALL (       1 calls)
     electrons    :    516.25s CPU    520.99s WALL (       1 calls)

     Called by init_run:
     wfcinit      :      5.79s CPU      5.91s WALL (       1 calls)
     wfcinit:atom :      0.04s CPU      0.04s WALL (     108 calls)
     wfcinit:wfcr :      4.49s CPU      4.58s WALL (     108 calls)
     potinit      :      0.02s CPU      0.02s WALL (       1 calls)
     hinit0       :      0.02s CPU      0.02s WALL (       1 calls)

     Called by electrons:
     c_bands      :    467.83s CPU    471.85s WALL (      30 calls)
     sum_band     :     47.40s CPU     48.00s WALL (      30 calls)
     v_of_rho     :      0.42s CPU      0.44s WALL (      31 calls)
     v_h          :      0.02s CPU      0.02s WALL (      31 calls)
     v_xc         :      0.41s CPU      0.42s WALL (      31 calls)
     mix_rho      :      0.58s CPU      0.60s WALL (      30 calls)

     Called by c_bands:
     init_us_2    :      8.89s CPU      9.05s WALL (    6696 calls)
     cegterg      :    435.61s CPU    439.24s WALL (    3240 calls)

     Called by sum_band:
     sum_band:wei :      0.11s CPU      0.11s WALL (      30 calls)
     sum_band:loo :     44.79s CPU     45.28s WALL (      30 calls)
     sum_band:buf :      0.82s CPU      0.83s WALL (    3240 calls)
     sum_band:ini :      3.56s CPU      3.60s WALL (    3240 calls)

     Called by *egterg:
     cdiaghg      :     57.86s CPU     58.14s WALL (   18313 calls)
     cegterg:over :     24.03s CPU     24.20s WALL (   15073 calls)
     cegterg:upda :     15.72s CPU     15.83s WALL (   15073 calls)
     cegterg:last :     25.40s CPU     25.55s WALL (    7580 calls)
     h_psi        :    302.24s CPU    305.20s WALL (   18421 calls)
     g_psi        :      1.05s CPU      1.06s WALL (   15073 calls)

     Called by h_psi:
     h_psi:calbec :     34.96s CPU     35.22s WALL (   18421 calls)
     vloc_psi     :    218.53s CPU    220.93s WALL (   18421 calls)
     add_vuspsi   :     33.68s CPU     33.89s WALL (   18421 calls)
     vhpsi        :     13.48s CPU     13.58s WALL (   18421 calls)

     General routines
     calbec       :     48.57s CPU     48.99s WALL (   40190 calls)
     fft          :      0.20s CPU      0.21s WALL (     587 calls)
     ffts         :      0.32s CPU      0.32s WALL (     935 calls)
     fftw         :    241.11s CPU    243.76s WALL ( 1397732 calls)
 
     Parallel routines

     Hubbard U routines
     new_ns       :      2.41s CPU      2.51s WALL (      30 calls)
     vhpsi        :     13.48s CPU     13.58s WALL (   18421 calls)
 
     PWSCF        :   8m42.84s CPU   8m51.60s WALL

 
   This run was terminated on:   6:39:18  19Nov2025            

=------------------------------------------------------------------------------=
   JOB DONE.
=------------------------------------------------------------------------------=
