
     Program PWSCF v.7.4.1 starts on 19Nov2025 at  6:22:27 
        Git branch: heads/qe-7.4.1
        Last git commit: 500de340b820e1cb8c05f2d8bb8fced102f377c1-dirty
        Last git commit date: Fri Feb 7 14:59:05 2025 +0000
        Last git commit subject: Merge branch 'qe-7.4.1' into 'master'

     This program is part of the open-source Quantum ESPRESSO suite
     for quantum simulation of materials; please cite
         "P. Giannozzi et al., J. Phys.:Condens. Matter 21 395502 (2009);
         "P. Giannozzi et al., J. Phys.:Condens. Matter 29 465901 (2017);
         "P. Giannozzi et al., J. Chem. Phys. 152 154105 (2020);
          URL http://www.quantum-espresso.org", 
     in publications or presentations arising from this work. More details at
     http://www.quantum-espresso.org/quote

     Parallel version (MPI), running on    16 processors

     MPI processes distributed on     1 nodes
     664504 MiB available memory on the printing compute node when the environment starts
 
     Reading input from inputs_FM/NiCuWO4_FM.in

     Current dimensions of program PWSCF are:
     Max number of different atomic species (ntypx) = 10
     Max number of k-points (npk) =  40000
     Max angular momentum in pseudopotentials (lmaxx) =  4
 
     R & G space division:  proc/nbgrp/npool/nimage =      16
     Subspace diagonalization in iterative solution of the eigenvalue problem:
     a serial algorithm will be used

 
     Parallelization info
     --------------------
     sticks:   dense  smooth     PW     G-vecs:    dense   smooth      PW
     Min         203     203     55                 9565     9565    1365
     Max         204     204     56                 9567     9567    1367
     Sum        3251    3251    883               153055   153055   21853
 
     Using Slab Decomposition
 


     bravais-lattice index     =            0
     lattice parameter (alat)  =       8.6642  a.u.
     unit-cell volume          =     861.6254 (a.u.)^3
     number of atoms/cell      =           12
     number of atomic types    =            4
     number of electrons       =       113.00
     number of Kohn-Sham states=           68
     kinetic-energy cutoff     =     120.0000  Ry
     charge density cutoff     =     480.0000  Ry
     scf convergence threshold =      1.0E-09
     mixing beta               =       0.7000
     number of iterations used =            8  local-TF  mixing
     Exchange-correlation= PBESOL
                           (   1   4  10   8   0   0   0)
     Hubbard projectors: ortho-atomic
     Hubbard parameters of DFT+U (Dudarev formulation) in eV:
     U(Ni-3d) =  8.5500
     U(Cu-3d) = 10.0000

     Internal variables: lda_plus_u = T, lda_plus_u_kind = 0

     celldm(1)=   8.664233  celldm(2)=   0.000000  celldm(3)=   0.000000
     celldm(4)=   0.000000  celldm(5)=   0.000000  celldm(6)=   0.000000

     crystal axes: (cart. coord. in units of alat)
               a(1) = (   0.999953  -0.000227   0.009680 )  
               a(2) = (   0.031501   1.132169   0.000377 )  
               a(3) = (   0.086593   0.027696   1.170971 )  

     reciprocal axes: (cart. coord. in units 2 pi/alat)
               b(1) = (  1.000751 -0.027820 -0.073348 )  
               b(2) = (  0.000403  0.883256 -0.020920 )  
               b(3) = ( -0.008273 -0.000054  0.854605 )  


     PseudoPot. # 1 for Ni read from file:
     pseudo_dojo_pbesol/Ni.upf
     MD5 check sum: 3ec56ad6bf78c9cc1bbec815420e1c7d
     Pseudo is Norm-conserving + core correction, Zval = 18.0
     Generated using ONCVPSP code by D. R. Hamann
     Using radial grid of 1356 points,  6 beta functions with: 
                l(1) =   0
                l(2) =   0
                l(3) =   1
                l(4) =   1
                l(5) =   2
                l(6) =   2

     PseudoPot. # 2 for Cu read from file:
     pseudo_dojo_pbesol/Cu.upf
     MD5 check sum: 5521c194e1bf37484dee827cb890bc02
     Pseudo is Norm-conserving + core correction, Zval = 19.0
     Generated using ONCVPSP code by D. R. Hamann
     Using radial grid of 1492 points,  6 beta functions with: 
                l(1) =   0
                l(2) =   0
                l(3) =   1
                l(4) =   1
                l(5) =   2
                l(6) =   2

     PseudoPot. # 3 for W  read from file:
     pseudo_dojo_pbesol/W.upf
     MD5 check sum: b5ac44390825a9169ccdba7091ec60d0
     Pseudo is Norm-conserving + core correction, Zval = 14.0
     Generated using ONCVPSP code by D. R. Hamann
     Using radial grid of 1396 points,  8 beta functions with: 
                l(1) =   0
                l(2) =   0
                l(3) =   1
                l(4) =   1
                l(5) =   2
                l(6) =   2
                l(7) =   3
                l(8) =   3

     PseudoPot. # 4 for O  read from file:
     pseudo_dojo_pbesol/O.upf
     MD5 check sum: f226cbcd508cec715ff87a8f75a1dfba
     Pseudo is Norm-conserving + core correction, Zval =  6.0
     Generated using ONCVPSP code by D. R. Hamann
     Using radial grid of  936 points,  5 beta functions with: 
                l(1) =   0
                l(2) =   0
                l(3) =   1
                l(4) =   1
                l(5) =   2

     atomic species   valence    mass     pseudopotential
     Ni               18.00    58.69340     Ni( 1.00)
     Cu               19.00    63.54600     Cu( 1.00)
     W                14.00   183.84000     W ( 1.00)
     O                 6.00    15.99940     O ( 1.00)

     Starting magnetic structure 
     atomic species   magnetization
     Ni              0.200
     Cu              0.200
     W               0.000
     O               0.000

     No symmetry found


                                    s                        frac. trans.

      isym =  1     identity                                     

 cryst.   s( 1) = (     1          0          0      )
                  (     0          1          0      )
                  (     0          0          1      )

 cart.    s( 1) = (  1.0000000  0.0000000 -0.0000000 )
                  (  0.0000000  1.0000000 -0.0000000 )
                  (  0.0000000  0.0000000  1.0000000 )


   Cartesian axes

     site n.     atom                  positions (alat units)
         1        Ni     tau(   1) = (   0.5420502   0.7409122   0.2978268  )
         2        Cu     tau(   2) = (   0.5759973   0.4187256   0.8832006  )
         3        W      tau(   3) = (   0.0910159   0.9577753   0.8785401  )
         4        W      tau(   4) = (   0.0270786   0.2020892   0.2928077  )
         5        O      tau(   5) = (   0.8325833   0.7264481   1.0729623  )
         6        O      tau(   6) = (   0.3362915   0.7176899   0.6936409  )
         7        O      tau(   7) = (   0.2854643   0.4331898   0.1080652  )
         8        O      tau(   8) = (   0.7817560   0.4419479   0.4873866  )
         9        O      tau(   9) = (   0.8545669   0.1543708   1.0897123  )
        10        O      tau(  10) = (   0.2824521   0.1448448   0.6765098  )
        11        O      tau(  11) = (   0.8355955   1.0147931   0.5045176  )
        12        O      tau(  12) = (   0.2634806   1.0052670   0.0913151  )

   Crystallographic axes

     site n.     atom                  positions (cryst. coord.)
         1        Ni     tau(   1) = (  0.5000000  0.6484029  0.2500000  )
         2        Cu     tau(   2) = (  0.5000000  0.3515971  0.7500000  )
         3        W      tau(   3) = (  0.0000000  0.8276182  0.7500000  )
         4        W      tau(   4) = (  0.0000000  0.1723818  0.2500000  )
         5        O      tau(   5) = (  0.7342992  0.6195283  0.9100319  )
         6        O      tau(   6) = (  0.2657008  0.6195283  0.5899681  )
         7        O      tau(   7) = (  0.2657008  0.3804717  0.0899681  )
         8        O      tau(   8) = (  0.7342992  0.3804717  0.4100319  )
         9        O      tau(   9) = (  0.7709859  0.1138960  0.9241958  )
        10        O      tau(  10) = (  0.2290141  0.1138960  0.5758042  )
        11        O      tau(  11) = (  0.7709859  0.8861040  0.4241958  )
        12        O      tau(  12) = (  0.2290141  0.8861040  0.0758042  )

     number of k points=   108  Marzari-Vanderbilt smearing, width (Ry)=  0.0200
                       cart. coord. in units 2pi/alat
        k(    1) = (   0.0827401   0.0712818   0.0633614), wk =   0.0092593
        k(    2) = (   0.0813613   0.0712728   0.2057956), wk =   0.0092593
        k(    3) = (   0.0799825   0.0712638   0.3482298), wk =   0.0092593
        k(    4) = (   0.0868764   0.0713089  -0.3639411), wk =   0.0092593
        k(    5) = (   0.0854976   0.0712999  -0.2215069), wk =   0.0092593
        k(    6) = (   0.0841188   0.0712909  -0.0790728), wk =   0.0092593
        k(    7) = (   0.0828072   0.2184912   0.0598747), wk =   0.0092593
        k(    8) = (   0.0814284   0.2184822   0.2023089), wk =   0.0092593
        k(    9) = (   0.0800496   0.2184731   0.3447430), wk =   0.0092593
        k(   10) = (   0.0869435   0.2185183  -0.3674278), wk =   0.0092593
        k(   11) = (   0.0855647   0.2185092  -0.2249936), wk =   0.0092593
        k(   12) = (   0.0841859   0.2185002  -0.0825595), wk =   0.0092593
        k(   13) = (   0.0828743   0.3657005   0.0563880), wk =   0.0092593
        k(   14) = (   0.0814955   0.3656915   0.1988221), wk =   0.0092593
        k(   15) = (   0.0801167   0.3656825   0.3412563), wk =   0.0092593
        k(   16) = (   0.0870106   0.3657276  -0.3709145), wk =   0.0092593
        k(   17) = (   0.0856318   0.3657186  -0.2284804), wk =   0.0092593
        k(   18) = (   0.0842531   0.3657096  -0.0860462), wk =   0.0092593
        k(   19) = (   0.0825387  -0.3703462   0.0738216), wk =   0.0092593
        k(   20) = (   0.0811599  -0.3703553   0.2162558), wk =   0.0092593
        k(   21) = (   0.0797812  -0.3703643   0.3586899), wk =   0.0092593
        k(   22) = (   0.0866750  -0.3703192  -0.3534809), wk =   0.0092593
        k(   23) = (   0.0852962  -0.3703282  -0.2110468), wk =   0.0092593
        k(   24) = (   0.0839175  -0.3703372  -0.0686126), wk =   0.0092593
        k(   25) = (   0.0826058  -0.2231369   0.0703349), wk =   0.0092593
        k(   26) = (   0.0812270  -0.2231459   0.2127690), wk =   0.0092593
        k(   27) = (   0.0798483  -0.2231549   0.3552032), wk =   0.0092593
        k(   28) = (   0.0867421  -0.2231098  -0.3569676), wk =   0.0092593
        k(   29) = (   0.0853634  -0.2231188  -0.2145335), wk =   0.0092593
        k(   30) = (   0.0839846  -0.2231279  -0.0720993), wk =   0.0092593
        k(   31) = (   0.0826729  -0.0759275   0.0668481), wk =   0.0092593
        k(   32) = (   0.0812942  -0.0759366   0.2092823), wk =   0.0092593
        k(   33) = (   0.0799154  -0.0759456   0.3517165), wk =   0.0092593
        k(   34) = (   0.0868093  -0.0759004  -0.3604544), wk =   0.0092593
        k(   35) = (   0.0854305  -0.0759095  -0.2180202), wk =   0.0092593
        k(   36) = (   0.0840517  -0.0759185  -0.0755860), wk =   0.0092593
        k(   37) = (   0.2495318   0.0666452   0.0511368), wk =   0.0092593
        k(   38) = (   0.2481530   0.0666361   0.1935710), wk =   0.0092593
        k(   39) = (   0.2467743   0.0666271   0.3360052), wk =   0.0092593
        k(   40) = (   0.2536681   0.0666722  -0.3761657), wk =   0.0092593
        k(   41) = (   0.2522894   0.0666632  -0.2337315), wk =   0.0092593
        k(   42) = (   0.2509106   0.0666542  -0.0912974), wk =   0.0092593
        k(   43) = (   0.2495989   0.2138545   0.0476501), wk =   0.0092593
        k(   44) = (   0.2482202   0.2138455   0.1900843), wk =   0.0092593
        k(   45) = (   0.2468414   0.2138365   0.3325184), wk =   0.0092593
        k(   46) = (   0.2537353   0.2138816  -0.3796524), wk =   0.0092593
        k(   47) = (   0.2523565   0.2138726  -0.2372183), wk =   0.0092593
        k(   48) = (   0.2509777   0.2138635  -0.0947841), wk =   0.0092593
        k(   49) = (   0.2496661   0.3610639   0.0441634), wk =   0.0092593
        k(   50) = (   0.2482873   0.3610548   0.1865975), wk =   0.0092593
        k(   51) = (   0.2469085   0.3610458   0.3290317), wk =   0.0092593
        k(   52) = (   0.2538024   0.3610910  -0.3831391), wk =   0.0092593
        k(   53) = (   0.2524236   0.3610819  -0.2407050), wk =   0.0092593
        k(   54) = (   0.2510448   0.3610729  -0.0982708), wk =   0.0092593
        k(   55) = (   0.2493305  -0.3749829   0.0615970), wk =   0.0092593
        k(   56) = (   0.2479517  -0.3749919   0.2040312), wk =   0.0092593
        k(   57) = (   0.2465729  -0.3750010   0.3464653), wk =   0.0092593
        k(   58) = (   0.2534668  -0.3749558  -0.3657055), wk =   0.0092593
        k(   59) = (   0.2520880  -0.3749649  -0.2232714), wk =   0.0092593
        k(   60) = (   0.2507092  -0.3749739  -0.0808372), wk =   0.0092593
        k(   61) = (   0.2493976  -0.2277736   0.0581103), wk =   0.0092593
        k(   62) = (   0.2480188  -0.2277826   0.2005444), wk =   0.0092593
        k(   63) = (   0.2466400  -0.2277916   0.3429786), wk =   0.0092593
        k(   64) = (   0.2535339  -0.2277465  -0.3691923), wk =   0.0092593
        k(   65) = (   0.2521551  -0.2277555  -0.2267581), wk =   0.0092593
        k(   66) = (   0.2507764  -0.2277645  -0.0843239), wk =   0.0092593
        k(   67) = (   0.2494647  -0.0805642   0.0546235), wk =   0.0092593
        k(   68) = (   0.2480859  -0.0805732   0.1970577), wk =   0.0092593
        k(   69) = (   0.2467072  -0.0805823   0.3394919), wk =   0.0092593
        k(   70) = (   0.2536010  -0.0805371  -0.3726790), wk =   0.0092593
        k(   71) = (   0.2522222  -0.0805461  -0.2302448), wk =   0.0092593
        k(   72) = (   0.2508435  -0.0805552  -0.0878106), wk =   0.0092593
        k(   73) = (   0.4163236   0.0620085   0.0389122), wk =   0.0092593
        k(   74) = (   0.4149448   0.0619995   0.1813464), wk =   0.0092593
        k(   75) = (   0.4135660   0.0619904   0.3237805), wk =   0.0092593
        k(   76) = (   0.4204599   0.0620356  -0.3883903), wk =   0.0092593
        k(   77) = (   0.4190811   0.0620265  -0.2459561), wk =   0.0092593
        k(   78) = (   0.4177024   0.0620175  -0.1035220), wk =   0.0092593
        k(   79) = (   0.4163907   0.2092179   0.0354255), wk =   0.0092593
        k(   80) = (   0.4150119   0.2092088   0.1778596), wk =   0.0092593
        k(   81) = (   0.4136332   0.2091998   0.3202938), wk =   0.0092593
        k(   82) = (   0.4205270   0.2092449  -0.3918770), wk =   0.0092593
        k(   83) = (   0.4191482   0.2092359  -0.2494429), wk =   0.0092593
        k(   84) = (   0.4177695   0.2092269  -0.1070087), wk =   0.0092593
        k(   85) = (   0.4164578   0.3564272   0.0319388), wk =   0.0092593
        k(   86) = (   0.4150790   0.3564182   0.1743729), wk =   0.0092593
        k(   87) = (   0.4137003   0.3564092   0.3168071), wk =   0.0092593
        k(   88) = (   0.4205941   0.3564543  -0.3953638), wk =   0.0092593
        k(   89) = (   0.4192154   0.3564453  -0.2529296), wk =   0.0092593
        k(   90) = (   0.4178366   0.3564362  -0.1104954), wk =   0.0092593
        k(   91) = (   0.4161222  -0.3796196   0.0493724), wk =   0.0092593
        k(   92) = (   0.4147435  -0.3796286   0.1918065), wk =   0.0092593
        k(   93) = (   0.4133647  -0.3796376   0.3342407), wk =   0.0092593
        k(   94) = (   0.4202586  -0.3795925  -0.3779301), wk =   0.0092593
        k(   95) = (   0.4188798  -0.3796015  -0.2354960), wk =   0.0092593
        k(   96) = (   0.4175010  -0.3796106  -0.0930618), wk =   0.0092593
        k(   97) = (   0.4161893  -0.2324102   0.0458856), wk =   0.0092593
        k(   98) = (   0.4148106  -0.2324193   0.1883198), wk =   0.0092593
        k(   99) = (   0.4134318  -0.2324283   0.3307540), wk =   0.0092593
        k(  100) = (   0.4203257  -0.2323831  -0.3814169), wk =   0.0092593
        k(  101) = (   0.4189469  -0.2323922  -0.2389827), wk =   0.0092593
        k(  102) = (   0.4175681  -0.2324012  -0.0965485), wk =   0.0092593
        k(  103) = (   0.4162565  -0.0852009   0.0423989), wk =   0.0092593
        k(  104) = (   0.4148777  -0.0852099   0.1848331), wk =   0.0092593
        k(  105) = (   0.4134989  -0.0852189   0.3272673), wk =   0.0092593
        k(  106) = (   0.4203928  -0.0851738  -0.3849036), wk =   0.0092593
        k(  107) = (   0.4190140  -0.0851828  -0.2424694), wk =   0.0092593
        k(  108) = (   0.4176352  -0.0851918  -0.1000352), wk =   0.0092593

                       cryst. coord.
        k(    1) = (   0.0833333   0.0833333   0.0833333), wk =   0.0092593
        k(    2) = (   0.0833333   0.0833333   0.2500000), wk =   0.0092593
        k(    3) = (   0.0833333   0.0833333   0.4166667), wk =   0.0092593
        k(    4) = (   0.0833333   0.0833333  -0.4166667), wk =   0.0092593
        k(    5) = (   0.0833333   0.0833333  -0.2500000), wk =   0.0092593
        k(    6) = (   0.0833333   0.0833333  -0.0833333), wk =   0.0092593
        k(    7) = (   0.0833333   0.2500000   0.0833333), wk =   0.0092593
        k(    8) = (   0.0833333   0.2500000   0.2500000), wk =   0.0092593
        k(    9) = (   0.0833333   0.2500000   0.4166667), wk =   0.0092593
        k(   10) = (   0.0833333   0.2500000  -0.4166667), wk =   0.0092593
        k(   11) = (   0.0833333   0.2500000  -0.2500000), wk =   0.0092593
        k(   12) = (   0.0833333   0.2500000  -0.0833333), wk =   0.0092593
        k(   13) = (   0.0833333   0.4166667   0.0833333), wk =   0.0092593
        k(   14) = (   0.0833333   0.4166667   0.2500000), wk =   0.0092593
        k(   15) = (   0.0833333   0.4166667   0.4166667), wk =   0.0092593
        k(   16) = (   0.0833333   0.4166667  -0.4166667), wk =   0.0092593
        k(   17) = (   0.0833333   0.4166667  -0.2500000), wk =   0.0092593
        k(   18) = (   0.0833333   0.4166667  -0.0833333), wk =   0.0092593
        k(   19) = (   0.0833333  -0.4166667   0.0833333), wk =   0.0092593
        k(   20) = (   0.0833333  -0.4166667   0.2500000), wk =   0.0092593
        k(   21) = (   0.0833333  -0.4166667   0.4166667), wk =   0.0092593
        k(   22) = (   0.0833333  -0.4166667  -0.4166667), wk =   0.0092593
        k(   23) = (   0.0833333  -0.4166667  -0.2500000), wk =   0.0092593
        k(   24) = (   0.0833333  -0.4166667  -0.0833333), wk =   0.0092593
        k(   25) = (   0.0833333  -0.2500000   0.0833333), wk =   0.0092593
        k(   26) = (   0.0833333  -0.2500000   0.2500000), wk =   0.0092593
        k(   27) = (   0.0833333  -0.2500000   0.4166667), wk =   0.0092593
        k(   28) = (   0.0833333  -0.2500000  -0.4166667), wk =   0.0092593
        k(   29) = (   0.0833333  -0.2500000  -0.2500000), wk =   0.0092593
        k(   30) = (   0.0833333  -0.2500000  -0.0833333), wk =   0.0092593
        k(   31) = (   0.0833333  -0.0833333   0.0833333), wk =   0.0092593
        k(   32) = (   0.0833333  -0.0833333   0.2500000), wk =   0.0092593
        k(   33) = (   0.0833333  -0.0833333   0.4166667), wk =   0.0092593
        k(   34) = (   0.0833333  -0.0833333  -0.4166667), wk =   0.0092593
        k(   35) = (   0.0833333  -0.0833333  -0.2500000), wk =   0.0092593
        k(   36) = (   0.0833333  -0.0833333  -0.0833333), wk =   0.0092593
        k(   37) = (   0.2500000   0.0833333   0.0833333), wk =   0.0092593
        k(   38) = (   0.2500000   0.0833333   0.2500000), wk =   0.0092593
        k(   39) = (   0.2500000   0.0833333   0.4166667), wk =   0.0092593
        k(   40) = (   0.2500000   0.0833333  -0.4166667), wk =   0.0092593
        k(   41) = (   0.2500000   0.0833333  -0.2500000), wk =   0.0092593
        k(   42) = (   0.2500000   0.0833333  -0.0833333), wk =   0.0092593
        k(   43) = (   0.2500000   0.2500000   0.0833333), wk =   0.0092593
        k(   44) = (   0.2500000   0.2500000   0.2500000), wk =   0.0092593
        k(   45) = (   0.2500000   0.2500000   0.4166667), wk =   0.0092593
        k(   46) = (   0.2500000   0.2500000  -0.4166667), wk =   0.0092593
        k(   47) = (   0.2500000   0.2500000  -0.2500000), wk =   0.0092593
        k(   48) = (   0.2500000   0.2500000  -0.0833333), wk =   0.0092593
        k(   49) = (   0.2500000   0.4166667   0.0833333), wk =   0.0092593
        k(   50) = (   0.2500000   0.4166667   0.2500000), wk =   0.0092593
        k(   51) = (   0.2500000   0.4166667   0.4166667), wk =   0.0092593
        k(   52) = (   0.2500000   0.4166667  -0.4166667), wk =   0.0092593
        k(   53) = (   0.2500000   0.4166667  -0.2500000), wk =   0.0092593
        k(   54) = (   0.2500000   0.4166667  -0.0833333), wk =   0.0092593
        k(   55) = (   0.2500000  -0.4166667   0.0833333), wk =   0.0092593
        k(   56) = (   0.2500000  -0.4166667   0.2500000), wk =   0.0092593
        k(   57) = (   0.2500000  -0.4166667   0.4166667), wk =   0.0092593
        k(   58) = (   0.2500000  -0.4166667  -0.4166667), wk =   0.0092593
        k(   59) = (   0.2500000  -0.4166667  -0.2500000), wk =   0.0092593
        k(   60) = (   0.2500000  -0.4166667  -0.0833333), wk =   0.0092593
        k(   61) = (   0.2500000  -0.2500000   0.0833333), wk =   0.0092593
        k(   62) = (   0.2500000  -0.2500000   0.2500000), wk =   0.0092593
        k(   63) = (   0.2500000  -0.2500000   0.4166667), wk =   0.0092593
        k(   64) = (   0.2500000  -0.2500000  -0.4166667), wk =   0.0092593
        k(   65) = (   0.2500000  -0.2500000  -0.2500000), wk =   0.0092593
        k(   66) = (   0.2500000  -0.2500000  -0.0833333), wk =   0.0092593
        k(   67) = (   0.2500000  -0.0833333   0.0833333), wk =   0.0092593
        k(   68) = (   0.2500000  -0.0833333   0.2500000), wk =   0.0092593
        k(   69) = (   0.2500000  -0.0833333   0.4166667), wk =   0.0092593
        k(   70) = (   0.2500000  -0.0833333  -0.4166667), wk =   0.0092593
        k(   71) = (   0.2500000  -0.0833333  -0.2500000), wk =   0.0092593
        k(   72) = (   0.2500000  -0.0833333  -0.0833333), wk =   0.0092593
        k(   73) = (   0.4166667   0.0833333   0.0833333), wk =   0.0092593
        k(   74) = (   0.4166667   0.0833333   0.2500000), wk =   0.0092593
        k(   75) = (   0.4166667   0.0833333   0.4166667), wk =   0.0092593
        k(   76) = (   0.4166667   0.0833333  -0.4166667), wk =   0.0092593
        k(   77) = (   0.4166667   0.0833333  -0.2500000), wk =   0.0092593
        k(   78) = (   0.4166667   0.0833333  -0.0833333), wk =   0.0092593
        k(   79) = (   0.4166667   0.2500000   0.0833333), wk =   0.0092593
        k(   80) = (   0.4166667   0.2500000   0.2500000), wk =   0.0092593
        k(   81) = (   0.4166667   0.2500000   0.4166667), wk =   0.0092593
        k(   82) = (   0.4166667   0.2500000  -0.4166667), wk =   0.0092593
        k(   83) = (   0.4166667   0.2500000  -0.2500000), wk =   0.0092593
        k(   84) = (   0.4166667   0.2500000  -0.0833333), wk =   0.0092593
        k(   85) = (   0.4166667   0.4166667   0.0833333), wk =   0.0092593
        k(   86) = (   0.4166667   0.4166667   0.2500000), wk =   0.0092593
        k(   87) = (   0.4166667   0.4166667   0.4166667), wk =   0.0092593
        k(   88) = (   0.4166667   0.4166667  -0.4166667), wk =   0.0092593
        k(   89) = (   0.4166667   0.4166667  -0.2500000), wk =   0.0092593
        k(   90) = (   0.4166667   0.4166667  -0.0833333), wk =   0.0092593
        k(   91) = (   0.4166667  -0.4166667   0.0833333), wk =   0.0092593
        k(   92) = (   0.4166667  -0.4166667   0.2500000), wk =   0.0092593
        k(   93) = (   0.4166667  -0.4166667   0.4166667), wk =   0.0092593
        k(   94) = (   0.4166667  -0.4166667  -0.4166667), wk =   0.0092593
        k(   95) = (   0.4166667  -0.4166667  -0.2500000), wk =   0.0092593
        k(   96) = (   0.4166667  -0.4166667  -0.0833333), wk =   0.0092593
        k(   97) = (   0.4166667  -0.2500000   0.0833333), wk =   0.0092593
        k(   98) = (   0.4166667  -0.2500000   0.2500000), wk =   0.0092593
        k(   99) = (   0.4166667  -0.2500000   0.4166667), wk =   0.0092593
        k(  100) = (   0.4166667  -0.2500000  -0.4166667), wk =   0.0092593
        k(  101) = (   0.4166667  -0.2500000  -0.2500000), wk =   0.0092593
        k(  102) = (   0.4166667  -0.2500000  -0.0833333), wk =   0.0092593
        k(  103) = (   0.4166667  -0.0833333   0.0833333), wk =   0.0092593
        k(  104) = (   0.4166667  -0.0833333   0.2500000), wk =   0.0092593
        k(  105) = (   0.4166667  -0.0833333   0.4166667), wk =   0.0092593
        k(  106) = (   0.4166667  -0.0833333  -0.4166667), wk =   0.0092593
        k(  107) = (   0.4166667  -0.0833333  -0.2500000), wk =   0.0092593
        k(  108) = (   0.4166667  -0.0833333  -0.0833333), wk =   0.0092593

     Dense  grid:   153055 G-vectors     FFT dimensions: (  64,  72,  72)

     Dynamical RAM for                 wfc:       1.24 MB

     Dynamical RAM for     wfc (w. buffer):     269.06 MB

     Dynamical RAM for             U proj.:       0.18 MB

     Dynamical RAM for  U proj. (w. buff.):      39.57 MB

     Dynamical RAM for           str. fact:       0.58 MB

     Dynamical RAM for           local pot:       0.00 MB

     Dynamical RAM for          nlocal pot:       3.72 MB

     Dynamical RAM for                qrad:      16.87 MB

     Dynamical RAM for          rho,v,vnew:       1.93 MB

     Dynamical RAM for               rhoin:       0.64 MB

     Dynamical RAM for            rho*nmix:       4.67 MB

     Dynamical RAM for           G-vectors:       0.62 MB

     Dynamical RAM for          h,s,v(r/c):       0.85 MB

     Dynamical RAM for          <psi|beta>:       0.21 MB

     Dynamical RAM for                 psi:       2.48 MB

     Dynamical RAM for                hpsi:       2.48 MB

     Dynamical RAM for      wfcinit/wfcrot:       2.59 MB

     Estimated static dynamical RAM per process >     334.79 MB

     Estimated max dynamical RAM per process >     345.48 MB

     Estimated total dynamical RAM >       5.40 GB
     Generating pointlists ...
     new r_m :   0.1764 (alat units)  1.5279 (a.u.) for type    1
     new r_m :   0.1764 (alat units)  1.5279 (a.u.) for type    2
     new r_m :   0.1608 (alat units)  1.3933 (a.u.) for type    3
     new r_m :   0.1608 (alat units)  1.3933 (a.u.) for type    4

     Initial potential from superposition of free atoms

     starting charge     112.9985, renormalised to     113.0000

     HUBBARD ENERGY =    0.3770  (Ry)

     STARTING HUBBARD OCCUPATIONS:

     =================== HUBBARD OCCUPATIONS ===================
     ------------------------ ATOM    1 ------------------------
     Tr[ns(  1)] (up, down, total) =   5.00000  3.00000  8.00000
     Atomic magnetic moment for atom   1 =   2.00000
     SPIN  1
     eigenvalues:
       1.000  1.000  1.000  1.000  1.000
     eigenvectors (columns):
       1.000  0.000  0.000  0.000  0.000
       0.000  1.000  0.000  0.000  0.000
       0.000  0.000  1.000  0.000  0.000
       0.000  0.000  0.000  1.000  0.000
       0.000  0.000  0.000  0.000  1.000
     occupation matrix ns (before diag.):
       1.000  0.000  0.000  0.000  0.000
       0.000  1.000  0.000  0.000  0.000
       0.000  0.000  1.000  0.000  0.000
       0.000  0.000  0.000  1.000  0.000
       0.000  0.000  0.000  0.000  1.000
     SPIN  2
     eigenvalues:
       0.600  0.600  0.600  0.600  0.600
     eigenvectors (columns):
       1.000  0.000  0.000  0.000  0.000
       0.000  1.000  0.000  0.000  0.000
       0.000  0.000  1.000  0.000  0.000
       0.000  0.000  0.000  1.000  0.000
       0.000  0.000  0.000  0.000  1.000
     occupation matrix ns (before diag.):
       0.600  0.000  0.000  0.000  0.000
       0.000  0.600  0.000  0.000  0.000
       0.000  0.000  0.600  0.000  0.000
       0.000  0.000  0.000  0.600  0.000
       0.000  0.000  0.000  0.000  0.600
     ------------------------ ATOM    2 ------------------------
     Tr[ns(  2)] (up, down, total) =   5.00000  5.00000 10.00000
     Atomic magnetic moment for atom   2 =   0.00000
     SPIN  1
     eigenvalues:
       1.000  1.000  1.000  1.000  1.000
     eigenvectors (columns):
       1.000  0.000  0.000  0.000  0.000
       0.000  1.000  0.000  0.000  0.000
       0.000  0.000  1.000  0.000  0.000
       0.000  0.000  0.000  1.000  0.000
       0.000  0.000  0.000  0.000  1.000
     occupation matrix ns (before diag.):
       1.000  0.000  0.000  0.000  0.000
       0.000  1.000  0.000  0.000  0.000
       0.000  0.000  1.000  0.000  0.000
       0.000  0.000  0.000  1.000  0.000
       0.000  0.000  0.000  0.000  1.000
     SPIN  2
     eigenvalues:
       1.000  1.000  1.000  1.000  1.000
     eigenvectors (columns):
       1.000  0.000  0.000  0.000  0.000
       0.000  1.000  0.000  0.000  0.000
       0.000  0.000  1.000  0.000  0.000
       0.000  0.000  0.000  1.000  0.000
       0.000  0.000  0.000  0.000  1.000
     occupation matrix ns (before diag.):
       1.000  0.000  0.000  0.000  0.000
       0.000  1.000  0.000  0.000  0.000
       0.000  0.000  1.000  0.000  0.000
       0.000  0.000  0.000  1.000  0.000
       0.000  0.000  0.000  0.000  1.000

     Number of occupied Hubbard levels =   18.0000

     Atomic wfc used for Hubbard projectors are orthogonalized

     Starting wfcs are   72 randomized atomic wfcs

     total cpu time spent up to now is       11.6 secs

     per-process dynamical memory:   396.5 Mb

     Self-consistent Calculation

     iteration #  1     ecut=   120.00 Ry     beta= 0.70
     Davidson diagonalization with overlap

---- Real-time Memory Report at c_bands before calling an iterative solver
           421 MiB given to the printing process from OS
           387 MiB allocation reported by mallinfo(arena+hblkhd)
        658113 MiB available memory on the node where the printing process lives
------------------
     ethr =  1.00E-02,  avg # of iterations =  2.3

     =================== HUBBARD OCCUPATIONS ===================
     ------------------------ ATOM    1 ------------------------
     Tr[ns(  1)] (up, down, total) =   4.98738  3.72372  8.71110
     Atomic magnetic moment for atom   1 =   1.26367
     SPIN  1
     eigenvalues:
       0.995  0.996  0.998  0.999  0.999
     eigenvectors (columns):
      -0.144  0.457  0.816 -0.073 -0.316
      -0.456  0.745 -0.485 -0.012  0.034
       0.617  0.308 -0.081 -0.709  0.119
      -0.055  0.120  0.298  0.128  0.937
      -0.622 -0.356  0.060 -0.689  0.084
     occupation matrix ns (before diag.):
       0.998 -0.001 -0.000 -0.000  0.000
      -0.001  0.996  0.000 -0.000 -0.000
      -0.000  0.000  0.997  0.000  0.002
      -0.000 -0.000  0.000  0.999 -0.000
       0.000 -0.000  0.002 -0.000  0.997
     SPIN  2
     eigenvalues:
       0.313  0.457  0.981  0.983  0.989
     eigenvectors (columns):
      -0.294  0.492 -0.769  0.199  0.204
      -0.433  0.678  0.472 -0.157 -0.326
       0.500  0.278 -0.226 -0.788 -0.036
      -0.090  0.127  0.323 -0.148  0.922
      -0.684 -0.453 -0.177 -0.542 -0.029
     occupation matrix ns (before diag.):
       0.797 -0.260  0.026 -0.049 -0.018
      -0.260  0.616  0.046 -0.073 -0.037
       0.026  0.046  0.775  0.012  0.295
      -0.049 -0.073  0.012  0.974 -0.011
      -0.018 -0.037  0.295 -0.011  0.561
     ------------------------ ATOM    2 ------------------------
     Tr[ns(  2)] (up, down, total) =   4.97414  3.82618  8.80032
     Atomic magnetic moment for atom   2 =   1.14797
     SPIN  1
     eigenvalues:
       0.990  0.992  0.997  0.998  0.998
     eigenvectors (columns):
       0.147 -0.440 -0.826 -0.064  0.314
       0.443 -0.759  0.475 -0.018 -0.025
      -0.636 -0.310  0.066 -0.696 -0.106
       0.058 -0.121 -0.292  0.116 -0.940
       0.612  0.346 -0.050 -0.705 -0.079
     occupation matrix ns (before diag.):
       0.996 -0.002  0.000 -0.001  0.000
      -0.002  0.993  0.001 -0.001 -0.001
       0.000  0.001  0.994  0.000  0.004
      -0.001 -0.001  0.000  0.998 -0.000
       0.000 -0.001  0.004 -0.000  0.994
     SPIN  2
     eigenvalues:
       0.347  0.525  0.982  0.983  0.989
     eigenvectors (columns):
      -0.272  0.502 -0.786  0.184  0.152
      -0.406  0.697  0.496 -0.150 -0.284
       0.514  0.260 -0.204 -0.790 -0.036
      -0.082  0.125  0.262 -0.123  0.946
      -0.700 -0.423 -0.164 -0.551 -0.031
     occupation matrix ns (before diag.):
       0.820 -0.230  0.029 -0.042 -0.024
      -0.230  0.656  0.050 -0.063 -0.045
       0.029  0.050  0.784  0.012  0.279
      -0.042 -0.063  0.012  0.977 -0.012
      -0.024 -0.045  0.279 -0.012  0.590

     Number of occupied Hubbard levels =   17.5114

     HUBBARD ENERGY =    0.3650  (Ry)

     total cpu time spent up to now is       42.4 secs

     total energy              =   -1280.03014728 Ry
     estimated scf accuracy    <       5.64847937 Ry

     total magnetization       =     3.00 Bohr mag/cell
     absolute magnetization    =     3.12 Bohr mag/cell

     iteration #  2     ecut=   120.00 Ry     beta= 0.70
     Davidson diagonalization with overlap

---- Real-time Memory Report at c_bands before calling an iterative solver
           430 MiB given to the printing process from OS
           394 MiB allocation reported by mallinfo(arena+hblkhd)
        660322 MiB available memory on the node where the printing process lives
------------------
     ethr =  5.00E-03,  avg # of iterations =  2.0

     =================== HUBBARD OCCUPATIONS ===================
     ------------------------ ATOM    1 ------------------------
     Tr[ns(  1)] (up, down, total) =   4.95980  3.34771  8.30752
     Atomic magnetic moment for atom   1 =   1.61209
     SPIN  1
     eigenvalues:
       0.984  0.987  0.995  0.996  0.997
     eigenvectors (columns):
      -0.132  0.470  0.767 -0.132  0.395
      -0.339  0.783 -0.521 -0.007 -0.036
       0.614  0.216 -0.051 -0.731 -0.199
      -0.076  0.175  0.370  0.203 -0.886
      -0.697 -0.298  0.023 -0.638 -0.135
     occupation matrix ns (before diag.):
       0.993 -0.003  0.000 -0.001  0.000
      -0.003  0.989  0.001 -0.001 -0.001
       0.000  0.001  0.992  0.000  0.006
      -0.001 -0.001  0.000  0.996 -0.000
       0.000 -0.001  0.006 -0.000  0.990
     SPIN  2
     eigenvalues:
       0.158  0.216  0.990  0.992  0.993
     eigenvectors (columns):
      -0.330  0.471 -0.754  0.006 -0.317
      -0.481  0.642  0.595 -0.033  0.038
       0.480  0.315  0.007 -0.816 -0.063
      -0.100  0.122 -0.277 -0.087  0.944
      -0.648 -0.502 -0.010 -0.570 -0.059
     occupation matrix ns (before diag.):
       0.728 -0.366  0.017 -0.073  0.006
      -0.366  0.478  0.036 -0.100 -0.010
       0.017  0.036  0.722  0.010  0.382
      -0.073 -0.100  0.010  0.972 -0.007
       0.006 -0.010  0.382 -0.007  0.447
     ------------------------ ATOM    2 ------------------------
     Tr[ns(  2)] (up, down, total) =   4.96865  3.95065  8.91929
     Atomic magnetic moment for atom   2 =   1.01800
     SPIN  1
     eigenvalues:
       0.988  0.990  0.996  0.997  0.998
     eigenvectors (columns):
      -0.164  0.498 -0.689 -0.484  0.124
      -0.345  0.759  0.535  0.122 -0.055
       0.604  0.228  0.042 -0.217 -0.731
      -0.076  0.158 -0.486  0.808 -0.282
      -0.695 -0.314 -0.014 -0.224 -0.607
     occupation matrix ns (before diag.):
       0.995 -0.003  0.000 -0.001  0.000
      -0.003  0.992  0.001 -0.001 -0.000
       0.000  0.001  0.994  0.000  0.005
      -0.001 -0.001  0.000  0.997 -0.000
       0.000 -0.000  0.005 -0.000  0.992
     SPIN  2
     eigenvalues:
       0.196  0.766  0.995  0.997  0.997
     eigenvectors (columns):
      -0.273  0.491 -0.732 -0.286  0.260
      -0.408  0.702  0.576  0.040 -0.089
       0.514  0.266 -0.016 -0.544 -0.607
      -0.083  0.134 -0.364  0.682 -0.614
      -0.698 -0.422 -0.019 -0.393 -0.424
     occupation matrix ns (before diag.):
       0.881 -0.168  0.082 -0.034 -0.105
      -0.168  0.749  0.125 -0.048 -0.160
       0.082  0.125  0.768  0.026  0.313
      -0.034 -0.048  0.026  0.987 -0.033
      -0.105 -0.160  0.313 -0.033  0.565

     Number of occupied Hubbard levels =   17.2268

     HUBBARD ENERGY =    0.3022  (Ry)

     total cpu time spent up to now is       70.2 secs

     total energy              =   -1280.96095738 Ry
     estimated scf accuracy    <       0.40654514 Ry

     total magnetization       =     3.00 Bohr mag/cell
     absolute magnetization    =     3.30 Bohr mag/cell

     iteration #  3     ecut=   120.00 Ry     beta= 0.70
     Davidson diagonalization with overlap

---- Real-time Memory Report at c_bands before calling an iterative solver
           432 MiB given to the printing process from OS
           396 MiB allocation reported by mallinfo(arena+hblkhd)
        659028 MiB available memory on the node where the printing process lives
------------------
     ethr =  3.60E-04,  avg # of iterations =  4.1

     =================== HUBBARD OCCUPATIONS ===================
     ------------------------ ATOM    1 ------------------------
     Tr[ns(  1)] (up, down, total) =   4.96461  3.23365  8.19825
     Atomic magnetic moment for atom   1 =   1.73096
     SPIN  1
     eigenvalues:
       0.986  0.989  0.995  0.997  0.997
     eigenvectors (columns):
      -0.143  0.462  0.772 -0.135  0.389
      -0.372  0.772 -0.514 -0.006 -0.036
       0.613  0.247 -0.049 -0.717 -0.218
      -0.080  0.168  0.369  0.231 -0.881
      -0.677 -0.318  0.030 -0.644 -0.155
     occupation matrix ns (before diag.):
       0.994 -0.003  0.000 -0.001  0.000
      -0.003  0.990  0.001 -0.001 -0.001
       0.000  0.001  0.992  0.000  0.005
      -0.001 -0.001  0.000  0.996 -0.000
       0.000 -0.001  0.005 -0.000  0.991
     SPIN  2
     eigenvalues:
       0.124  0.131  0.992  0.993  0.994
     eigenvectors (columns):
      -0.489 -0.307 -0.745 -0.008 -0.334
      -0.692 -0.402  0.597 -0.022  0.049
       0.319 -0.477  0.023 -0.817 -0.059
      -0.142 -0.075 -0.295 -0.087  0.938
      -0.401  0.715  0.000 -0.570 -0.057
     occupation matrix ns (before diag.):
       0.704 -0.400  0.009 -0.081  0.019
      -0.400  0.437  0.027 -0.111  0.006
       0.009  0.027  0.709  0.009  0.405
      -0.081 -0.111  0.009  0.971 -0.004
       0.019  0.006  0.405 -0.004  0.413
     ------------------------ ATOM    2 ------------------------
     Tr[ns(  2)] (up, down, total) =   4.97148  4.15444  9.12593
     Atomic magnetic moment for atom   2 =   0.81704
     SPIN  1
     eigenvalues:
       0.990  0.991  0.996  0.997  0.997
     eigenvectors (columns):
      -0.162 -0.505 -0.644 -0.534 -0.138
      -0.336 -0.761  0.523  0.172  0.071
       0.611 -0.223  0.036 -0.208  0.730
      -0.072 -0.153 -0.557  0.770  0.260
      -0.695  0.305 -0.013 -0.220  0.612
     occupation matrix ns (before diag.):
       0.995 -0.002 -0.000 -0.001  0.000
      -0.002  0.992  0.000 -0.001 -0.000
      -0.000  0.000  0.994  0.000  0.004
      -0.001 -0.001  0.000  0.997 -0.000
       0.000 -0.000  0.004 -0.000  0.993
     SPIN  2
     eigenvalues:
       0.192  0.972  0.996  0.997  0.998
     eigenvectors (columns):
      -0.272  0.478  0.713 -0.398  0.178
      -0.407  0.710 -0.564  0.096 -0.055
       0.515  0.281 -0.007 -0.354 -0.728
      -0.083  0.145  0.417  0.801 -0.396
      -0.698 -0.410 -0.004 -0.257 -0.527
     occupation matrix ns (before diag.):
       0.931 -0.098  0.110 -0.020 -0.148
      -0.098  0.851  0.164 -0.029 -0.222
       0.110  0.164  0.782  0.033  0.293
      -0.020 -0.029  0.033  0.991 -0.045
      -0.148 -0.222  0.293 -0.045  0.600

     Number of occupied Hubbard levels =   17.3242

     HUBBARD ENERGY =    0.1909  (Ry)

     total cpu time spent up to now is       97.9 secs

     total energy              =   -1281.05747702 Ry
     estimated scf accuracy    <       0.11610822 Ry

     total magnetization       =     3.00 Bohr mag/cell
     absolute magnetization    =     3.08 Bohr mag/cell

     iteration #  4     ecut=   120.00 Ry     beta= 0.70
     Davidson diagonalization with overlap

---- Real-time Memory Report at c_bands before calling an iterative solver
           433 MiB given to the printing process from OS
           396 MiB allocation reported by mallinfo(arena+hblkhd)
        656988 MiB available memory on the node where the printing process lives
------------------
     ethr =  1.03E-04,  avg # of iterations =  7.2

     =================== HUBBARD OCCUPATIONS ===================
     ------------------------ ATOM    1 ------------------------
     Tr[ns(  1)] (up, down, total) =   4.96868  3.20236  8.17103
     Atomic magnetic moment for atom   1 =   1.76632
     SPIN  1
     eigenvalues:
       0.988  0.991  0.996  0.997  0.997
     eigenvectors (columns):
      -0.155  0.465  0.764 -0.162  0.388
      -0.386  0.761 -0.518 -0.006 -0.049
       0.606  0.260 -0.035 -0.693 -0.291
      -0.084  0.165  0.381  0.325 -0.846
      -0.673 -0.331  0.043 -0.623 -0.217
     occupation matrix ns (before diag.):
       0.995 -0.002  0.000 -0.001 -0.000
      -0.002  0.992  0.001 -0.001 -0.001
       0.000  0.001  0.993  0.000  0.004
      -0.001 -0.001  0.000  0.997 -0.000
      -0.000 -0.001  0.004 -0.000  0.992
     SPIN  2
     eigenvalues:
       0.103  0.116  0.993  0.995  0.995
     eigenvectors (columns):
      -0.547  0.187  0.732 -0.022  0.360
      -0.746  0.284 -0.597 -0.036 -0.070
      -0.170 -0.547  0.005 -0.819 -0.034
      -0.152  0.065  0.328  0.028 -0.930
       0.303  0.762  0.019 -0.572 -0.007
     occupation matrix ns (before diag.):
       0.696 -0.410  0.007 -0.085  0.023
      -0.410  0.427  0.024 -0.117  0.012
       0.007  0.024  0.706  0.008  0.412
      -0.085 -0.117  0.008  0.971 -0.003
       0.023  0.012  0.412 -0.003  0.402
     ------------------------ ATOM    2 ------------------------
     Tr[ns(  2)] (up, down, total) =   4.97105  4.16390  9.13494
     Atomic magnetic moment for atom   2 =   0.80715
     SPIN  1
     eigenvalues:
       0.990  0.990  0.996  0.997  0.998
     eigenvectors (columns):
      -0.128  0.514 -0.655 -0.510 -0.173
      -0.123  0.822  0.528  0.153  0.086
      -0.636 -0.137  0.023 -0.252  0.716
      -0.020  0.169 -0.541  0.767  0.301
       0.751  0.110 -0.020 -0.254  0.599
     occupation matrix ns (before diag.):
       0.995 -0.003 -0.000 -0.001  0.000
      -0.003  0.992  0.000 -0.001  0.000
      -0.000  0.000  0.994  0.000  0.004
      -0.001 -0.001  0.000  0.997  0.000
       0.000  0.000  0.004  0.000  0.993
     SPIN  2
     eigenvalues:
       0.186  0.986  0.996  0.997  0.998
     eigenvectors (columns):
       0.272 -0.472  0.711 -0.425  0.130
       0.407 -0.714 -0.559  0.111 -0.024
      -0.517 -0.293 -0.025 -0.277 -0.755
       0.081 -0.147  0.425  0.831 -0.317
       0.698  0.400 -0.019 -0.201 -0.559
     occupation matrix ns (before diag.):
       0.934 -0.093  0.112 -0.019 -0.152
      -0.093  0.857  0.168 -0.028 -0.227
       0.112  0.168  0.780  0.034  0.294
      -0.019 -0.028  0.034  0.992 -0.045
      -0.152 -0.227  0.294 -0.045  0.601

     Number of occupied Hubbard levels =   17.3060

     HUBBARD ENERGY =    0.1384  (Ry)

     total cpu time spent up to now is      128.5 secs

     total energy              =   -1281.06592107 Ry
     estimated scf accuracy    <       0.01347682 Ry

     total magnetization       =     3.00 Bohr mag/cell
     absolute magnetization    =     3.06 Bohr mag/cell

     iteration #  5     ecut=   120.00 Ry     beta= 0.70
     Davidson diagonalization with overlap

---- Real-time Memory Report at c_bands before calling an iterative solver
           434 MiB given to the printing process from OS
           397 MiB allocation reported by mallinfo(arena+hblkhd)
        656143 MiB available memory on the node where the printing process lives
------------------
     ethr =  1.19E-05,  avg # of iterations =  7.5

     =================== HUBBARD OCCUPATIONS ===================
     ------------------------ ATOM    1 ------------------------
     Tr[ns(  1)] (up, down, total) =   4.97134  3.19678  8.16812
     Atomic magnetic moment for atom   1 =   1.77456
     SPIN  1
     eigenvalues:
       0.989  0.991  0.996  0.997  0.998
     eigenvectors (columns):
      -0.159  0.467  0.763 -0.174  0.380
      -0.392  0.758 -0.519 -0.004 -0.056
       0.604  0.265 -0.029 -0.678 -0.325
      -0.083  0.159  0.382  0.369 -0.828
      -0.671 -0.335  0.049 -0.612 -0.247
     occupation matrix ns (before diag.):
       0.995 -0.002  0.000 -0.001 -0.000
      -0.002  0.992  0.001 -0.001 -0.001
       0.000  0.001  0.994  0.000  0.004
      -0.001 -0.001  0.000  0.997 -0.000
      -0.000 -0.001  0.004 -0.000  0.993
     SPIN  2
     eigenvalues:
       0.096  0.116  0.994  0.995  0.996
     eigenvectors (columns):
       0.534 -0.226  0.727 -0.029  0.366
       0.722 -0.337 -0.599 -0.041 -0.074
       0.208  0.532  0.016 -0.817 -0.072
       0.150 -0.078  0.334  0.076 -0.924
      -0.358 -0.739  0.027 -0.569 -0.033
     occupation matrix ns (before diag.):
       0.693 -0.413  0.006 -0.088  0.025
      -0.413  0.427  0.022 -0.120  0.013
       0.006  0.022  0.707  0.008  0.413
      -0.088 -0.120  0.008  0.970 -0.002
       0.025  0.013  0.413 -0.002  0.400
     ------------------------ ATOM    2 ------------------------
     Tr[ns(  2)] (up, down, total) =   4.97126  4.16892  9.14018
     Atomic magnetic moment for atom   2 =   0.80234
     SPIN  1
     eigenvalues:
       0.990  0.990  0.996  0.997  0.998
     eigenvectors (columns):
       0.360 -0.391 -0.655  0.501  0.193
       0.505 -0.659  0.529 -0.149 -0.095
       0.490  0.428  0.014  0.274 -0.708
       0.099 -0.139 -0.539 -0.761 -0.320
      -0.604 -0.459 -0.024  0.271 -0.591
     occupation matrix ns (before diag.):
       0.995 -0.003 -0.000 -0.001  0.000
      -0.003  0.992  0.000 -0.001  0.000
      -0.000  0.000  0.994  0.000  0.004
      -0.001 -0.001  0.000  0.997  0.000
       0.000  0.000  0.004  0.000  0.993
     SPIN  2
     eigenvalues:
       0.189  0.989  0.996  0.997  0.998
     eigenvectors (columns):
       0.272 -0.470  0.700 -0.438  0.152
       0.407 -0.716 -0.553  0.126 -0.033
      -0.519 -0.297 -0.019 -0.292 -0.747
       0.079 -0.146  0.452  0.813 -0.326
       0.697  0.396 -0.015 -0.212 -0.559
     occupation matrix ns (before diag.):
       0.935 -0.092  0.113 -0.018 -0.151
      -0.092  0.859  0.169 -0.027 -0.227
       0.113  0.169  0.779  0.033  0.293
      -0.018 -0.027  0.033  0.992 -0.044
      -0.151 -0.227  0.293 -0.044  0.603

     Number of occupied Hubbard levels =   17.3083

     HUBBARD ENERGY =    0.1476  (Ry)

     total cpu time spent up to now is      167.0 secs

     total energy              =   -1281.06776054 Ry
     estimated scf accuracy    <       0.00214085 Ry

     total magnetization       =     3.00 Bohr mag/cell
     absolute magnetization    =     3.05 Bohr mag/cell

     iteration #  6     ecut=   120.00 Ry     beta= 0.70
     Davidson diagonalization with overlap

---- Real-time Memory Report at c_bands before calling an iterative solver
           434 MiB given to the printing process from OS
           398 MiB allocation reported by mallinfo(arena+hblkhd)
        656099 MiB available memory on the node where the printing process lives
------------------
     c_bands:  1 eigenvalues not converged
     ethr =  1.89E-06,  avg # of iterations =  3.7

     =================== HUBBARD OCCUPATIONS ===================
     ------------------------ ATOM    1 ------------------------
     Tr[ns(  1)] (up, down, total) =   4.97242  3.20461  8.17703
     Atomic magnetic moment for atom   1 =   1.76781
     SPIN  1
     eigenvalues:
       0.989  0.992  0.996  0.998  0.998
     eigenvectors (columns):
      -0.159  0.467  0.766 -0.178  0.373
      -0.394  0.758 -0.516 -0.002 -0.058
       0.603  0.266 -0.029 -0.671 -0.337
      -0.081  0.154  0.380  0.385 -0.823
      -0.670 -0.336  0.050 -0.608 -0.258
     occupation matrix ns (before diag.):
       0.995 -0.002  0.000 -0.001 -0.000
      -0.002  0.993  0.001 -0.001 -0.001
       0.000  0.001  0.994  0.000  0.004
      -0.001 -0.001  0.000  0.997 -0.000
      -0.000 -0.001  0.004 -0.000  0.993
     SPIN  2
     eigenvalues:
       0.099  0.120  0.994  0.995  0.996
     eigenvectors (columns):
       0.536 -0.225  0.727 -0.024  0.364
       0.721 -0.335 -0.602 -0.042 -0.067
       0.207  0.531  0.017 -0.819 -0.064
       0.154 -0.080  0.328  0.066 -0.926
      -0.357 -0.741  0.028 -0.568 -0.026
     occupation matrix ns (before diag.):
       0.693 -0.411  0.005 -0.090  0.025
      -0.411  0.432  0.022 -0.123  0.013
       0.005  0.022  0.710  0.009  0.411
      -0.090 -0.123  0.009  0.969 -0.003
       0.025  0.013  0.411 -0.003  0.401
     ------------------------ ATOM    2 ------------------------
     Tr[ns(  2)] (up, down, total) =   4.97164  4.17852  9.15016
     Atomic magnetic moment for atom   2 =   0.79311
     SPIN  1
     eigenvalues:
       0.990  0.990  0.996  0.997  0.998
     eigenvectors (columns):
      -0.310  0.433 -0.648 -0.507 -0.201
      -0.421  0.715  0.527  0.156  0.100
      -0.539 -0.364  0.011 -0.276  0.707
      -0.080  0.150 -0.550  0.754  0.318
       0.655  0.382 -0.026 -0.274  0.590
     occupation matrix ns (before diag.):
       0.995 -0.003 -0.000 -0.001  0.000
      -0.003  0.992  0.000 -0.001  0.000
      -0.000  0.000  0.994  0.000  0.004
      -0.001 -0.001  0.000  0.997  0.000
       0.000  0.000  0.004  0.000  0.993
     SPIN  2
     eigenvalues:
       0.199  0.989  0.996  0.997  0.998
     eigenvectors (columns):
       0.271 -0.472  0.693 -0.443  0.167
       0.407 -0.716 -0.551  0.133 -0.044
      -0.521 -0.296 -0.014 -0.304 -0.741
       0.077 -0.145  0.466  0.803 -0.334
       0.696  0.396 -0.010 -0.221 -0.557
     occupation matrix ns (before diag.):
       0.936 -0.091  0.111 -0.018 -0.149
      -0.091  0.861  0.167 -0.026 -0.224
       0.111  0.167  0.780  0.032  0.291
      -0.018 -0.026  0.032  0.992 -0.042
      -0.149 -0.224  0.291 -0.042  0.609

     Number of occupied Hubbard levels =   17.3272

     HUBBARD ENERGY =    0.1514  (Ry)

     total cpu time spent up to now is      197.3 secs

     total energy              =   -1281.06820523 Ry
     estimated scf accuracy    <       0.00012272 Ry

     total magnetization       =     3.00 Bohr mag/cell
     absolute magnetization    =     3.05 Bohr mag/cell

     iteration #  7     ecut=   120.00 Ry     beta= 0.70
     Davidson diagonalization with overlap

---- Real-time Memory Report at c_bands before calling an iterative solver
           435 MiB given to the printing process from OS
           398 MiB allocation reported by mallinfo(arena+hblkhd)
        656070 MiB available memory on the node where the printing process lives
------------------
     ethr =  1.09E-07,  avg # of iterations =  3.1

     =================== HUBBARD OCCUPATIONS ===================
     ------------------------ ATOM    1 ------------------------
     Tr[ns(  1)] (up, down, total) =   4.97251  3.20735  8.17986
     Atomic magnetic moment for atom   1 =   1.76517
     SPIN  1
     eigenvalues:
       0.989  0.992  0.996  0.998  0.998
     eigenvectors (columns):
      -0.159  0.466  0.767 -0.179  0.371
      -0.395  0.759 -0.515 -0.002 -0.058
       0.603  0.266 -0.029 -0.670 -0.340
      -0.080  0.153  0.379  0.390 -0.821
      -0.670 -0.336  0.050 -0.606 -0.261
     occupation matrix ns (before diag.):
       0.995 -0.002  0.000 -0.001 -0.000
      -0.002  0.993  0.001 -0.001 -0.001
       0.000  0.001  0.994  0.000  0.004
      -0.001 -0.001  0.000  0.997 -0.000
      -0.000 -0.001  0.004 -0.000  0.993
     SPIN  2
     eigenvalues:
       0.101  0.121  0.994  0.996  0.996
     eigenvectors (columns):
       0.537 -0.223  0.727 -0.022  0.363
       0.721 -0.331 -0.604 -0.042 -0.064
       0.205  0.532  0.016 -0.820 -0.057
       0.156 -0.080  0.325  0.057 -0.927
      -0.353 -0.742  0.027 -0.568 -0.021
     occupation matrix ns (before diag.):
       0.693 -0.411  0.005 -0.091  0.025
      -0.411  0.434  0.022 -0.124  0.013
       0.005  0.022  0.711  0.009  0.410
      -0.091 -0.124  0.009  0.968 -0.003
       0.025  0.013  0.410 -0.003  0.402
     ------------------------ ATOM    2 ------------------------
     Tr[ns(  2)] (up, down, total) =   4.97163  4.18246  9.15409
     Atomic magnetic moment for atom   2 =   0.78917
     SPIN  1
     eigenvalues:
       0.990  0.990  0.996  0.997  0.998
     eigenvectors (columns):
      -0.302  0.439 -0.647 -0.507 -0.200
      -0.408  0.722  0.527  0.156  0.099
      -0.546 -0.355  0.011 -0.275  0.708
      -0.078  0.151 -0.550  0.754  0.317
       0.662  0.371 -0.026 -0.273  0.591
     occupation matrix ns (before diag.):
       0.995 -0.003 -0.000 -0.001  0.000
      -0.003  0.992  0.000 -0.001  0.000
      -0.000  0.000  0.994  0.000  0.004
      -0.001 -0.001  0.000  0.997  0.000
       0.000  0.000  0.004  0.000  0.993
     SPIN  2
     eigenvalues:
       0.203  0.989  0.996  0.997  0.998
     eigenvectors (columns):
       0.270 -0.472  0.692 -0.444  0.167
       0.406 -0.716 -0.550  0.134 -0.045
      -0.522 -0.295 -0.014 -0.304 -0.740
       0.076 -0.145  0.467  0.802 -0.334
       0.695  0.396 -0.009 -0.221 -0.558
     occupation matrix ns (before diag.):
       0.937 -0.090  0.111 -0.017 -0.148
      -0.090  0.861  0.167 -0.025 -0.222
       0.111  0.167  0.780  0.031  0.290
      -0.017 -0.025  0.031  0.992 -0.041
      -0.148 -0.222  0.290 -0.041  0.612

     Number of occupied Hubbard levels =   17.3339

     HUBBARD ENERGY =    0.1533  (Ry)

     total cpu time spent up to now is      227.1 secs

     total energy              =   -1281.06824418 Ry
     estimated scf accuracy    <       0.00006494 Ry

     total magnetization       =     3.00 Bohr mag/cell
     absolute magnetization    =     3.05 Bohr mag/cell

     iteration #  8     ecut=   120.00 Ry     beta= 0.70
     Davidson diagonalization with overlap

---- Real-time Memory Report at c_bands before calling an iterative solver
           435 MiB given to the printing process from OS
           399 MiB allocation reported by mallinfo(arena+hblkhd)
        656874 MiB available memory on the node where the printing process lives
------------------
     ethr =  5.75E-08,  avg # of iterations =  2.0

     =================== HUBBARD OCCUPATIONS ===================
     ------------------------ ATOM    1 ------------------------
     Tr[ns(  1)] (up, down, total) =   4.97245  3.20810  8.18055
     Atomic magnetic moment for atom   1 =   1.76435
     SPIN  1
     eigenvalues:
       0.989  0.992  0.996  0.998  0.998
     eigenvectors (columns):
      -0.158  0.465  0.768 -0.181  0.369
      -0.395  0.760 -0.513 -0.001 -0.059
       0.604  0.266 -0.029 -0.668 -0.343
      -0.080  0.151  0.379  0.393 -0.820
      -0.670 -0.336  0.050 -0.605 -0.264
     occupation matrix ns (before diag.):
       0.995 -0.002  0.000 -0.001 -0.000
      -0.002  0.993  0.001 -0.001 -0.001
       0.000  0.001  0.994  0.000  0.004
      -0.001 -0.001  0.000  0.997 -0.000
      -0.000 -0.001  0.004 -0.000  0.993
     SPIN  2
     eigenvalues:
       0.101  0.122  0.994  0.995  0.996
     eigenvectors (columns):
       0.539 -0.221  0.727 -0.021  0.364
       0.721 -0.329 -0.605 -0.042 -0.062
       0.203  0.532  0.015 -0.820 -0.053
       0.158 -0.080  0.324  0.053 -0.928
      -0.351 -0.744  0.027 -0.568 -0.018
     occupation matrix ns (before diag.):
       0.692 -0.411  0.005 -0.092  0.025
      -0.411  0.435  0.022 -0.125  0.013
       0.005  0.022  0.711  0.009  0.410
      -0.092 -0.125  0.009  0.968 -0.003
       0.025  0.013  0.410 -0.003  0.401
     ------------------------ ATOM    2 ------------------------
     Tr[ns(  2)] (up, down, total) =   4.97158  4.18435  9.15593
     Atomic magnetic moment for atom   2 =   0.78724
     SPIN  1
     eigenvalues:
       0.990  0.990  0.996  0.997  0.998
     eigenvectors (columns):
      -0.315  0.429 -0.650 -0.505 -0.197
      -0.430  0.710  0.528  0.154  0.098
      -0.535 -0.371  0.012 -0.273  0.708
      -0.082  0.149 -0.546  0.757  0.316
       0.651  0.390 -0.025 -0.272  0.592
     occupation matrix ns (before diag.):
       0.995 -0.003 -0.000 -0.001  0.000
      -0.003  0.992  0.000 -0.001  0.000
      -0.000  0.000  0.994  0.000  0.004
      -0.001 -0.001  0.000  0.997  0.000
       0.000  0.000  0.004  0.000  0.993
     SPIN  2
     eigenvalues:
       0.204  0.988  0.996  0.997  0.998
     eigenvectors (columns):
       0.270 -0.472  0.694 -0.443  0.163
       0.406 -0.716 -0.550  0.133 -0.044
      -0.523 -0.295 -0.016 -0.302 -0.740
       0.074 -0.145  0.465  0.804 -0.333
       0.695  0.395 -0.010 -0.219 -0.560
     occupation matrix ns (before diag.):
       0.937 -0.090  0.111 -0.017 -0.147
      -0.090  0.862  0.167 -0.025 -0.221
       0.111  0.167  0.780  0.030  0.290
      -0.017 -0.025  0.030  0.993 -0.040
      -0.147 -0.221  0.290 -0.040  0.613

     Number of occupied Hubbard levels =   17.3365

     HUBBARD ENERGY =    0.1530  (Ry)

     total cpu time spent up to now is      255.2 secs

     total energy              =   -1281.06826458 Ry
     estimated scf accuracy    <       0.00001457 Ry

     total magnetization       =     3.00 Bohr mag/cell
     absolute magnetization    =     3.05 Bohr mag/cell

     iteration #  9     ecut=   120.00 Ry     beta= 0.70
     Davidson diagonalization with overlap

---- Real-time Memory Report at c_bands before calling an iterative solver
           436 MiB given to the printing process from OS
           400 MiB allocation reported by mallinfo(arena+hblkhd)
        659379 MiB available memory on the node where the printing process lives
------------------
     ethr =  1.29E-08,  avg # of iterations =  1.9

     =================== HUBBARD OCCUPATIONS ===================
     ------------------------ ATOM    1 ------------------------
     Tr[ns(  1)] (up, down, total) =   4.97247  3.20809  8.18057
     Atomic magnetic moment for atom   1 =   1.76438
     SPIN  1
     eigenvalues:
       0.989  0.992  0.996  0.998  0.998
     eigenvectors (columns):
      -0.158  0.464  0.769 -0.182  0.368
      -0.395  0.760 -0.512 -0.001 -0.059
       0.604  0.267 -0.029 -0.667 -0.346
      -0.079  0.151  0.378  0.397 -0.819
      -0.669 -0.336  0.050 -0.604 -0.267
     occupation matrix ns (before diag.):
       0.995 -0.002  0.000 -0.001 -0.000
      -0.002  0.993  0.001 -0.001 -0.001
       0.000  0.001  0.994  0.000  0.004
      -0.001 -0.001  0.000  0.997 -0.000
      -0.000 -0.001  0.004 -0.000  0.993
     SPIN  2
     eigenvalues:
       0.101  0.122  0.994  0.996  0.996
     eigenvectors (columns):
       0.539 -0.222  0.726 -0.021  0.364
       0.721 -0.329 -0.606 -0.042 -0.061
       0.203  0.531  0.015 -0.821 -0.053
       0.159 -0.081  0.323  0.053 -0.928
      -0.351 -0.744  0.027 -0.567 -0.018
     occupation matrix ns (before diag.):
       0.692 -0.411  0.005 -0.093  0.025
      -0.411  0.436  0.022 -0.126  0.013
       0.005  0.022  0.712  0.009  0.409
      -0.093 -0.126  0.009  0.967 -0.003
       0.025  0.013  0.409 -0.003  0.401
     ------------------------ ATOM    2 ------------------------
     Tr[ns(  2)] (up, down, total) =   4.97157  4.18475  9.15632
     Atomic magnetic moment for atom   2 =   0.78682
     SPIN  1
     eigenvalues:
       0.990  0.990  0.996  0.997  0.998
     eigenvectors (columns):
      -0.322  0.424 -0.650 -0.505 -0.196
      -0.441  0.703  0.528  0.153  0.097
      -0.529 -0.379  0.012 -0.272  0.709
      -0.085  0.148 -0.546  0.757  0.316
       0.645  0.400 -0.025 -0.271  0.592
     occupation matrix ns (before diag.):
       0.995 -0.003 -0.000 -0.001  0.000
      -0.003  0.992  0.000 -0.001  0.000
      -0.000  0.000  0.994  0.000  0.004
      -0.001 -0.001  0.000  0.997  0.000
       0.000  0.000  0.004  0.000  0.993
     SPIN  2
     eigenvalues:
       0.205  0.988  0.996  0.997  0.998
     eigenvectors (columns):
       0.269 -0.472  0.694 -0.444  0.161
       0.406 -0.717 -0.549  0.133 -0.044
      -0.525 -0.295 -0.017 -0.301 -0.740
       0.073 -0.145  0.465  0.805 -0.332
       0.694  0.395 -0.010 -0.218 -0.561
     occupation matrix ns (before diag.):
       0.938 -0.089  0.111 -0.016 -0.146
      -0.089  0.862  0.167 -0.024 -0.221
       0.111  0.167  0.779  0.030  0.290
      -0.016 -0.024  0.030  0.993 -0.040
      -0.146 -0.221  0.290 -0.040  0.614

     Number of occupied Hubbard levels =   17.3369

     HUBBARD ENERGY =    0.1529  (Ry)

     total cpu time spent up to now is      280.5 secs

     total energy              =   -1281.06826839 Ry
     estimated scf accuracy    <       0.00000642 Ry

     total magnetization       =     3.00 Bohr mag/cell
     absolute magnetization    =     3.05 Bohr mag/cell

     iteration # 10     ecut=   120.00 Ry     beta= 0.70
     Davidson diagonalization with overlap

---- Real-time Memory Report at c_bands before calling an iterative solver
           437 MiB given to the printing process from OS
           400 MiB allocation reported by mallinfo(arena+hblkhd)
        656030 MiB available memory on the node where the printing process lives
------------------
     ethr =  5.68E-09,  avg # of iterations =  2.0

     =================== HUBBARD OCCUPATIONS ===================
     ------------------------ ATOM    1 ------------------------
     Tr[ns(  1)] (up, down, total) =   4.97249  3.20812  8.18061
     Atomic magnetic moment for atom   1 =   1.76438
     SPIN  1
     eigenvalues:
       0.989  0.992  0.996  0.998  0.998
     eigenvectors (columns):
      -0.158  0.463  0.770 -0.183  0.366
      -0.396  0.761 -0.511 -0.001 -0.059
       0.604  0.267 -0.029 -0.665 -0.349
      -0.079  0.149  0.378  0.401 -0.817
      -0.669 -0.336  0.050 -0.603 -0.270
     occupation matrix ns (before diag.):
       0.995 -0.002  0.000 -0.001 -0.000
      -0.002  0.993  0.001 -0.001 -0.001
       0.000  0.001  0.994  0.000  0.004
      -0.001 -0.001  0.000  0.997 -0.000
      -0.000 -0.001  0.004 -0.000  0.993
     SPIN  2
     eigenvalues:
       0.101  0.122  0.994  0.996  0.996
     eigenvectors (columns):
       0.540 -0.222  0.726 -0.021  0.364
       0.720 -0.328 -0.607 -0.042 -0.060
       0.202  0.531  0.015 -0.821 -0.054
       0.161 -0.082  0.322  0.054 -0.928
      -0.351 -0.745  0.027 -0.567 -0.019
     occupation matrix ns (before diag.):
       0.691 -0.411  0.005 -0.094  0.025
      -0.411  0.437  0.022 -0.127  0.013
       0.005  0.022  0.713  0.009  0.409
      -0.094 -0.127  0.009  0.967 -0.003
       0.025  0.013  0.409 -0.003  0.401
     ------------------------ ATOM    2 ------------------------
     Tr[ns(  2)] (up, down, total) =   4.97155  4.18465  9.15620
     Atomic magnetic moment for atom   2 =   0.78690
     SPIN  1
     eigenvalues:
       0.990  0.990  0.996  0.997  0.998
     eigenvectors (columns):
       0.327 -0.419 -0.651  0.505  0.196
       0.450 -0.697  0.528 -0.153 -0.097
       0.524  0.387  0.012  0.272 -0.709
       0.087 -0.147 -0.545 -0.758 -0.316
      -0.639 -0.409 -0.025  0.271 -0.592
     occupation matrix ns (before diag.):
       0.995 -0.003 -0.000 -0.001  0.000
      -0.003  0.992  0.000 -0.001  0.000
      -0.000  0.000  0.994  0.000  0.004
      -0.001 -0.001  0.000  0.997  0.000
       0.000  0.000  0.004  0.000  0.993
     SPIN  2
     eigenvalues:
       0.205  0.988  0.996  0.997  0.998
     eigenvectors (columns):
       0.268 -0.472  0.695 -0.444  0.159
       0.406 -0.717 -0.549  0.133 -0.044
      -0.526 -0.294 -0.019 -0.299 -0.739
       0.071 -0.145  0.464  0.805 -0.331
       0.694  0.394 -0.009 -0.216 -0.563
     occupation matrix ns (before diag.):
       0.938 -0.089  0.111 -0.016 -0.146
      -0.089  0.862  0.167 -0.024 -0.221
       0.111  0.167  0.777  0.029  0.290
      -0.016 -0.024  0.029  0.993 -0.039
      -0.146 -0.221  0.290 -0.039  0.614

     Number of occupied Hubbard levels =   17.3368

     HUBBARD ENERGY =    0.1526  (Ry)

     total cpu time spent up to now is      309.2 secs

     total energy              =   -1281.06827579 Ry
     estimated scf accuracy    <       0.00000241 Ry

     total magnetization       =     3.00 Bohr mag/cell
     absolute magnetization    =     3.05 Bohr mag/cell

     iteration # 11     ecut=   120.00 Ry     beta= 0.70
     Davidson diagonalization with overlap

---- Real-time Memory Report at c_bands before calling an iterative solver
           437 MiB given to the printing process from OS
           401 MiB allocation reported by mallinfo(arena+hblkhd)
        659360 MiB available memory on the node where the printing process lives
------------------
     ethr =  2.13E-09,  avg # of iterations =  2.3

     =================== HUBBARD OCCUPATIONS ===================
     ------------------------ ATOM    1 ------------------------
     Tr[ns(  1)] (up, down, total) =   4.97250  3.20811  8.18061
     Atomic magnetic moment for atom   1 =   1.76440
     SPIN  1
     eigenvalues:
       0.989  0.992  0.996  0.998  0.998
     eigenvectors (columns):
      -0.158  0.462  0.771 -0.184  0.365
      -0.396  0.761 -0.510 -0.000 -0.060
       0.604  0.267 -0.029 -0.664 -0.351
      -0.078  0.148  0.378  0.403 -0.816
      -0.669 -0.336  0.050 -0.603 -0.272
     occupation matrix ns (before diag.):
       0.995 -0.002  0.000 -0.001 -0.000
      -0.002  0.993  0.001 -0.001 -0.001
       0.000  0.001  0.994  0.000  0.004
      -0.001 -0.001  0.000  0.997 -0.000
      -0.000 -0.001  0.004 -0.000  0.993
     SPIN  2
     eigenvalues:
       0.101  0.122  0.994  0.996  0.996
     eigenvectors (columns):
       0.541 -0.222  0.725 -0.021  0.364
       0.719 -0.328 -0.608 -0.042 -0.059
       0.202  0.530  0.015 -0.821 -0.056
       0.162 -0.082  0.322  0.056 -0.928
      -0.351 -0.745  0.028 -0.566 -0.020
     occupation matrix ns (before diag.):
       0.690 -0.411  0.005 -0.095  0.026
      -0.411  0.438  0.022 -0.127  0.013
       0.005  0.022  0.713  0.009  0.409
      -0.095 -0.127  0.009  0.966 -0.003
       0.026  0.013  0.409 -0.003  0.400
     ------------------------ ATOM    2 ------------------------
     Tr[ns(  2)] (up, down, total) =   4.97155  4.18411  9.15566
     Atomic magnetic moment for atom   2 =   0.78745
     SPIN  1
     eigenvalues:
       0.990  0.990  0.996  0.997  0.998
     eigenvectors (columns):
       0.331 -0.417 -0.650  0.505  0.196
       0.456 -0.693  0.528 -0.153 -0.097
       0.521  0.391  0.012  0.272 -0.709
       0.088 -0.146 -0.545 -0.757 -0.316
      -0.636 -0.414 -0.025  0.271 -0.592
     occupation matrix ns (before diag.):
       0.995 -0.003 -0.000 -0.001  0.000
      -0.003  0.992  0.000 -0.001  0.000
      -0.000  0.000  0.994  0.000  0.004
      -0.001 -0.001  0.000  0.997  0.000
       0.000  0.000  0.004  0.000  0.993
     SPIN  2
     eigenvalues:
       0.204  0.988  0.996  0.997  0.998
     eigenvectors (columns):
       0.267 -0.472  0.695 -0.445  0.157
       0.406 -0.718 -0.548  0.134 -0.044
      -0.528 -0.293 -0.020 -0.298 -0.739
       0.070 -0.145  0.465  0.806 -0.330
       0.693  0.393 -0.009 -0.214 -0.564
     occupation matrix ns (before diag.):
       0.938 -0.089  0.111 -0.016 -0.145
      -0.089  0.862  0.168 -0.023 -0.221
       0.111  0.168  0.776  0.029  0.291
      -0.016 -0.023  0.029  0.993 -0.038
      -0.145 -0.221  0.291 -0.038  0.615

     Number of occupied Hubbard levels =   17.3363

     HUBBARD ENERGY =    0.1525  (Ry)

     total cpu time spent up to now is      336.9 secs

     total energy              =   -1281.06828046 Ry
     estimated scf accuracy    <       0.00000153 Ry

     total magnetization       =     3.00 Bohr mag/cell
     absolute magnetization    =     3.05 Bohr mag/cell

     iteration # 12     ecut=   120.00 Ry     beta= 0.70
     Davidson diagonalization with overlap

---- Real-time Memory Report at c_bands before calling an iterative solver
           437 MiB given to the printing process from OS
           401 MiB allocation reported by mallinfo(arena+hblkhd)
        659098 MiB available memory on the node where the printing process lives
------------------
     ethr =  1.36E-09,  avg # of iterations =  2.0

     =================== HUBBARD OCCUPATIONS ===================
     ------------------------ ATOM    1 ------------------------
     Tr[ns(  1)] (up, down, total) =   4.97250  3.20817  8.18067
     Atomic magnetic moment for atom   1 =   1.76433
     SPIN  1
     eigenvalues:
       0.989  0.992  0.996  0.998  0.998
     eigenvectors (columns):
      -0.158  0.462  0.771 -0.184  0.364
      -0.396  0.762 -0.509 -0.000 -0.060
       0.604  0.267 -0.029 -0.663 -0.352
      -0.078  0.148  0.378  0.405 -0.816
      -0.669 -0.336  0.049 -0.602 -0.273
     occupation matrix ns (before diag.):
       0.995 -0.002  0.000 -0.001 -0.000
      -0.002  0.993  0.001 -0.001 -0.001
       0.000  0.001  0.994  0.000  0.004
      -0.001 -0.001  0.000  0.997 -0.000
      -0.000 -0.001  0.004 -0.000  0.993
     SPIN  2
     eigenvalues:
       0.101  0.122  0.994  0.996  0.996
     eigenvectors (columns):
       0.541 -0.222  0.725 -0.022  0.364
       0.719 -0.328 -0.609 -0.042 -0.059
       0.202  0.530  0.015 -0.821 -0.057
       0.162 -0.082  0.321  0.057 -0.928
      -0.351 -0.745  0.028 -0.566 -0.021
     occupation matrix ns (before diag.):
       0.690 -0.411  0.005 -0.095  0.026
      -0.411  0.439  0.022 -0.128  0.012
       0.005  0.022  0.713  0.009  0.409
      -0.095 -0.128  0.009  0.966 -0.003
       0.026  0.012  0.409 -0.003  0.400
     ------------------------ ATOM    2 ------------------------
     Tr[ns(  2)] (up, down, total) =   4.97156  4.18389  9.15545
     Atomic magnetic moment for atom   2 =   0.78767
     SPIN  1
     eigenvalues:
       0.990  0.990  0.996  0.997  0.998
     eigenvectors (columns):
      -0.331  0.417 -0.650 -0.506 -0.196
      -0.456  0.693  0.528  0.154  0.097
      -0.520 -0.391  0.012 -0.272  0.709
      -0.088  0.146 -0.546  0.757  0.315
       0.636  0.415 -0.026 -0.271  0.592
     occupation matrix ns (before diag.):
       0.995 -0.003 -0.000 -0.001  0.000
      -0.003  0.992  0.000 -0.001  0.000
      -0.000  0.000  0.994  0.000  0.004
      -0.001 -0.001  0.000  0.997  0.000
       0.000  0.000  0.004  0.000  0.993
     SPIN  2
     eigenvalues:
       0.204  0.988  0.996  0.997  0.998
     eigenvectors (columns):
       0.267 -0.473  0.695 -0.446  0.156
       0.405 -0.718 -0.548  0.135 -0.044
      -0.529 -0.293 -0.021 -0.297 -0.739
       0.068 -0.146  0.466  0.806 -0.329
       0.693  0.393 -0.009 -0.213 -0.565
     occupation matrix ns (before diag.):
       0.939 -0.088  0.111 -0.015 -0.145
      -0.088  0.862  0.168 -0.023 -0.220
       0.111  0.168  0.775  0.028  0.292
      -0.015 -0.023  0.028  0.993 -0.037
      -0.145 -0.220  0.292 -0.037  0.615

     Number of occupied Hubbard levels =   17.3361

     HUBBARD ENERGY =    0.1525  (Ry)

     total cpu time spent up to now is      364.7 secs

     total energy              =   -1281.06828169 Ry
     estimated scf accuracy    <       0.00000068 Ry

     total magnetization       =     3.00 Bohr mag/cell
     absolute magnetization    =     3.05 Bohr mag/cell

     iteration # 13     ecut=   120.00 Ry     beta= 0.70
     Davidson diagonalization with overlap

---- Real-time Memory Report at c_bands before calling an iterative solver
           437 MiB given to the printing process from OS
           401 MiB allocation reported by mallinfo(arena+hblkhd)
        655523 MiB available memory on the node where the printing process lives
------------------
     ethr =  6.00E-10,  avg # of iterations =  2.4

     =================== HUBBARD OCCUPATIONS ===================
     ------------------------ ATOM    1 ------------------------
     Tr[ns(  1)] (up, down, total) =   4.97249  3.20813  8.18062
     Atomic magnetic moment for atom   1 =   1.76436
     SPIN  1
     eigenvalues:
       0.989  0.992  0.996  0.998  0.998
     eigenvectors (columns):
      -0.158  0.462  0.772 -0.185  0.364
      -0.396  0.762 -0.509  0.000 -0.060
       0.604  0.267 -0.029 -0.662 -0.353
      -0.078  0.147  0.378  0.406 -0.815
      -0.669 -0.336  0.049 -0.602 -0.274
     occupation matrix ns (before diag.):
       0.995 -0.002  0.000 -0.001 -0.000
      -0.002  0.992  0.001 -0.001 -0.001
       0.000  0.001  0.994  0.000  0.004
      -0.001 -0.001  0.000  0.997 -0.000
      -0.000 -0.001  0.004 -0.000  0.993
     SPIN  2
     eigenvalues:
       0.101  0.122  0.994  0.996  0.996
     eigenvectors (columns):
       0.542 -0.222  0.724 -0.022  0.364
       0.718 -0.327 -0.610 -0.042 -0.058
       0.202  0.530  0.015 -0.822 -0.057
       0.163 -0.082  0.320  0.058 -0.928
      -0.351 -0.746  0.028 -0.565 -0.021
     occupation matrix ns (before diag.):
       0.689 -0.411  0.005 -0.095  0.026
      -0.411  0.440  0.022 -0.128  0.012
       0.005  0.022  0.714  0.009  0.409
      -0.095 -0.128  0.009  0.966 -0.002
       0.026  0.012  0.409 -0.002  0.399
     ------------------------ ATOM    2 ------------------------
     Tr[ns(  2)] (up, down, total) =   4.97157  4.18404  9.15560
     Atomic magnetic moment for atom   2 =   0.78753
     SPIN  1
     eigenvalues:
       0.990  0.990  0.996  0.997  0.998
     eigenvectors (columns):
      -0.332  0.416 -0.649 -0.506 -0.196
      -0.458  0.692  0.528  0.154  0.098
      -0.519 -0.392  0.012 -0.272  0.709
      -0.088  0.146 -0.547  0.757  0.315
       0.634  0.416 -0.026 -0.271  0.592
     occupation matrix ns (before diag.):
       0.995 -0.003 -0.000 -0.001  0.000
      -0.003  0.992  0.000 -0.001  0.000
      -0.000  0.000  0.994  0.000  0.004
      -0.001 -0.001  0.000  0.997  0.000
       0.000  0.000  0.004  0.000  0.993
     SPIN  2
     eigenvalues:
       0.204  0.989  0.996  0.997  0.998
     eigenvectors (columns):
       0.266 -0.473  0.695  0.446  0.155
       0.405 -0.718 -0.547 -0.135 -0.044
      -0.530 -0.292 -0.022  0.296 -0.739
       0.067 -0.146  0.466 -0.806 -0.328
       0.693  0.392 -0.008  0.212 -0.567
     occupation matrix ns (before diag.):
       0.939 -0.088  0.110 -0.015 -0.144
      -0.088  0.862  0.168 -0.022 -0.220
       0.110  0.168  0.774  0.028  0.292
      -0.015 -0.022  0.028  0.993 -0.036
      -0.144 -0.220  0.292 -0.036  0.615

     Number of occupied Hubbard levels =   17.3362

     HUBBARD ENERGY =    0.1526  (Ry)

     total cpu time spent up to now is      393.8 secs

     total energy              =   -1281.06828455 Ry
     estimated scf accuracy    <       0.00000031 Ry

     total magnetization       =     3.00 Bohr mag/cell
     absolute magnetization    =     3.05 Bohr mag/cell

     iteration # 14     ecut=   120.00 Ry     beta= 0.70
     Davidson diagonalization with overlap

---- Real-time Memory Report at c_bands before calling an iterative solver
           437 MiB given to the printing process from OS
           401 MiB allocation reported by mallinfo(arena+hblkhd)
        651231 MiB available memory on the node where the printing process lives
------------------
     ethr =  2.78E-10,  avg # of iterations =  2.2

     =================== HUBBARD OCCUPATIONS ===================
     ------------------------ ATOM    1 ------------------------
     Tr[ns(  1)] (up, down, total) =   4.97249  3.20807  8.18056
     Atomic magnetic moment for atom   1 =   1.76442
     SPIN  1
     eigenvalues:
       0.989  0.992  0.996  0.998  0.998
     eigenvectors (columns):
      -0.158  0.461  0.772 -0.185  0.363
      -0.396  0.762 -0.508  0.000 -0.060
       0.604  0.267 -0.029 -0.662 -0.353
      -0.078  0.147  0.377  0.407 -0.815
      -0.669 -0.336  0.049 -0.602 -0.274
     occupation matrix ns (before diag.):
       0.995 -0.002  0.000 -0.001 -0.000
      -0.002  0.992  0.001 -0.001 -0.001
       0.000  0.001  0.994  0.000  0.004
      -0.001 -0.001  0.000  0.997 -0.000
      -0.000 -0.001  0.004 -0.000  0.993
     SPIN  2
     eigenvalues:
       0.101  0.122  0.994  0.996  0.996
     eigenvectors (columns):
       0.542 -0.222  0.724 -0.022  0.364
       0.718 -0.327 -0.610 -0.042 -0.058
       0.202  0.530  0.015 -0.822 -0.058
       0.163 -0.082  0.320  0.058 -0.928
      -0.351 -0.746  0.028 -0.565 -0.021
     occupation matrix ns (before diag.):
       0.689 -0.411  0.005 -0.096  0.026
      -0.411  0.440  0.022 -0.128  0.012
       0.005  0.022  0.714  0.009  0.409
      -0.096 -0.128  0.009  0.966 -0.002
       0.026  0.012  0.409 -0.002  0.399
     ------------------------ ATOM    2 ------------------------
     Tr[ns(  2)] (up, down, total) =   4.97157  4.18412  9.15568
     Atomic magnetic moment for atom   2 =   0.78745
     SPIN  1
     eigenvalues:
       0.990  0.990  0.996  0.997  0.998
     eigenvectors (columns):
      -0.334  0.414 -0.649 -0.507 -0.196
      -0.461  0.690  0.528  0.154  0.098
      -0.517 -0.395  0.012 -0.271  0.709
      -0.089  0.145 -0.547  0.757  0.315
       0.632  0.419 -0.026 -0.271  0.592
     occupation matrix ns (before diag.):
       0.995 -0.003 -0.000 -0.001  0.000
      -0.003  0.992  0.000 -0.001  0.000
      -0.000  0.000  0.994  0.000  0.004
      -0.001 -0.001  0.000  0.997  0.000
       0.000  0.000  0.004  0.000  0.993
     SPIN  2
     eigenvalues:
       0.204  0.988  0.996  0.997  0.998
     eigenvectors (columns):
       0.265 -0.473  0.695  0.447  0.154
       0.405 -0.719 -0.547 -0.135 -0.044
      -0.531 -0.292 -0.023  0.296 -0.739
       0.066 -0.146  0.466 -0.806 -0.327
       0.693  0.392 -0.008  0.211 -0.567
     occupation matrix ns (before diag.):
       0.939 -0.088  0.110 -0.015 -0.144
      -0.088  0.862  0.169 -0.022 -0.220
       0.110  0.169  0.774  0.027  0.293
      -0.015 -0.022  0.027  0.994 -0.036
      -0.144 -0.220  0.293 -0.036  0.615

     Number of occupied Hubbard levels =   17.3362

     HUBBARD ENERGY =    0.1526  (Ry)

     total cpu time spent up to now is      422.2 secs

     total energy              =   -1281.06828529 Ry
     estimated scf accuracy    <       0.00000015 Ry

     total magnetization       =     3.00 Bohr mag/cell
     absolute magnetization    =     3.05 Bohr mag/cell

     iteration # 15     ecut=   120.00 Ry     beta= 0.70
     Davidson diagonalization with overlap

---- Real-time Memory Report at c_bands before calling an iterative solver
           437 MiB given to the printing process from OS
           401 MiB allocation reported by mallinfo(arena+hblkhd)
        655581 MiB available memory on the node where the printing process lives
------------------
     ethr =  1.32E-10,  avg # of iterations =  2.4

     =================== HUBBARD OCCUPATIONS ===================
     ------------------------ ATOM    1 ------------------------
     Tr[ns(  1)] (up, down, total) =   4.97249  3.20804  8.18053
     Atomic magnetic moment for atom   1 =   1.76445
     SPIN  1
     eigenvalues:
       0.989  0.992  0.996  0.998  0.998
     eigenvectors (columns):
      -0.158  0.461  0.772 -0.185  0.363
      -0.397  0.762 -0.508  0.000 -0.060
       0.604  0.267 -0.029 -0.662 -0.353
      -0.078  0.147  0.378  0.407 -0.815
      -0.669 -0.337  0.049 -0.602 -0.274
     occupation matrix ns (before diag.):
       0.995 -0.002  0.000 -0.001 -0.000
      -0.002  0.992  0.001 -0.001 -0.001
       0.000  0.001  0.994  0.000  0.004
      -0.001 -0.001  0.000  0.997 -0.000
      -0.000 -0.001  0.004 -0.000  0.993
     SPIN  2
     eigenvalues:
       0.101  0.122  0.994  0.996  0.996
     eigenvectors (columns):
       0.542 -0.222  0.724 -0.022  0.363
       0.718 -0.327 -0.610 -0.042 -0.058
       0.202  0.530  0.015 -0.822 -0.058
       0.163 -0.082  0.320  0.058 -0.928
      -0.351 -0.746  0.028 -0.565 -0.021
     occupation matrix ns (before diag.):
       0.689 -0.411  0.005 -0.096  0.026
      -0.411  0.440  0.022 -0.128  0.012
       0.005  0.022  0.714  0.009  0.409
      -0.096 -0.128  0.009  0.966 -0.002
       0.026  0.012  0.409 -0.002  0.399
     ------------------------ ATOM    2 ------------------------
     Tr[ns(  2)] (up, down, total) =   4.97157  4.18419  9.15575
     Atomic magnetic moment for atom   2 =   0.78738
     SPIN  1
     eigenvalues:
       0.990  0.990  0.996  0.997  0.998
     eigenvectors (columns):
      -0.336  0.413 -0.649 -0.507 -0.196
      -0.464  0.688  0.528  0.154  0.098
      -0.516 -0.397  0.012 -0.271  0.709
      -0.090  0.145 -0.547  0.757  0.315
       0.631  0.422 -0.026 -0.271  0.592
     occupation matrix ns (before diag.):
       0.995 -0.003 -0.000 -0.001  0.000
      -0.003  0.992  0.000 -0.001  0.000
      -0.000  0.000  0.994  0.000  0.004
      -0.001 -0.001  0.000  0.997  0.000
       0.000  0.000  0.004  0.000  0.993
     SPIN  2
     eigenvalues:
       0.204  0.988  0.996  0.997  0.998
     eigenvectors (columns):
       0.264 -0.473  0.695  0.447  0.153
       0.405 -0.719 -0.547 -0.136 -0.044
      -0.531 -0.291 -0.023  0.295 -0.738
       0.065 -0.146  0.467 -0.806 -0.327
       0.693  0.391 -0.008  0.211 -0.568
     occupation matrix ns (before diag.):
       0.939 -0.088  0.110 -0.015 -0.144
      -0.088  0.863  0.169 -0.022 -0.220
       0.110  0.169  0.773  0.027  0.293
      -0.015 -0.022  0.027  0.994 -0.035
      -0.144 -0.220  0.293 -0.035  0.615

     Number of occupied Hubbard levels =   17.3363

     HUBBARD ENERGY =    0.1526  (Ry)

     total cpu time spent up to now is      450.0 secs

     total energy              =   -1281.06828578 Ry
     estimated scf accuracy    <       0.00000009 Ry

     total magnetization       =     3.00 Bohr mag/cell
     absolute magnetization    =     3.05 Bohr mag/cell

     iteration # 16     ecut=   120.00 Ry     beta= 0.70
     Davidson diagonalization with overlap

---- Real-time Memory Report at c_bands before calling an iterative solver
           437 MiB given to the printing process from OS
           401 MiB allocation reported by mallinfo(arena+hblkhd)
        657219 MiB available memory on the node where the printing process lives
------------------
     ethr =  8.00E-11,  avg # of iterations =  2.1

     =================== HUBBARD OCCUPATIONS ===================
     ------------------------ ATOM    1 ------------------------
     Tr[ns(  1)] (up, down, total) =   4.97249  3.20805  8.18054
     Atomic magnetic moment for atom   1 =   1.76444
     SPIN  1
     eigenvalues:
       0.989  0.992  0.996  0.998  0.998
     eigenvectors (columns):
      -0.158  0.461  0.772 -0.185  0.364
      -0.397  0.762 -0.508  0.000 -0.060
       0.604  0.267 -0.029 -0.662 -0.353
      -0.078  0.147  0.378  0.407 -0.815
      -0.669 -0.336  0.049 -0.602 -0.274
     occupation matrix ns (before diag.):
       0.995 -0.002  0.000 -0.001 -0.000
      -0.002  0.992  0.001 -0.001 -0.001
       0.000  0.001  0.994  0.000  0.004
      -0.001 -0.001  0.000  0.997 -0.000
      -0.000 -0.001  0.004 -0.000  0.993
     SPIN  2
     eigenvalues:
       0.101  0.122  0.994  0.996  0.996
     eigenvectors (columns):
       0.542 -0.222  0.724 -0.022  0.363
       0.718 -0.327 -0.610 -0.042 -0.058
       0.202  0.530  0.015 -0.822 -0.058
       0.163 -0.082  0.320  0.058 -0.928
      -0.351 -0.746  0.028 -0.565 -0.022
     occupation matrix ns (before diag.):
       0.689 -0.411  0.005 -0.096  0.026
      -0.411  0.440  0.022 -0.128  0.012
       0.005  0.022  0.714  0.009  0.409
      -0.096 -0.128  0.009  0.966 -0.002
       0.026  0.012  0.409 -0.002  0.399
     ------------------------ ATOM    2 ------------------------
     Tr[ns(  2)] (up, down, total) =   4.97157  4.18423  9.15580
     Atomic magnetic moment for atom   2 =   0.78733
     SPIN  1
     eigenvalues:
       0.990  0.990  0.996  0.997  0.998
     eigenvectors (columns):
      -0.337  0.412 -0.649 -0.507 -0.196
      -0.465  0.687  0.528  0.154  0.097
      -0.515 -0.398  0.012 -0.271  0.709
      -0.090  0.145 -0.547  0.757  0.314
       0.630  0.423 -0.026 -0.271  0.592
     occupation matrix ns (before diag.):
       0.995 -0.003 -0.000 -0.001  0.000
      -0.003  0.992  0.000 -0.001  0.000
      -0.000  0.000  0.994  0.000  0.004
      -0.001 -0.001  0.000  0.997  0.000
       0.000  0.000  0.004  0.000  0.993
     SPIN  2
     eigenvalues:
       0.204  0.988  0.996  0.997  0.998
     eigenvectors (columns):
       0.264 -0.473  0.695  0.447  0.153
       0.404 -0.719 -0.547 -0.136 -0.044
      -0.531 -0.291 -0.024  0.295 -0.738
       0.065 -0.146  0.467 -0.806 -0.326
       0.693  0.391 -0.008  0.211 -0.568
     occupation matrix ns (before diag.):
       0.940 -0.087  0.110 -0.014 -0.143
      -0.087  0.863  0.169 -0.022 -0.220
       0.110  0.169  0.773  0.027  0.293
      -0.014 -0.022  0.027  0.994 -0.035
      -0.143 -0.220  0.293 -0.035  0.615

     Number of occupied Hubbard levels =   17.3363

     HUBBARD ENERGY =    0.1526  (Ry)

     total cpu time spent up to now is      477.3 secs

     total energy              =   -1281.06828552 Ry
     estimated scf accuracy    <       0.00000006 Ry

     total magnetization       =     3.00 Bohr mag/cell
     absolute magnetization    =     3.05 Bohr mag/cell

     iteration # 17     ecut=   120.00 Ry     beta= 0.70
     Davidson diagonalization with overlap

---- Real-time Memory Report at c_bands before calling an iterative solver
           437 MiB given to the printing process from OS
           401 MiB allocation reported by mallinfo(arena+hblkhd)
        651958 MiB available memory on the node where the printing process lives
------------------
     ethr =  4.91E-11,  avg # of iterations =  3.2

     =================== HUBBARD OCCUPATIONS ===================
     ------------------------ ATOM    1 ------------------------
     Tr[ns(  1)] (up, down, total) =   4.97249  3.20807  8.18056
     Atomic magnetic moment for atom   1 =   1.76442
     SPIN  1
     eigenvalues:
       0.989  0.992  0.996  0.998  0.998
     eigenvectors (columns):
      -0.158  0.461  0.772 -0.185  0.364
      -0.396  0.762 -0.508  0.000 -0.060
       0.604  0.267 -0.029 -0.662 -0.353
      -0.078  0.147  0.378  0.406 -0.815
      -0.669 -0.336  0.049 -0.602 -0.274
     occupation matrix ns (before diag.):
       0.995 -0.002  0.000 -0.001 -0.000
      -0.002  0.992  0.001 -0.001 -0.001
       0.000  0.001  0.994  0.000  0.004
      -0.001 -0.001  0.000  0.997 -0.000
      -0.000 -0.001  0.004 -0.000  0.993
     SPIN  2
     eigenvalues:
       0.101  0.122  0.994  0.996  0.996
     eigenvectors (columns):
       0.542 -0.222  0.724 -0.022  0.363
       0.718 -0.327 -0.610 -0.042 -0.058
       0.202  0.529  0.015 -0.822 -0.058
       0.163 -0.082  0.320  0.059 -0.928
      -0.351 -0.746  0.028 -0.565 -0.022
     occupation matrix ns (before diag.):
       0.688 -0.411  0.005 -0.095  0.026
      -0.411  0.440  0.022 -0.128  0.012
       0.005  0.022  0.714  0.009  0.408
      -0.095 -0.128  0.009  0.966 -0.002
       0.026  0.012  0.408 -0.002  0.399
     ------------------------ ATOM    2 ------------------------
     Tr[ns(  2)] (up, down, total) =   4.97157  4.18424  9.15581
     Atomic magnetic moment for atom   2 =   0.78733
     SPIN  1
     eigenvalues:
       0.990  0.990  0.996  0.997  0.998
     eigenvectors (columns):
      -0.339  0.411 -0.649 -0.507 -0.196
      -0.468  0.684  0.528  0.155  0.097
      -0.513 -0.400  0.012 -0.271  0.709
      -0.091  0.144 -0.547  0.757  0.314
       0.628  0.426 -0.025 -0.270  0.592
     occupation matrix ns (before diag.):
       0.995 -0.003 -0.000 -0.001  0.000
      -0.003  0.992  0.000 -0.001  0.000
      -0.000  0.000  0.994  0.000  0.004
      -0.001 -0.001  0.000  0.997  0.000
       0.000  0.000  0.004  0.000  0.993
     SPIN  2
     eigenvalues:
       0.204  0.988  0.996  0.997  0.998
     eigenvectors (columns):
       0.263 -0.474  0.695  0.448  0.153
       0.404 -0.720 -0.546 -0.136 -0.044
      -0.532 -0.290 -0.024  0.295 -0.738
       0.064 -0.146  0.467 -0.806 -0.326
       0.693  0.390 -0.007  0.210 -0.568
     occupation matrix ns (before diag.):
       0.940 -0.087  0.110 -0.014 -0.143
      -0.087  0.863  0.169 -0.021 -0.220
       0.110  0.169  0.772  0.027  0.294
      -0.014 -0.021  0.027  0.994 -0.035
      -0.143 -0.220  0.294 -0.035  0.615

     Number of occupied Hubbard levels =   17.3364

     HUBBARD ENERGY =    0.1526  (Ry)

     total cpu time spent up to now is      508.9 secs

     total energy              =   -1281.06828620 Ry
     estimated scf accuracy    <       0.00000002 Ry

     total magnetization       =     3.00 Bohr mag/cell
     absolute magnetization    =     3.05 Bohr mag/cell

     iteration # 18     ecut=   120.00 Ry     beta= 0.70
     Davidson diagonalization with overlap

---- Real-time Memory Report at c_bands before calling an iterative solver
           437 MiB given to the printing process from OS
           401 MiB allocation reported by mallinfo(arena+hblkhd)
        651949 MiB available memory on the node where the printing process lives
------------------
     ethr =  1.89E-11,  avg # of iterations =  2.8

     =================== HUBBARD OCCUPATIONS ===================
     ------------------------ ATOM    1 ------------------------
     Tr[ns(  1)] (up, down, total) =   4.97249  3.20807  8.18056
     Atomic magnetic moment for atom   1 =   1.76442
     SPIN  1
     eigenvalues:
       0.989  0.992  0.996  0.998  0.998
     eigenvectors (columns):
      -0.158  0.461  0.772 -0.185  0.364
      -0.396  0.762 -0.508  0.000 -0.060
       0.604  0.267 -0.029 -0.662 -0.353
      -0.078  0.147  0.378  0.406 -0.815
      -0.669 -0.336  0.049 -0.602 -0.274
     occupation matrix ns (before diag.):
       0.995 -0.002  0.000 -0.001 -0.000
      -0.002  0.992  0.001 -0.001 -0.001
       0.000  0.001  0.994  0.000  0.004
      -0.001 -0.001  0.000  0.997 -0.000
      -0.000 -0.001  0.004 -0.000  0.993
     SPIN  2
     eigenvalues:
       0.101  0.122  0.994  0.996  0.996
     eigenvectors (columns):
       0.543 -0.222  0.724 -0.023  0.363
       0.718 -0.327 -0.610 -0.042 -0.058
       0.202  0.529  0.015 -0.822 -0.059
       0.163 -0.082  0.320  0.059 -0.928
      -0.351 -0.746  0.028 -0.565 -0.022
     occupation matrix ns (before diag.):
       0.688 -0.411  0.005 -0.095  0.026
      -0.411  0.440  0.022 -0.128  0.012
       0.005  0.022  0.714  0.009  0.408
      -0.095 -0.128  0.009  0.966 -0.002
       0.026  0.012  0.408 -0.002  0.399
     ------------------------ ATOM    2 ------------------------
     Tr[ns(  2)] (up, down, total) =   4.97157  4.18422  9.15579
     Atomic magnetic moment for atom   2 =   0.78735
     SPIN  1
     eigenvalues:
       0.990  0.990  0.996  0.997  0.998
     eigenvectors (columns):
      -0.340  0.410 -0.649 -0.507 -0.196
      -0.470  0.683  0.528  0.155  0.097
      -0.512 -0.402  0.012 -0.271  0.709
      -0.091  0.144 -0.548  0.757  0.314
       0.627  0.428 -0.025 -0.270  0.592
     occupation matrix ns (before diag.):
       0.995 -0.003 -0.000 -0.001  0.000
      -0.003  0.992  0.000 -0.001  0.000
      -0.000  0.000  0.994  0.000  0.004
      -0.001 -0.001  0.000  0.997  0.000
       0.000  0.000  0.004  0.000  0.993
     SPIN  2
     eigenvalues:
       0.204  0.988  0.996  0.997  0.998
     eigenvectors (columns):
       0.263 -0.474  0.695  0.448  0.152
       0.404 -0.720 -0.546 -0.136 -0.044
      -0.532 -0.290 -0.025  0.295 -0.739
       0.064 -0.146  0.467 -0.806 -0.326
       0.693  0.390 -0.007  0.210 -0.568
     occupation matrix ns (before diag.):
       0.940 -0.087  0.110 -0.014 -0.143
      -0.087  0.863  0.169 -0.021 -0.220
       0.110  0.169  0.772  0.027  0.294
      -0.014 -0.021  0.027  0.994 -0.035
      -0.143 -0.220  0.294 -0.035  0.615

     Number of occupied Hubbard levels =   17.3363

     HUBBARD ENERGY =    0.1526  (Ry)

     total cpu time spent up to now is      539.6 secs

     total energy              =   -1281.06828641 Ry
     estimated scf accuracy    <       0.00000001 Ry

     total magnetization       =     3.00 Bohr mag/cell
     absolute magnetization    =     3.05 Bohr mag/cell

     iteration # 19     ecut=   120.00 Ry     beta= 0.70
     Davidson diagonalization with overlap

---- Real-time Memory Report at c_bands before calling an iterative solver
           437 MiB given to the printing process from OS
           401 MiB allocation reported by mallinfo(arena+hblkhd)
        651948 MiB available memory on the node where the printing process lives
------------------
     ethr =  1.06E-11,  avg # of iterations =  2.1

     =================== HUBBARD OCCUPATIONS ===================
     ------------------------ ATOM    1 ------------------------
     Tr[ns(  1)] (up, down, total) =   4.97249  3.20806  8.18055
     Atomic magnetic moment for atom   1 =   1.76443
     SPIN  1
     eigenvalues:
       0.989  0.992  0.996  0.998  0.998
     eigenvectors (columns):
      -0.158  0.461  0.772 -0.185  0.364
      -0.396  0.762 -0.508  0.000 -0.060
       0.604  0.267 -0.029 -0.662 -0.353
      -0.078  0.147  0.378  0.406 -0.815
      -0.669 -0.336  0.049 -0.602 -0.274
     occupation matrix ns (before diag.):
       0.995 -0.002  0.000 -0.001 -0.000
      -0.002  0.992  0.001 -0.001 -0.001
       0.000  0.001  0.994  0.000  0.004
      -0.001 -0.001  0.000  0.997 -0.000
      -0.000 -0.001  0.004 -0.000  0.993
     SPIN  2
     eigenvalues:
       0.101  0.122  0.994  0.996  0.996
     eigenvectors (columns):
       0.543 -0.222  0.724 -0.023  0.363
       0.718 -0.328 -0.610 -0.042 -0.058
       0.202  0.529  0.015 -0.822 -0.059
       0.163 -0.082  0.320  0.059 -0.928
      -0.351 -0.746  0.028 -0.565 -0.022
     occupation matrix ns (before diag.):
       0.688 -0.411  0.005 -0.095  0.026
      -0.411  0.440  0.022 -0.128  0.012
       0.005  0.022  0.714  0.009  0.408
      -0.095 -0.128  0.009  0.966 -0.002
       0.026  0.012  0.408 -0.002  0.399
     ------------------------ ATOM    2 ------------------------
     Tr[ns(  2)] (up, down, total) =   4.97157  4.18421  9.15577
     Atomic magnetic moment for atom   2 =   0.78736
     SPIN  1
     eigenvalues:
       0.990  0.990  0.996  0.997  0.998
     eigenvectors (columns):
      -0.340  0.410 -0.649 -0.507 -0.196
      -0.471  0.683  0.528  0.155  0.097
      -0.512 -0.402  0.012 -0.271  0.709
      -0.091  0.144 -0.548  0.757  0.314
       0.626  0.429 -0.025 -0.270  0.592
     occupation matrix ns (before diag.):
       0.995 -0.003 -0.000 -0.001  0.000
      -0.003  0.992  0.000 -0.001  0.000
      -0.000  0.000  0.994  0.000  0.004
      -0.001 -0.001  0.000  0.997  0.000
       0.000  0.000  0.004  0.000  0.993
     SPIN  2
     eigenvalues:
       0.204  0.988  0.996  0.997  0.998
     eigenvectors (columns):
       0.262 -0.474  0.695  0.448  0.152
       0.404 -0.720 -0.546 -0.136 -0.044
      -0.532 -0.290 -0.025  0.295 -0.739
       0.064 -0.146  0.468 -0.806 -0.326
       0.693  0.390 -0.007  0.210 -0.568
     occupation matrix ns (before diag.):
       0.940 -0.087  0.109 -0.014 -0.143
      -0.087  0.863  0.169 -0.021 -0.219
       0.109  0.169  0.772  0.027  0.294
      -0.014 -0.021  0.027  0.994 -0.035
      -0.143 -0.219  0.294 -0.035  0.615

     Number of occupied Hubbard levels =   17.3363

     HUBBARD ENERGY =    0.1526  (Ry)

     total cpu time spent up to now is      568.1 secs

     total energy              =   -1281.06828641 Ry
     estimated scf accuracy    <          8.7E-09 Ry

     total magnetization       =     3.00 Bohr mag/cell
     absolute magnetization    =     3.05 Bohr mag/cell

     iteration # 20     ecut=   120.00 Ry     beta= 0.70
     Davidson diagonalization with overlap

---- Real-time Memory Report at c_bands before calling an iterative solver
           437 MiB given to the printing process from OS
           401 MiB allocation reported by mallinfo(arena+hblkhd)
        657073 MiB available memory on the node where the printing process lives
------------------
     ethr =  7.70E-12,  avg # of iterations =  2.7

     =================== HUBBARD OCCUPATIONS ===================
     ------------------------ ATOM    1 ------------------------
     Tr[ns(  1)] (up, down, total) =   4.97249  3.20806  8.18055
     Atomic magnetic moment for atom   1 =   1.76443
     SPIN  1
     eigenvalues:
       0.989  0.992  0.996  0.998  0.998
     eigenvectors (columns):
      -0.158  0.461  0.772 -0.185  0.364
      -0.396  0.762 -0.508  0.000 -0.060
       0.604  0.267 -0.029 -0.662 -0.353
      -0.078  0.147  0.378  0.406 -0.815
      -0.669 -0.336  0.049 -0.602 -0.274
     occupation matrix ns (before diag.):
       0.995 -0.002  0.000 -0.001 -0.000
      -0.002  0.992  0.001 -0.001 -0.001
       0.000  0.001  0.994  0.000  0.004
      -0.001 -0.001  0.000  0.997 -0.000
      -0.000 -0.001  0.004 -0.000  0.993
     SPIN  2
     eigenvalues:
       0.101  0.122  0.994  0.996  0.996
     eigenvectors (columns):
       0.543 -0.222  0.724 -0.023  0.363
       0.718 -0.328 -0.610 -0.042 -0.058
       0.202  0.529  0.015 -0.822 -0.059
       0.163 -0.082  0.320  0.059 -0.928
      -0.351 -0.746  0.028 -0.565 -0.022
     occupation matrix ns (before diag.):
       0.688 -0.411  0.005 -0.095  0.026
      -0.411  0.440  0.022 -0.128  0.012
       0.005  0.022  0.714  0.009  0.408
      -0.095 -0.128  0.009  0.966 -0.002
       0.026  0.012  0.408 -0.002  0.399
     ------------------------ ATOM    2 ------------------------
     Tr[ns(  2)] (up, down, total) =   4.97157  4.18420  9.15577
     Atomic magnetic moment for atom   2 =   0.78736
     SPIN  1
     eigenvalues:
       0.990  0.990  0.996  0.997  0.998
     eigenvectors (columns):
      -0.341  0.409 -0.649 -0.507 -0.196
      -0.472  0.682  0.528  0.155  0.097
      -0.511 -0.403  0.012 -0.271  0.709
      -0.092  0.144 -0.548  0.757  0.314
       0.625  0.430 -0.025 -0.270  0.592
     occupation matrix ns (before diag.):
       0.995 -0.003 -0.000 -0.001  0.000
      -0.003  0.992  0.000 -0.001  0.000
      -0.000  0.000  0.994  0.000  0.004
      -0.001 -0.001  0.000  0.997  0.000
       0.000  0.000  0.004  0.000  0.993
     SPIN  2
     eigenvalues:
       0.204  0.988  0.996  0.997  0.998
     eigenvectors (columns):
       0.262 -0.474  0.695  0.448  0.152
       0.403 -0.720 -0.546 -0.136 -0.044
      -0.532 -0.290 -0.025  0.295 -0.739
       0.064 -0.146  0.468 -0.806 -0.326
       0.694  0.389 -0.007  0.210 -0.568
     occupation matrix ns (before diag.):
       0.940 -0.087  0.109 -0.014 -0.143
      -0.087  0.863  0.168 -0.021 -0.219
       0.109  0.168  0.772  0.027  0.294
      -0.014 -0.021  0.027  0.994 -0.035
      -0.143 -0.219  0.294 -0.035  0.615

     Number of occupied Hubbard levels =   17.3363

     HUBBARD ENERGY =    0.1526  (Ry)

     total cpu time spent up to now is      598.0 secs

     total energy              =   -1281.06828633 Ry
     estimated scf accuracy    <          5.0E-09 Ry

     total magnetization       =     3.00 Bohr mag/cell
     absolute magnetization    =     3.05 Bohr mag/cell

     iteration # 21     ecut=   120.00 Ry     beta= 0.70
     Davidson diagonalization with overlap

---- Real-time Memory Report at c_bands before calling an iterative solver
           437 MiB given to the printing process from OS
           401 MiB allocation reported by mallinfo(arena+hblkhd)
        651919 MiB available memory on the node where the printing process lives
------------------
     ethr =  4.40E-12,  avg # of iterations =  3.7

     =================== HUBBARD OCCUPATIONS ===================
     ------------------------ ATOM    1 ------------------------
     Tr[ns(  1)] (up, down, total) =   4.97249  3.20806  8.18055
     Atomic magnetic moment for atom   1 =   1.76443
     SPIN  1
     eigenvalues:
       0.989  0.992  0.996  0.998  0.998
     eigenvectors (columns):
      -0.158  0.461  0.772 -0.185  0.364
      -0.396  0.762 -0.508  0.000 -0.060
       0.604  0.267 -0.029 -0.662 -0.353
      -0.078  0.147  0.378  0.406 -0.815
      -0.669 -0.337  0.049 -0.602 -0.274
     occupation matrix ns (before diag.):
       0.995 -0.002  0.000 -0.001 -0.000
      -0.002  0.992  0.001 -0.001 -0.001
       0.000  0.001  0.994  0.000  0.004
      -0.001 -0.001  0.000  0.997 -0.000
      -0.000 -0.001  0.004 -0.000  0.993
     SPIN  2
     eigenvalues:
       0.101  0.122  0.994  0.996  0.996
     eigenvectors (columns):
       0.543 -0.222  0.724 -0.023  0.363
       0.718 -0.327 -0.610 -0.042 -0.058
       0.201  0.529  0.015 -0.822 -0.059
       0.163 -0.082  0.320  0.059 -0.928
      -0.351 -0.746  0.028 -0.565 -0.022
     occupation matrix ns (before diag.):
       0.688 -0.411  0.005 -0.095  0.026
      -0.411  0.441  0.022 -0.128  0.012
       0.005  0.022  0.714  0.009  0.408
      -0.095 -0.128  0.009  0.966 -0.002
       0.026  0.012  0.408 -0.002  0.399
     ------------------------ ATOM    2 ------------------------
     Tr[ns(  2)] (up, down, total) =   4.97157  4.18421  9.15578
     Atomic magnetic moment for atom   2 =   0.78736
     SPIN  1
     eigenvalues:
       0.990  0.990  0.996  0.997  0.998
     eigenvectors (columns):
      -0.342  0.408 -0.648 -0.508 -0.196
      -0.474  0.680  0.528  0.155  0.097
      -0.510 -0.405  0.012 -0.270  0.709
      -0.092  0.144 -0.548  0.757  0.314
       0.624  0.431 -0.025 -0.270  0.592
     occupation matrix ns (before diag.):
       0.995 -0.003 -0.000 -0.001  0.000
      -0.003  0.992  0.000 -0.001  0.000
      -0.000  0.000  0.994  0.000  0.004
      -0.001 -0.001  0.000  0.997  0.000
       0.000  0.000  0.004  0.000  0.993
     SPIN  2
     eigenvalues:
       0.204  0.989  0.996  0.997  0.998
     eigenvectors (columns):
       0.262 -0.474  0.695  0.448  0.153
       0.403 -0.720 -0.546 -0.136 -0.044
      -0.532 -0.289 -0.025  0.295 -0.739
       0.064 -0.146  0.468 -0.806 -0.326
       0.694  0.389 -0.007  0.210 -0.568
     occupation matrix ns (before diag.):
       0.941 -0.086  0.109 -0.014 -0.142
      -0.086  0.864  0.168 -0.021 -0.219
       0.109  0.168  0.772  0.027  0.294
      -0.014 -0.021  0.027  0.994 -0.035
      -0.142 -0.219  0.294 -0.035  0.614

     Number of occupied Hubbard levels =   17.3363

     HUBBARD ENERGY =    0.1526  (Ry)

     total cpu time spent up to now is      631.9 secs

     total energy              =   -1281.06828651 Ry
     estimated scf accuracy    <          1.8E-09 Ry

     total magnetization       =     3.00 Bohr mag/cell
     absolute magnetization    =     3.05 Bohr mag/cell

     iteration # 22     ecut=   120.00 Ry     beta= 0.70
     Davidson diagonalization with overlap

---- Real-time Memory Report at c_bands before calling an iterative solver
           437 MiB given to the printing process from OS
           401 MiB allocation reported by mallinfo(arena+hblkhd)
        651909 MiB available memory on the node where the printing process lives
------------------
     ethr =  1.57E-12,  avg # of iterations =  3.1

     =================== HUBBARD OCCUPATIONS ===================
     ------------------------ ATOM    1 ------------------------
     Tr[ns(  1)] (up, down, total) =   4.97249  3.20806  8.18055
     Atomic magnetic moment for atom   1 =   1.76443
     SPIN  1
     eigenvalues:
       0.989  0.992  0.996  0.998  0.998
     eigenvectors (columns):
      -0.158  0.461  0.772 -0.185  0.364
      -0.396  0.762 -0.508  0.000 -0.060
       0.604  0.267 -0.029 -0.662 -0.353
      -0.078  0.147  0.378  0.406 -0.815
      -0.669 -0.337  0.049 -0.602 -0.274
     occupation matrix ns (before diag.):
       0.995 -0.002  0.000 -0.001 -0.000
      -0.002  0.992  0.001 -0.001 -0.001
       0.000  0.001  0.994  0.000  0.004
      -0.001 -0.001  0.000  0.997 -0.000
      -0.000 -0.001  0.004 -0.000  0.993
     SPIN  2
     eigenvalues:
       0.101  0.122  0.994  0.996  0.996
     eigenvectors (columns):
       0.543 -0.222  0.724 -0.023  0.363
       0.718 -0.327 -0.610 -0.042 -0.058
       0.201  0.529  0.015 -0.822 -0.059
       0.163 -0.082  0.320  0.059 -0.928
      -0.351 -0.746  0.028 -0.565 -0.022
     occupation matrix ns (before diag.):
       0.688 -0.411  0.005 -0.095  0.026
      -0.411  0.441  0.022 -0.128  0.012
       0.005  0.022  0.714  0.009  0.408
      -0.095 -0.128  0.009  0.966 -0.002
       0.026  0.012  0.408 -0.002  0.399
     ------------------------ ATOM    2 ------------------------
     Tr[ns(  2)] (up, down, total) =   4.97157  4.18422  9.15579
     Atomic magnetic moment for atom   2 =   0.78735
     SPIN  1
     eigenvalues:
       0.990  0.990  0.996  0.997  0.998
     eigenvectors (columns):
      -0.343  0.408 -0.648 -0.508 -0.195
      -0.475  0.680  0.528  0.155  0.097
      -0.509 -0.405  0.012 -0.270  0.709
      -0.092  0.144 -0.548  0.756  0.314
       0.624  0.432 -0.025 -0.270  0.592
     occupation matrix ns (before diag.):
       0.995 -0.003 -0.000 -0.001  0.000
      -0.003  0.992  0.000 -0.001  0.000
      -0.000  0.000  0.994  0.000  0.004
      -0.001 -0.001  0.000  0.997  0.000
       0.000  0.000  0.004  0.000  0.993
     SPIN  2
     eigenvalues:
       0.204  0.989  0.996  0.997  0.998
     eigenvectors (columns):
       0.262 -0.474  0.695  0.448  0.153
       0.403 -0.721 -0.546 -0.136 -0.044
      -0.532 -0.289 -0.025  0.295 -0.739
       0.064 -0.146  0.468 -0.806 -0.326
       0.694  0.389 -0.007  0.210 -0.568
     occupation matrix ns (before diag.):
       0.941 -0.086  0.109 -0.014 -0.142
      -0.086  0.864  0.168 -0.021 -0.219
       0.109  0.168  0.772  0.027  0.294
      -0.014 -0.021  0.027  0.994 -0.035
      -0.142 -0.219  0.294 -0.035  0.614

     Number of occupied Hubbard levels =   17.3363

     HUBBARD ENERGY =    0.1526  (Ry)
 
     Magnetic moment per site  (integrated on atomic sphere of radius R)
     atom   1 (R=0.176)  charge= 15.2769  magn=  1.7158
     atom   2 (R=0.176)  charge= 16.3380  magn=  0.8027
     atom   3 (R=0.161)  charge=  7.6722  magn=  0.0192
     atom   4 (R=0.161)  charge=  7.6732  magn=  0.0189
     atom   5 (R=0.161)  charge=  4.9973  magn=  0.0313
     atom   6 (R=0.161)  charge=  5.0201  magn=  0.0510
     atom   7 (R=0.161)  charge=  4.9981  magn=  0.0282
     atom   8 (R=0.161)  charge=  5.0190  magn=  0.0250
     atom   9 (R=0.161)  charge=  4.9457  magn=  0.0425
     atom  10 (R=0.161)  charge=  4.9313  magn=  0.0221
     atom  11 (R=0.161)  charge=  4.9360  magn=  0.0228
     atom  12 (R=0.161)  charge=  4.9486  magn=  0.0244

     total cpu time spent up to now is      662.7 secs

     End of self-consistent calculation

 ------ SPIN UP ------------


          k = 0.0827 0.0713 0.0634 ( 19121 PWs)   bands (ev):

  -102.2845 -93.4782 -64.6946 -64.6358 -61.0012 -59.4175 -59.1966 -54.2021
   -54.0318 -53.9643 -29.0180 -28.9548 -28.9238 -28.8577 -28.8234 -28.7659
    -8.5085  -7.5649  -7.2553  -7.0534  -6.6047  -6.4948  -6.2769  -6.1323
     0.9877   2.0862   2.2776   2.4079   2.4876   2.7547   2.8347   3.2507
     3.7002   3.7766   4.3803   4.6654   5.1493   5.3528   5.6885   5.8481
     5.8878   6.3473   6.3998   7.0256   7.1497   7.4117   7.5836   7.7275
     7.9310   8.0349   8.3473   8.3815   8.7759   9.3243   9.5160   9.6944
    10.0205  10.1260  12.6880  12.8395  13.1354  13.4868  13.7998  14.3217
    15.5479  15.7987  17.5355  18.7913

     occupation numbers 
     1.0000   1.0000   1.0000   1.0000   1.0000   1.0000   1.0000   1.0000
     1.0000   1.0000   1.0000   1.0000   1.0000   1.0000   1.0000   1.0000
     1.0000   1.0000   1.0000   1.0000   1.0000   1.0000   1.0000   1.0000
     1.0000   1.0000   1.0000   1.0000   1.0000   1.0000   1.0000   1.0000
     1.0000   1.0000   1.0000   1.0000   1.0000   1.0000   1.0000   1.0000
     1.0000   1.0000   1.0000   1.0000   1.0000   1.0000   1.0000   1.0000
     1.0000   1.0000   1.0000   1.0000   1.0000   1.0000   1.0000   1.0000
     1.0000   1.0000   0.0000   0.0000   0.0000   0.0000   0.0000   0.0000
     0.0000   0.0000   0.0000   0.0000

          k = 0.0814 0.0713 0.2058 ( 19103 PWs)   bands (ev):

  -102.2845 -93.4782 -64.6945 -64.6358 -61.0012 -59.4175 -59.1966 -54.2021
   -54.0319 -53.9643 -29.0153 -28.9602 -28.9191 -28.8662 -28.8135 -28.7695
    -8.3927  -7.6432  -7.2837  -7.0931  -6.6167  -6.5114  -6.2264  -6.1370
     0.9813   2.0716   2.2825   2.4084   2.5154   2.7024   2.7775   3.3350
     3.7096   3.7805   4.4141   4.6673   5.1517   5.3553   5.6091   5.8134
     6.1471   6.3641   6.6528   6.8329   7.1138   7.2453   7.4458   7.7179
     7.9524   8.1083   8.3495   8.4146   8.5063   9.3166   9.6806   9.8233
     9.9987  10.0664  12.6058  12.8547  13.1895  13.2666  13.8573  14.2771
    15.9292  16.0621  17.4085  18.9311

     occupation numbers 
     1.0000   1.0000   1.0000   1.0000   1.0000   1.0000   1.0000   1.0000
     1.0000   1.0000   1.0000   1.0000   1.0000   1.0000   1.0000   1.0000
     1.0000   1.0000   1.0000   1.0000   1.0000   1.0000   1.0000   1.0000
     1.0000   1.0000   1.0000   1.0000   1.0000   1.0000   1.0000   1.0000
     1.0000   1.0000   1.0000   1.0000   1.0000   1.0000   1.0000   1.0000
     1.0000   1.0000   1.0000   1.0000   1.0000   1.0000   1.0000   1.0000
     1.0000   1.0000   1.0000   1.0000   1.0000   1.0000   1.0000   1.0000
     1.0000   1.0000   0.0000   0.0000   0.0000   0.0000   0.0000   0.0000
     0.0000   0.0000   0.0000   0.0000

          k = 0.0800 0.0713 0.3482 ( 19108 PWs)   bands (ev):

  -102.2845 -93.4782 -64.6944 -64.6358 -61.0012 -59.4175 -59.1966 -54.2021
   -54.0319 -53.9643 -29.0123 -28.9654 -28.9138 -28.8742 -28.8038 -28.7749
    -8.1776  -7.8175  -7.3207  -7.1652  -6.6328  -6.4806  -6.1848  -6.1358
     0.9808   2.0469   2.2692   2.3904   2.5102   2.6977   2.7406   3.4161
     3.6968   3.8162   4.3940   4.6681   5.2312   5.5138   5.7434   5.8282
     6.0497   6.2923   6.6687   6.7815   6.8582   7.1920   7.3625   7.6162
     7.8918   8.2014   8.2644   8.3743   9.0298   9.3614   9.6477   9.8249
     9.9757  10.0977  12.5286  12.6280  13.0998  13.3321  14.0128  14.1923
    16.0292  16.2366  17.8861  18.8301

     occupation numbers 
     1.0000   1.0000   1.0000   1.0000   1.0000   1.0000   1.0000   1.0000
     1.0000   1.0000   1.0000   1.0000   1.0000   1.0000   1.0000   1.0000
     1.0000   1.0000   1.0000   1.0000   1.0000   1.0000   1.0000   1.0000
     1.0000   1.0000   1.0000   1.0000   1.0000   1.0000   1.0000   1.0000
     1.0000   1.0000   1.0000   1.0000   1.0000   1.0000   1.0000   1.0000
     1.0000   1.0000   1.0000   1.0000   1.0000   1.0000   1.0000   1.0000
     1.0000   1.0000   1.0000   1.0000   1.0000   1.0000   1.0000   1.0000
     1.0000   1.0000   0.0000   0.0000   0.0000   0.0000   0.0000   0.0000
     0.0000   0.0000   0.0000   0.0000

          k = 0.0869 0.0713-0.3639 ( 19116 PWs)   bands (ev):

  -102.2845 -93.4782 -64.6943 -64.6357 -61.0012 -59.4175 -59.1966 -54.2021
   -54.0319 -53.9643 -29.0126 -28.9648 -28.9137 -28.8745 -28.8041 -28.7748
    -8.1092  -7.8810  -7.3248  -7.2078  -6.5796  -6.4878  -6.1832  -6.1405
     0.9881   2.0419   2.2702   2.3755   2.4929   2.6849   2.7762   3.3959
     3.7060   3.8217   4.3895   4.6944   5.3990   5.4915   5.7076   5.7882
     5.9756   6.1760   6.4508   6.6400   7.0534   7.3050   7.4935   7.7607
     7.8855   8.0103   8.1552   8.5207   9.3524   9.4988   9.5188   9.6020
     9.9788  10.1017  12.4742  12.6691  13.0849  13.3553  14.0130  14.2387
    15.8842  16.0718  18.0973  18.8475

     occupation numbers 
     1.0000   1.0000   1.0000   1.0000   1.0000   1.0000   1.0000   1.0000
     1.0000   1.0000   1.0000   1.0000   1.0000   1.0000   1.0000   1.0000
     1.0000   1.0000   1.0000   1.0000   1.0000   1.0000   1.0000   1.0000
     1.0000   1.0000   1.0000   1.0000   1.0000   1.0000   1.0000   1.0000
     1.0000   1.0000   1.0000   1.0000   1.0000   1.0000   1.0000   1.0000
     1.0000   1.0000   1.0000   1.0000   1.0000   1.0000   1.0000   1.0000
     1.0000   1.0000   1.0000   1.0000   1.0000   1.0000   1.0000   1.0000
     1.0000   1.0000   0.0000   0.0000   0.0000   0.0000   0.0000   0.0000
     0.0000   0.0000   0.0000   0.0000

          k = 0.0855 0.0713-0.2215 ( 19099 PWs)   bands (ev):

  -102.2845 -93.4782 -64.6944 -64.6357 -61.0012 -59.4175 -59.1966 -54.2021
   -54.0318 -53.9643 -29.0158 -28.9592 -28.9190 -28.8666 -28.8140 -28.7696
    -8.3378  -7.6824  -7.2947  -7.1859  -6.5592  -6.4480  -6.2174  -6.1767
     0.9954   2.0662   2.2883   2.3789   2.4956   2.6890   2.8185   3.3057
     3.7057   3.7836   4.4497   4.7754   5.0810   5.4035   5.6168   5.7200
     5.9619   6.2982   6.6768   6.9551   6.9937   7.1586   7.5317   7.7136
     7.8223   8.0394   8.4564   8.6137   9.0883   9.4018   9.4566   9.6236
     9.9913  10.0943  12.5576  12.8340  13.1046  13.4210  13.8953  14.3378
    15.6437  15.7610  17.6580  19.0929

     occupation numbers 
     1.0000   1.0000   1.0000   1.0000   1.0000   1.0000   1.0000   1.0000
     1.0000   1.0000   1.0000   1.0000   1.0000   1.0000   1.0000   1.0000
     1.0000   1.0000   1.0000   1.0000   1.0000   1.0000   1.0000   1.0000
     1.0000   1.0000   1.0000   1.0000   1.0000   1.0000   1.0000   1.0000
     1.0000   1.0000   1.0000   1.0000   1.0000   1.0000   1.0000   1.0000
     1.0000   1.0000   1.0000   1.0000   1.0000   1.0000   1.0000   1.0000
     1.0000   1.0000   1.0000   1.0000   1.0000   1.0000   1.0000   1.0000
     1.0000   1.0000   0.0000   0.0000   0.0000   0.0000   0.0000   0.0000
     0.0000   0.0000   0.0000   0.0000

          k = 0.0841 0.0713-0.0791 ( 19110 PWs)   bands (ev):

  -102.2845 -93.4782 -64.6946 -64.6357 -61.0012 -59.4175 -59.1966 -54.2021
   -54.0318 -53.9643 -29.0182 -28.9543 -28.9238 -28.8579 -28.8236 -28.7660
    -8.4886  -7.5739  -7.2646  -7.1049  -6.5815  -6.4443  -6.2701  -6.1620
     0.9946   2.0868   2.2816   2.3904   2.4882   2.7408   2.8543   3.2363
     3.7084   3.7564   4.4133   4.7519   5.0455   5.3131   5.6204   5.7541
     6.0351   6.4025   6.5482   6.8906   7.0334   7.2839   7.4522   7.8192
     7.9497   8.0970   8.4098   8.6161   8.9060   9.3342   9.4235   9.6095
    10.0289  10.1298  12.6692  12.8294  13.0756  13.5845  13.8227  14.3499
    15.4220  15.6553  17.6225  18.8379

     occupation numbers 
     1.0000   1.0000   1.0000   1.0000   1.0000   1.0000   1.0000   1.0000
     1.0000   1.0000   1.0000   1.0000   1.0000   1.0000   1.0000   1.0000
     1.0000   1.0000   1.0000   1.0000   1.0000   1.0000   1.0000   1.0000
     1.0000   1.0000   1.0000   1.0000   1.0000   1.0000   1.0000   1.0000
     1.0000   1.0000   1.0000   1.0000   1.0000   1.0000   1.0000   1.0000
     1.0000   1.0000   1.0000   1.0000   1.0000   1.0000   1.0000   1.0000
     1.0000   1.0000   1.0000   1.0000   1.0000   1.0000   1.0000   1.0000
     1.0000   1.0000   0.0000   0.0000   0.0000   0.0000   0.0000   0.0000
     0.0000   0.0000   0.0000   0.0000

          k = 0.0828 0.2185 0.0599 ( 19145 PWs)   bands (ev):

  -102.2845 -93.4782 -64.6945 -64.6357 -61.0012 -59.4175 -59.1966 -54.2021
   -54.0319 -53.9643 -29.0178 -28.9547 -28.9235 -28.8588 -28.8237 -28.7663
    -8.3562  -7.5810  -7.2774  -7.0907  -6.7356  -6.4669  -6.3496  -6.1229
     1.0390   2.0949   2.3395   2.4279   2.5992   2.8036   2.8726   3.3995
     3.7427   3.8293   4.5133   4.7645   4.9743   5.1333   5.4226   5.7433
     6.0024   6.3090   6.4397   6.8027   6.9063   7.2520   7.5862   7.8021
     8.1361   8.3339   8.4278   8.7905   8.8267   9.0605   9.2826   9.5962
     9.8713   9.9616  12.7195  12.7758  13.2001  13.3274  13.8085  14.4566
    15.6789  15.8351  17.8980  18.3810

     occupation numbers 
     1.0000   1.0000   1.0000   1.0000   1.0000   1.0000   1.0000   1.0000
     1.0000   1.0000   1.0000   1.0000   1.0000   1.0000   1.0000   1.0000
     1.0000   1.0000   1.0000   1.0000   1.0000   1.0000   1.0000   1.0000
     1.0000   1.0000   1.0000   1.0000   1.0000   1.0000   1.0000   1.0000
     1.0000   1.0000   1.0000   1.0000   1.0000   1.0000   1.0000   1.0000
     1.0000   1.0000   1.0000   1.0000   1.0000   1.0000   1.0000   1.0000
     1.0000   1.0000   1.0000   1.0000   1.0000   1.0000   1.0000   1.0000
     1.0000   1.0000   0.0000   0.0000   0.0000   0.0000   0.0000   0.0000
     0.0000   0.0000   0.0000   0.0000

          k = 0.0814 0.2185 0.2023 ( 19115 PWs)   bands (ev):

  -102.2845 -93.4782 -64.6944 -64.6358 -61.0012 -59.4175 -59.1966 -54.2021
   -54.0318 -53.9643 -29.0155 -28.9613 -28.9189 -28.8667 -28.8132 -28.7694
    -8.2471  -7.6666  -7.3083  -7.0813  -6.6566  -6.5749  -6.3205  -6.1405
     1.0238   2.0787   2.3455   2.4395   2.5895   2.7674   2.8804   3.4831
     3.7131   3.8430   4.4996   4.7259   5.0069   5.2069   5.4582   5.7826
     5.9986   6.1849   6.6424   6.6650   6.9445   7.4456   7.6564   7.7150
     7.9886   8.2548   8.3062   8.6863   8.7517   9.1291   9.3866   9.6211
     9.8717   9.9604  12.6084  12.8613  13.0548  13.2934  13.8171  14.4203
    15.9561  16.1265  17.8496  18.4309

     occupation numbers 
     1.0000   1.0000   1.0000   1.0000   1.0000   1.0000   1.0000   1.0000
     1.0000   1.0000   1.0000   1.0000   1.0000   1.0000   1.0000   1.0000
     1.0000   1.0000   1.0000   1.0000   1.0000   1.0000   1.0000   1.0000
     1.0000   1.0000   1.0000   1.0000   1.0000   1.0000   1.0000   1.0000
     1.0000   1.0000   1.0000   1.0000   1.0000   1.0000   1.0000   1.0000
     1.0000   1.0000   1.0000   1.0000   1.0000   1.0000   1.0000   1.0000
     1.0000   1.0000   1.0000   1.0000   1.0000   1.0000   1.0000   1.0000
     1.0000   1.0000   0.0000   0.0000   0.0000   0.0000   0.0000   0.0000
     0.0000   0.0000   0.0000   0.0000

          k = 0.0800 0.2185 0.3447 ( 19130 PWs)   bands (ev):

  -102.2845 -93.4783 -64.6943 -64.6358 -61.0012 -59.4175 -59.1966 -54.2021
   -54.0318 -53.9643 -29.0129 -28.9670 -28.9139 -28.8742 -28.8029 -28.7744
    -8.0534  -7.7991  -7.3500  -7.1235  -6.6600  -6.5664  -6.2758  -6.1828
     1.0166   2.0727   2.3326   2.4308   2.5436   2.7755   2.8687   3.5586
     3.7344   3.8590   4.4192   4.6396   5.1155   5.3810   5.5578   5.8156
     5.9423   6.1861   6.5171   6.7736   6.9722   7.4459   7.5640   7.7458
     7.8249   8.0425   8.1887   8.5060   9.1300   9.2260   9.3984   9.7058
     9.8965   9.9492  12.5206  12.5894  13.1330  13.3273  13.9298  14.3176
    16.0856  16.3036  18.1826  18.4002

     occupation numbers 
     1.0000   1.0000   1.0000   1.0000   1.0000   1.0000   1.0000   1.0000
     1.0000   1.0000   1.0000   1.0000   1.0000   1.0000   1.0000   1.0000
     1.0000   1.0000   1.0000   1.0000   1.0000   1.0000   1.0000   1.0000
     1.0000   1.0000   1.0000   1.0000   1.0000   1.0000   1.0000   1.0000
     1.0000   1.0000   1.0000   1.0000   1.0000   1.0000   1.0000   1.0000
     1.0000   1.0000   1.0000   1.0000   1.0000   1.0000   1.0000   1.0000
     1.0000   1.0000   1.0000   1.0000   1.0000   1.0000   1.0000   1.0000
     1.0000   1.0000   0.0000   0.0000   0.0000   0.0000   0.0000   0.0000
     0.0000   0.0000   0.0000   0.0000

          k = 0.0869 0.2185-0.3674 ( 19119 PWs)   bands (ev):

  -102.2845 -93.4783 -64.6942 -64.6357 -61.0012 -59.4175 -59.1966 -54.2021
   -54.0318 -53.9643 -29.0135 -28.9659 -28.9136 -28.8748 -28.8034 -28.7744
    -8.0360  -7.7743  -7.3584  -7.1971  -6.6625  -6.5196  -6.2569  -6.2065
     1.0246   2.0817   2.3245   2.4169   2.5319   2.7398   2.8847   3.5425
     3.7628   3.8779   4.3977   4.6761   5.1024   5.4954   5.5942   5.6944
     6.0373   6.1991   6.2752   6.7502   7.0549   7.3502   7.5316   7.7272
     7.9314   8.1249   8.2533   8.3923   9.1840   9.2937   9.5102   9.6085
     9.8427   9.9587  12.4746  12.5992  13.1817  13.3467  14.0658  14.2320
    15.9689  16.1556  18.1348  18.6940

     occupation numbers 
     1.0000   1.0000   1.0000   1.0000   1.0000   1.0000   1.0000   1.0000
     1.0000   1.0000   1.0000   1.0000   1.0000   1.0000   1.0000   1.0000
     1.0000   1.0000   1.0000   1.0000   1.0000   1.0000   1.0000   1.0000
     1.0000   1.0000   1.0000   1.0000   1.0000   1.0000   1.0000   1.0000
     1.0000   1.0000   1.0000   1.0000   1.0000   1.0000   1.0000   1.0000
     1.0000   1.0000   1.0000   1.0000   1.0000   1.0000   1.0000   1.0000
     1.0000   1.0000   1.0000   1.0000   1.0000   1.0000   1.0000   1.0000
     1.0000   1.0000   0.0000   0.0000   0.0000   0.0000   0.0000   0.0000
     0.0000   0.0000   0.0000   0.0000

          k = 0.0856 0.2185-0.2250 ( 19106 PWs)   bands (ev):

  -102.2845 -93.4782 -64.6943 -64.6357 -61.0012 -59.4175 -59.1966 -54.2021
   -54.0318 -53.9643 -29.0164 -28.9590 -28.9186 -28.8676 -28.8140 -28.7695
    -8.2194  -7.6045  -7.3282  -7.2282  -6.6739  -6.4480  -6.3202  -6.1743
     1.0400   2.1031   2.3257   2.4096   2.5532   2.7300   2.9014   3.4714
     3.7448   3.8672   4.5041   4.7954   4.9989   5.1902   5.4503   5.7187
     6.0540   6.2823   6.4671   6.7430   6.9083   7.3108   7.6037   7.6515
     8.0604   8.1824   8.4392   8.6678   9.0760   9.1668   9.2761   9.6353
     9.8324   9.9712  12.5680  12.7442  13.2315  13.3470  14.0180  14.3267
    15.7333  15.8338  17.9375  18.6733

     occupation numbers 
     1.0000   1.0000   1.0000   1.0000   1.0000   1.0000   1.0000   1.0000
     1.0000   1.0000   1.0000   1.0000   1.0000   1.0000   1.0000   1.0000
     1.0000   1.0000   1.0000   1.0000   1.0000   1.0000   1.0000   1.0000
     1.0000   1.0000   1.0000   1.0000   1.0000   1.0000   1.0000   1.0000
     1.0000   1.0000   1.0000   1.0000   1.0000   1.0000   1.0000   1.0000
     1.0000   1.0000   1.0000   1.0000   1.0000   1.0000   1.0000   1.0000
     1.0000   1.0000   1.0000   1.0000   1.0000   1.0000   1.0000   1.0000
     1.0000   1.0000   0.0000   0.0000   0.0000   0.0000   0.0000   0.0000
     0.0000   0.0000   0.0000   0.0000

          k = 0.0842 0.2185-0.0826 ( 19142 PWs)   bands (ev):

  -102.2845 -93.4782 -64.6945 -64.6357 -61.0012 -59.4175 -59.1966 -54.2021
   -54.0319 -53.9643 -29.0181 -28.9536 -28.9235 -28.8592 -28.8240 -28.7664
    -8.3441  -7.5466  -7.2921  -7.1670  -6.7169  -6.4172  -6.3537  -6.1433
     1.0471   2.1120   2.3261   2.4105   2.5785   2.7754   2.9048   3.3963
     3.7478   3.8375   4.5547   4.7939   4.9036   5.1721   5.3527   5.6633
     6.1089   6.4523   6.5765   6.6606   6.7851   7.0901   7.6970   7.9561
     8.0069   8.2040   8.4809   8.7883   8.9334   9.0503   9.3294   9.6131
     9.8564   9.9649  12.6756  12.7649  13.1870  13.4402  13.8941  14.4228
    15.5811  15.6845  17.9457  18.4535

     occupation numbers 
     1.0000   1.0000   1.0000   1.0000   1.0000   1.0000   1.0000   1.0000
     1.0000   1.0000   1.0000   1.0000   1.0000   1.0000   1.0000   1.0000
     1.0000   1.0000   1.0000   1.0000   1.0000   1.0000   1.0000   1.0000
     1.0000   1.0000   1.0000   1.0000   1.0000   1.0000   1.0000   1.0000
     1.0000   1.0000   1.0000   1.0000   1.0000   1.0000   1.0000   1.0000
     1.0000   1.0000   1.0000   1.0000   1.0000   1.0000   1.0000   1.0000
     1.0000   1.0000   1.0000   1.0000   1.0000   1.0000   1.0000   1.0000
     1.0000   1.0000   0.0000   0.0000   0.0000   0.0000   0.0000   0.0000
     0.0000   0.0000   0.0000   0.0000

          k = 0.0829 0.3657 0.0564 ( 19138 PWs)   bands (ev):

  -102.2845 -93.4782 -64.6944 -64.6357 -61.0012 -59.4175 -59.1966 -54.2021
   -54.0319 -53.9643 -29.0178 -28.9541 -28.9231 -28.8601 -28.8241 -28.7667
    -8.0797  -7.7198  -7.3219  -7.1413  -6.7767  -6.5242  -6.4010  -6.1113
     1.1304   2.1376   2.3906   2.4562   2.6532   2.8546   2.9391   3.5619
     3.7061   3.9338   4.6065   4.7714   4.8851   5.0674   5.3140   5.5324
     6.0174   6.2131   6.3810   6.6121   6.7080   7.4872   7.6093   7.8415
     8.0742   8.5115   8.6309   8.7368   8.8980   9.0549   9.1486   9.4588
     9.5293  10.0125  12.7696  12.8372  13.0511  13.3156  13.7831  14.5927
    15.7519  15.8751  18.0170  18.4703

     occupation numbers 
     1.0000   1.0000   1.0000   1.0000   1.0000   1.0000   1.0000   1.0000
     1.0000   1.0000   1.0000   1.0000   1.0000   1.0000   1.0000   1.0000
     1.0000   1.0000   1.0000   1.0000   1.0000   1.0000   1.0000   1.0000
     1.0000   1.0000   1.0000   1.0000   1.0000   1.0000   1.0000   1.0000
     1.0000   1.0000   1.0000   1.0000   1.0000   1.0000   1.0000   1.0000
     1.0000   1.0000   1.0000   1.0000   1.0000   1.0000   1.0000   1.0000
     1.0000   1.0000   1.0000   1.0000   1.0000   1.0000   1.0000   1.0000
     1.0000   1.0000   0.0000   0.0000   0.0000   0.0000   0.0000   0.0000
     0.0000   0.0000   0.0000   0.0000

          k = 0.0815 0.3657 0.1988 ( 19130 PWs)   bands (ev):

  -102.2846 -93.4783 -64.6943 -64.6358 -61.0012 -59.4175 -59.1966 -54.2021
   -54.0319 -53.9643 -29.0161 -28.9612 -28.9186 -28.8676 -28.8133 -28.7693
    -7.9911  -7.7427  -7.3563  -7.1251  -6.7397  -6.5611  -6.4424  -6.1352
     1.1050   2.1331   2.3896   2.4703   2.6080   2.8196   3.0065   3.6600
     3.7254   3.9021   4.4318   4.7982   4.9753   5.1315   5.3376   5.7499
     5.8592   6.0912   6.3663   6.6779   6.8814   7.3145   7.8472   7.9229
     8.0216   8.2070   8.4594   8.7062   8.9868   9.1027   9.1933   9.4194
     9.5720   9.9506  12.6064  12.7653  13.0612  13.3245  13.7943  14.5409
    15.9888  16.1697  18.0033  18.5521

     occupation numbers 
     1.0000   1.0000   1.0000   1.0000   1.0000   1.0000   1.0000   1.0000
     1.0000   1.0000   1.0000   1.0000   1.0000   1.0000   1.0000   1.0000
     1.0000   1.0000   1.0000   1.0000   1.0000   1.0000   1.0000   1.0000
     1.0000   1.0000   1.0000   1.0000   1.0000   1.0000   1.0000   1.0000
     1.0000   1.0000   1.0000   1.0000   1.0000   1.0000   1.0000   1.0000
     1.0000   1.0000   1.0000   1.0000   1.0000   1.0000   1.0000   1.0000
     1.0000   1.0000   1.0000   1.0000   1.0000   1.0000   1.0000   1.0000
     1.0000   1.0000   0.0000   0.0000   0.0000   0.0000   0.0000   0.0000
     0.0000   0.0000   0.0000   0.0000

          k = 0.0801 0.3657 0.3413 ( 19128 PWs)   bands (ev):

  -102.2846 -93.4783 -64.6942 -64.6358 -61.0012 -59.4175 -59.1966 -54.2021
   -54.0318 -53.9643 -29.0139 -28.9680 -28.9139 -28.8744 -28.8022 -28.7739
    -7.8809  -7.7510  -7.3874  -7.1081  -6.7535  -6.6892  -6.3545  -6.1882
     1.0870   2.1397   2.3859   2.4760   2.5426   2.8386   2.9899   3.7186
     3.7974   3.8940   4.3414   4.7592   4.9009   5.1430   5.4744   5.8013
     6.0753   6.2315   6.5215   6.6173   6.8952   7.3249   7.5640   7.6852
     7.8117   8.0335   8.4907   8.6213   9.0991   9.2648   9.3372   9.4332
     9.7163   9.8716  12.4329  12.5663  13.2295  13.3117  13.9006  14.4040
    16.1440  16.3429  18.0631  18.5578

     occupation numbers 
     1.0000   1.0000   1.0000   1.0000   1.0000   1.0000   1.0000   1.0000
     1.0000   1.0000   1.0000   1.0000   1.0000   1.0000   1.0000   1.0000
     1.0000   1.0000   1.0000   1.0000   1.0000   1.0000   1.0000   1.0000
     1.0000   1.0000   1.0000   1.0000   1.0000   1.0000   1.0000   1.0000
     1.0000   1.0000   1.0000   1.0000   1.0000   1.0000   1.0000   1.0000
     1.0000   1.0000   1.0000   1.0000   1.0000   1.0000   1.0000   1.0000
     1.0000   1.0000   1.0000   1.0000   1.0000   1.0000   1.0000   1.0000
     1.0000   1.0000   0.0000   0.0000   0.0000   0.0000   0.0000   0.0000
     0.0000   0.0000   0.0000   0.0000

          k = 0.0870 0.3657-0.3709 ( 19114 PWs)   bands (ev):

  -102.2846 -93.4783 -64.6941 -64.6357 -61.0012 -59.4175 -59.1966 -54.2021
   -54.0318 -53.9643 -29.0142 -28.9675 -28.9138 -28.8747 -28.8025 -28.7739
    -7.9206  -7.6657  -7.3700  -7.1624  -6.8364  -6.6389  -6.3013  -6.2190
     1.0927   2.1475   2.3843   2.4772   2.5306   2.8303   2.9494   3.7022
     3.7997   3.9183   4.3823   4.6437   4.8616   5.3798   5.6868   5.7708
     6.0538   6.1760   6.2585   6.6651   6.8931   7.2188   7.4725   7.7616
     7.9273   8.0606   8.4617   8.6112   9.1449   9.1815   9.3959   9.5491
     9.6249   9.8883  12.4497  12.5676  13.2261  13.3485  14.0985  14.2482
    16.0455  16.2214  18.0751  18.5126

     occupation numbers 
     1.0000   1.0000   1.0000   1.0000   1.0000   1.0000   1.0000   1.0000
     1.0000   1.0000   1.0000   1.0000   1.0000   1.0000   1.0000   1.0000
     1.0000   1.0000   1.0000   1.0000   1.0000   1.0000   1.0000   1.0000
     1.0000   1.0000   1.0000   1.0000   1.0000   1.0000   1.0000   1.0000
     1.0000   1.0000   1.0000   1.0000   1.0000   1.0000   1.0000   1.0000
     1.0000   1.0000   1.0000   1.0000   1.0000   1.0000   1.0000   1.0000
     1.0000   1.0000   1.0000   1.0000   1.0000   1.0000   1.0000   1.0000
     1.0000   1.0000   0.0000   0.0000   0.0000   0.0000   0.0000   0.0000
     0.0000   0.0000   0.0000   0.0000

          k = 0.0856 0.3657-0.2285 ( 19110 PWs)   bands (ev):

  -102.2846 -93.4783 -64.6942 -64.6357 -61.0012 -59.4175 -59.1966 -54.2021
   -54.0318 -53.9643 -29.0166 -28.9601 -28.9185 -28.8680 -28.8137 -28.7694
    -8.0163  -7.6345  -7.3439  -7.2085  -6.8182  -6.5573  -6.3527  -6.1655
     1.1167   2.1515   2.3842   2.4622   2.5828   2.7941   2.9544   3.6214
     3.7579   3.9408   4.5017   4.6294   5.0024   5.2770   5.5251   5.6020
     6.0316   6.2388   6.2900   6.5464   6.8217   7.0588   7.5209   8.0849
     8.1637   8.2548   8.5483   8.7305   9.0155   9.1136   9.2100   9.3770
     9.5055  10.0520  12.5873  12.7484  13.1870  13.3495  14.0664  14.3514
    15.8019  15.9165  18.1285  18.3582

     occupation numbers 
     1.0000   1.0000   1.0000   1.0000   1.0000   1.0000   1.0000   1.0000
     1.0000   1.0000   1.0000   1.0000   1.0000   1.0000   1.0000   1.0000
     1.0000   1.0000   1.0000   1.0000   1.0000   1.0000   1.0000   1.0000
     1.0000   1.0000   1.0000   1.0000   1.0000   1.0000   1.0000   1.0000
     1.0000   1.0000   1.0000   1.0000   1.0000   1.0000   1.0000   1.0000
     1.0000   1.0000   1.0000   1.0000   1.0000   1.0000   1.0000   1.0000
     1.0000   1.0000   1.0000   1.0000   1.0000   1.0000   1.0000   1.0000
     1.0000   1.0000   0.0000   0.0000   0.0000   0.0000   0.0000   0.0000
     0.0000   0.0000   0.0000   0.0000

          k = 0.0843 0.3657-0.0860 ( 19143 PWs)   bands (ev):

  -102.2845 -93.4782 -64.6943 -64.6356 -61.0012 -59.4175 -59.1966 -54.2021
   -54.0319 -53.9643 -29.0180 -28.9534 -28.9232 -28.8603 -28.8243 -28.7668
    -8.0844  -7.6789  -7.3270  -7.1713  -6.7938  -6.5336  -6.3639  -6.1247
     1.1365   2.1486   2.3859   2.4505   2.6416   2.8064   2.9582   3.5446
     3.7234   3.9498   4.6295   4.7645   4.8648   5.0785   5.3156   5.5036
     6.1595   6.3054   6.4299   6.5638   6.6765   7.0684   7.6945   7.9098
     8.2012   8.4175   8.6079   8.7958   8.8763   9.0531   9.2336   9.4212
     9.4986  10.0785  12.6741  12.8646  13.1866  13.3130  13.8845  14.5285
    15.6890  15.7192  18.1454  18.2917

     occupation numbers 
     1.0000   1.0000   1.0000   1.0000   1.0000   1.0000   1.0000   1.0000
     1.0000   1.0000   1.0000   1.0000   1.0000   1.0000   1.0000   1.0000
     1.0000   1.0000   1.0000   1.0000   1.0000   1.0000   1.0000   1.0000
     1.0000   1.0000   1.0000   1.0000   1.0000   1.0000   1.0000   1.0000
     1.0000   1.0000   1.0000   1.0000   1.0000   1.0000   1.0000   1.0000
     1.0000   1.0000   1.0000   1.0000   1.0000   1.0000   1.0000   1.0000
     1.0000   1.0000   1.0000   1.0000   1.0000   1.0000   1.0000   1.0000
     1.0000   1.0000   0.0000   0.0000   0.0000   0.0000   0.0000   0.0000
     0.0000   0.0000   0.0000   0.0000

          k = 0.0825-0.3703 0.0738 ( 19135 PWs)   bands (ev):

  -102.2846 -93.4782 -64.6943 -64.6357 -61.0012 -59.4175 -59.1966 -54.2021
   -54.0319 -53.9643 -29.0181 -28.9535 -28.9230 -28.8604 -28.8242 -28.7668
    -8.0459  -7.7361  -7.3317  -7.1319  -6.7952  -6.5681  -6.3625  -6.1123
     1.1691   2.1720   2.3747   2.4645   2.5947   2.8536   2.9611   3.5596
     3.7026   3.9347   4.5839   4.7369   4.9372   5.1154   5.2473   5.5373
     5.9752   6.2019   6.3723   6.6538   6.7111   7.4499   7.6419   7.8684
     8.1157   8.4584   8.6306   8.7392   8.9146   9.0163   9.1677   9.4671
     9.5096  10.0228  12.7647  12.8282  13.0742  13.3323  13.7832  14.5910
    15.7733  15.8574  18.0189  18.4652

     occupation numbers 
     1.0000   1.0000   1.0000   1.0000   1.0000   1.0000   1.0000   1.0000
     1.0000   1.0000   1.0000   1.0000   1.0000   1.0000   1.0000   1.0000
     1.0000   1.0000   1.0000   1.0000   1.0000   1.0000   1.0000   1.0000
     1.0000   1.0000   1.0000   1.0000   1.0000   1.0000   1.0000   1.0000
     1.0000   1.0000   1.0000   1.0000   1.0000   1.0000   1.0000   1.0000
     1.0000   1.0000   1.0000   1.0000   1.0000   1.0000   1.0000   1.0000
     1.0000   1.0000   1.0000   1.0000   1.0000   1.0000   1.0000   1.0000
     1.0000   1.0000   0.0000   0.0000   0.0000   0.0000   0.0000   0.0000
     0.0000   0.0000   0.0000   0.0000

          k = 0.0812-0.3704 0.2163 ( 19117 PWs)   bands (ev):

  -102.2846 -93.4783 -64.6942 -64.6358 -61.0012 -59.4175 -59.1966 -54.2021
   -54.0319 -53.9643 -29.0166 -28.9601 -28.9184 -28.8680 -28.8137 -28.7694
    -7.9925  -7.6701  -7.3840  -7.1638  -6.8141  -6.4905  -6.4472  -6.1396
     1.1430   2.1772   2.3701   2.4675   2.5699   2.8098   3.0083   3.6494
     3.7474   3.9080   4.4195   4.7442   5.0441   5.1559   5.3360   5.6847
     5.8445   6.0928   6.3488   6.6688   6.9638   7.2519   7.8254   7.9218
     8.0489   8.2491   8.4364   8.7514   8.9457   9.0754   9.2276   9.3993
     9.5658   9.9626  12.5431  12.7782  13.1188  13.3445  13.8093  14.5339
    16.0033  16.1613  18.0112  18.6136

     occupation numbers 
     1.0000   1.0000   1.0000   1.0000   1.0000   1.0000   1.0000   1.0000
     1.0000   1.0000   1.0000   1.0000   1.0000   1.0000   1.0000   1.0000
     1.0000   1.0000   1.0000   1.0000   1.0000   1.0000   1.0000   1.0000
     1.0000   1.0000   1.0000   1.0000   1.0000   1.0000   1.0000   1.0000
     1.0000   1.0000   1.0000   1.0000   1.0000   1.0000   1.0000   1.0000
     1.0000   1.0000   1.0000   1.0000   1.0000   1.0000   1.0000   1.0000
     1.0000   1.0000   1.0000   1.0000   1.0000   1.0000   1.0000   1.0000
     1.0000   1.0000   0.0000   0.0000   0.0000   0.0000   0.0000   0.0000
     0.0000   0.0000   0.0000   0.0000

          k = 0.0798-0.3704 0.3587 ( 19109 PWs)   bands (ev):

  -102.2846 -93.4783 -64.6941 -64.6358 -61.0012 -59.4175 -59.1966 -54.2021
   -54.0318 -53.9643 -29.0143 -28.9674 -28.9139 -28.8745 -28.8025 -28.7739
    -7.9072  -7.6468  -7.3930  -7.1804  -6.8685  -6.5631  -6.3740  -6.1879
     1.1199   2.1843   2.3738   2.4791   2.5223   2.8094   2.9975   3.7042
     3.8329   3.8772   4.3344   4.7037   4.9194   5.1655   5.4433   5.8184
     6.0884   6.2474   6.4857   6.6199   6.9136   7.2564   7.5035   7.7706
     7.8097   8.0794   8.4414   8.6864   9.0530   9.2976   9.3171   9.4779
     9.6766   9.8778  12.3698  12.6092  13.2444  13.3300  13.9115  14.3969
    16.1614  16.3265  18.0655  18.6171

     occupation numbers 
     1.0000   1.0000   1.0000   1.0000   1.0000   1.0000   1.0000   1.0000
     1.0000   1.0000   1.0000   1.0000   1.0000   1.0000   1.0000   1.0000
     1.0000   1.0000   1.0000   1.0000   1.0000   1.0000   1.0000   1.0000
     1.0000   1.0000   1.0000   1.0000   1.0000   1.0000   1.0000   1.0000
     1.0000   1.0000   1.0000   1.0000   1.0000   1.0000   1.0000   1.0000
     1.0000   1.0000   1.0000   1.0000   1.0000   1.0000   1.0000   1.0000
     1.0000   1.0000   1.0000   1.0000   1.0000   1.0000   1.0000   1.0000
     1.0000   1.0000   0.0000   0.0000   0.0000   0.0000   0.0000   0.0000
     0.0000   0.0000   0.0000   0.0000

          k = 0.0867-0.3703-0.3535 ( 19100 PWs)   bands (ev):

  -102.2846 -93.4783 -64.6941 -64.6357 -61.0012 -59.4175 -59.1966 -54.2021
   -54.0318 -53.9643 -29.0141 -28.9680 -28.9141 -28.8743 -28.8022 -28.7739
    -7.8649  -7.7187  -7.3432  -7.1693  -6.8809  -6.6198  -6.3196  -6.2059
     1.1206   2.1864   2.3839   2.4792   2.5255   2.7980   2.9773   3.6809
     3.8008   3.8940   4.3807   4.6561   4.7933   5.3818   5.6219   5.8396
     6.0980   6.1890   6.2074   6.6193   6.9718   7.2405   7.5231   7.7754
     7.8601   8.0072   8.4323   8.6928   9.0908   9.1988   9.3966   9.5941
     9.6258   9.8781  12.4454  12.5934  13.2031  13.3420  14.0805  14.2610
    16.0512  16.2129  18.0683  18.5087

     occupation numbers 
     1.0000   1.0000   1.0000   1.0000   1.0000   1.0000   1.0000   1.0000
     1.0000   1.0000   1.0000   1.0000   1.0000   1.0000   1.0000   1.0000
     1.0000   1.0000   1.0000   1.0000   1.0000   1.0000   1.0000   1.0000
     1.0000   1.0000   1.0000   1.0000   1.0000   1.0000   1.0000   1.0000
     1.0000   1.0000   1.0000   1.0000   1.0000   1.0000   1.0000   1.0000
     1.0000   1.0000   1.0000   1.0000   1.0000   1.0000   1.0000   1.0000
     1.0000   1.0000   1.0000   1.0000   1.0000   1.0000   1.0000   1.0000
     1.0000   1.0000   0.0000   0.0000   0.0000   0.0000   0.0000   0.0000
     0.0000   0.0000   0.0000   0.0000

          k = 0.0853-0.3703-0.2110 ( 19106 PWs)   bands (ev):

  -102.2846 -93.4783 -64.6942 -64.6356 -61.0012 -59.4175 -59.1966 -54.2021
   -54.0318 -53.9643 -29.0163 -28.9612 -28.9188 -28.8675 -28.8133 -28.7693
    -7.9332  -7.7627  -7.3311  -7.1314  -6.8366  -6.6038  -6.3490  -6.1571
     1.1445   2.1779   2.3898   2.4804   2.5816   2.7486   2.9922   3.5970
     3.7443   3.9205   4.4890   4.6280   4.9880   5.2064   5.5348   5.6446
     6.0224   6.2086   6.3190   6.5583   6.7841   7.1379   7.5764   8.0623
     8.1127   8.2471   8.5774   8.7378   9.0049   9.0897   9.2346   9.3569
     9.5462  10.0480  12.6209  12.7896  13.1138  13.3350  14.0342  14.3711
    15.7801  15.9328  18.1137  18.3348

     occupation numbers 
     1.0000   1.0000   1.0000   1.0000   1.0000   1.0000   1.0000   1.0000
     1.0000   1.0000   1.0000   1.0000   1.0000   1.0000   1.0000   1.0000
     1.0000   1.0000   1.0000   1.0000   1.0000   1.0000   1.0000   1.0000
     1.0000   1.0000   1.0000   1.0000   1.0000   1.0000   1.0000   1.0000
     1.0000   1.0000   1.0000   1.0000   1.0000   1.0000   1.0000   1.0000
     1.0000   1.0000   1.0000   1.0000   1.0000   1.0000   1.0000   1.0000
     1.0000   1.0000   1.0000   1.0000   1.0000   1.0000   1.0000   1.0000
     1.0000   1.0000   0.0000   0.0000   0.0000   0.0000   0.0000   0.0000
     0.0000   0.0000   0.0000   0.0000

          k = 0.0839-0.3703-0.0686 ( 19116 PWs)   bands (ev):

  -102.2846 -93.4782 -64.6943 -64.6356 -61.0012 -59.4175 -59.1966 -54.2021
   -54.0319 -53.9643 -29.0180 -28.9540 -28.9232 -28.8600 -28.8241 -28.7667
    -8.0234  -7.7675  -7.3179  -7.1159  -6.8049  -6.5906  -6.3456  -6.1196
     1.1699   2.1706   2.3842   2.4784   2.6028   2.7823   2.9885   3.5359
     3.7096   3.9397   4.6279   4.7197   4.8640   5.0890   5.3167   5.5157
     6.1271   6.2824   6.4270   6.5707   6.7011   7.0757   7.7087   7.9456
     8.1778   8.4870   8.5656   8.8104   8.8481   9.1197   9.1525   9.4128
     9.5228  10.0759  12.7003  12.9239  13.0815  13.3421  13.8633  14.5344
    15.6582  15.7463  18.1426  18.2582

     occupation numbers 
     1.0000   1.0000   1.0000   1.0000   1.0000   1.0000   1.0000   1.0000
     1.0000   1.0000   1.0000   1.0000   1.0000   1.0000   1.0000   1.0000
     1.0000   1.0000   1.0000   1.0000   1.0000   1.0000   1.0000   1.0000
     1.0000   1.0000   1.0000   1.0000   1.0000   1.0000   1.0000   1.0000
     1.0000   1.0000   1.0000   1.0000   1.0000   1.0000   1.0000   1.0000
     1.0000   1.0000   1.0000   1.0000   1.0000   1.0000   1.0000   1.0000
     1.0000   1.0000   1.0000   1.0000   1.0000   1.0000   1.0000   1.0000
     1.0000   1.0000   0.0000   0.0000   0.0000   0.0000   0.0000   0.0000
     0.0000   0.0000   0.0000   0.0000

          k = 0.0826-0.2231 0.0703 ( 19121 PWs)   bands (ev):

  -102.2846 -93.4782 -64.6944 -64.6357 -61.0012 -59.4175 -59.1966 -54.2021
   -54.0319 -53.9643 -29.0183 -28.9536 -28.9234 -28.8593 -28.8239 -28.7664
    -8.3299  -7.5534  -7.2964  -7.0936  -6.7869  -6.5158  -6.2973  -6.1231
     1.1170   2.1504   2.3222   2.4364   2.5075   2.8009   2.8917   3.3954
     3.7359   3.8412   4.4991   4.7077   5.0329   5.1432   5.3530   5.7610
     6.0403   6.2202   6.4181   6.7817   6.9921   7.2452   7.5646   7.8033
     8.1646   8.3458   8.4638   8.7568   8.8809   9.0375   9.2222   9.6154
     9.8530   9.9778  12.6839  12.8203  13.1895  13.3773  13.8119  14.4523
    15.7389  15.7859  17.8796  18.4098

     occupation numbers 
     1.0000   1.0000   1.0000   1.0000   1.0000   1.0000   1.0000   1.0000
     1.0000   1.0000   1.0000   1.0000   1.0000   1.0000   1.0000   1.0000
     1.0000   1.0000   1.0000   1.0000   1.0000   1.0000   1.0000   1.0000
     1.0000   1.0000   1.0000   1.0000   1.0000   1.0000   1.0000   1.0000
     1.0000   1.0000   1.0000   1.0000   1.0000   1.0000   1.0000   1.0000
     1.0000   1.0000   1.0000   1.0000   1.0000   1.0000   1.0000   1.0000
     1.0000   1.0000   1.0000   1.0000   1.0000   1.0000   1.0000   1.0000
     1.0000   1.0000   0.0000   0.0000   0.0000   0.0000   0.0000   0.0000
     0.0000   0.0000   0.0000   0.0000

          k = 0.0812-0.2231 0.2128 ( 19126 PWs)   bands (ev):

  -102.2846 -93.4782 -64.6943 -64.6358 -61.0012 -59.4175 -59.1966 -54.2021
   -54.0319 -53.9643 -29.0165 -28.9590 -28.9186 -28.8675 -28.8140 -28.7696
    -8.2340  -7.5533  -7.3473  -7.1562  -6.7852  -6.5022  -6.2835  -6.1505
     1.1006   2.1672   2.3077   2.4367   2.5031   2.7581   2.8689   3.4999
     3.7237   3.8645   4.4685   4.6745   5.0424   5.2534   5.4380   5.8037
     5.9154   6.1887   6.5959   6.6948   6.9780   7.3966   7.6555   7.6989
     7.8804   8.3152   8.4057   8.7427   8.7839   9.0897   9.3181   9.6452
     9.8344   9.9865  12.5244  12.8306  13.1765  13.3362  13.8545  14.4034
    15.9851  16.1115  17.8833  18.4822

     occupation numbers 
     1.0000   1.0000   1.0000   1.0000   1.0000   1.0000   1.0000   1.0000
     1.0000   1.0000   1.0000   1.0000   1.0000   1.0000   1.0000   1.0000
     1.0000   1.0000   1.0000   1.0000   1.0000   1.0000   1.0000   1.0000
     1.0000   1.0000   1.0000   1.0000   1.0000   1.0000   1.0000   1.0000
     1.0000   1.0000   1.0000   1.0000   1.0000   1.0000   1.0000   1.0000
     1.0000   1.0000   1.0000   1.0000   1.0000   1.0000   1.0000   1.0000
     1.0000   1.0000   1.0000   1.0000   1.0000   1.0000   1.0000   1.0000
     1.0000   1.0000   0.0000   0.0000   0.0000   0.0000   0.0000   0.0000
     0.0000   0.0000   0.0000   0.0000

          k = 0.0798-0.2232 0.3552 ( 19099 PWs)   bands (ev):

  -102.2846 -93.4783 -64.6942 -64.6358 -61.0012 -59.4175 -59.1966 -54.2021
   -54.0319 -53.9643 -29.0137 -28.9657 -28.9138 -28.8745 -28.8034 -28.7744
    -8.0592  -7.6845  -7.3650  -7.2086  -6.7787  -6.4701  -6.2772  -6.1842
     1.0846   2.1659   2.3066   2.4347   2.4979   2.7198   2.8686   3.5651
     3.7543   3.8559   4.3857   4.6228   5.1266   5.3669   5.5164   5.8418
     5.9166   6.2393   6.4985   6.7418   7.0184   7.3218   7.5248   7.7308
     7.8866   8.0414   8.2828   8.5529   9.1064   9.2348   9.3993   9.6977
     9.8833   9.9519  12.4089  12.6424  13.2045  13.3383  13.9564  14.3029
    16.1120  16.2753  18.2465  18.4374

     occupation numbers 
     1.0000   1.0000   1.0000   1.0000   1.0000   1.0000   1.0000   1.0000
     1.0000   1.0000   1.0000   1.0000   1.0000   1.0000   1.0000   1.0000
     1.0000   1.0000   1.0000   1.0000   1.0000   1.0000   1.0000   1.0000
     1.0000   1.0000   1.0000   1.0000   1.0000   1.0000   1.0000   1.0000
     1.0000   1.0000   1.0000   1.0000   1.0000   1.0000   1.0000   1.0000
     1.0000   1.0000   1.0000   1.0000   1.0000   1.0000   1.0000   1.0000
     1.0000   1.0000   1.0000   1.0000   1.0000   1.0000   1.0000   1.0000
     1.0000   1.0000   0.0000   0.0000   0.0000   0.0000   0.0000   0.0000
     0.0000   0.0000   0.0000   0.0000

          k = 0.0867-0.2231-0.3570 ( 19128 PWs)   bands (ev):

  -102.2846 -93.4783 -64.6942 -64.6357 -61.0012 -59.4175 -59.1966 -54.2021
   -54.0318 -53.9643 -29.0132 -28.9670 -28.9141 -28.8740 -28.8029 -28.7744
    -7.9628  -7.8210  -7.3473  -7.2094  -6.7228  -6.4887  -6.2933  -6.1824
     1.0841   2.1522   2.3248   2.4374   2.5140   2.6896   2.8948   3.5287
     3.7518   3.8431   4.3837   4.6683   5.0534   5.4879   5.5406   5.7047
     5.9892   6.1919   6.3084   6.7850   7.1684   7.3299   7.5905   7.7685
     7.9321   8.0201   8.2222   8.3942   9.1637   9.3437   9.5419   9.5955
     9.8577   9.9479  12.4909  12.6151  13.1947  13.2908  14.0273  14.2565
    15.9864  16.1330  18.1028  18.7002

     occupation numbers 
     1.0000   1.0000   1.0000   1.0000   1.0000   1.0000   1.0000   1.0000
     1.0000   1.0000   1.0000   1.0000   1.0000   1.0000   1.0000   1.0000
     1.0000   1.0000   1.0000   1.0000   1.0000   1.0000   1.0000   1.0000
     1.0000   1.0000   1.0000   1.0000   1.0000   1.0000   1.0000   1.0000
     1.0000   1.0000   1.0000   1.0000   1.0000   1.0000   1.0000   1.0000
     1.0000   1.0000   1.0000   1.0000   1.0000   1.0000   1.0000   1.0000
     1.0000   1.0000   1.0000   1.0000   1.0000   1.0000   1.0000   1.0000
     1.0000   1.0000   0.0000   0.0000   0.0000   0.0000   0.0000   0.0000
     0.0000   0.0000   0.0000   0.0000

          k = 0.0854-0.2231-0.2145 ( 19100 PWs)   bands (ev):

  -102.2846 -93.4782 -64.6943 -64.6357 -61.0012 -59.4175 -59.1966 -54.2021
   -54.0318 -53.9643 -29.0158 -28.9613 -28.9191 -28.8665 -28.8133 -28.7694
    -8.1645  -7.6992  -7.3124  -7.1630  -6.6809  -6.5055  -6.3336  -6.1537
     1.0993   2.1387   2.3457   2.4640   2.5206   2.6892   2.9230   3.4420
     3.7104   3.8383   4.4894   4.8288   4.9431   5.1264   5.4431   5.7043
     6.0121   6.2275   6.5451   6.7949   6.8940   7.4225   7.6534   7.6885
     8.0259   8.2256   8.3279   8.6624   9.0430   9.1525   9.3368   9.6585
     9.8405   9.9635  12.6349  12.7867  13.2033  13.2431  13.9601  14.3570
    15.6968  15.8611  17.8953  18.6349

     occupation numbers 
     1.0000   1.0000   1.0000   1.0000   1.0000   1.0000   1.0000   1.0000
     1.0000   1.0000   1.0000   1.0000   1.0000   1.0000   1.0000   1.0000
     1.0000   1.0000   1.0000   1.0000   1.0000   1.0000   1.0000   1.0000
     1.0000   1.0000   1.0000   1.0000   1.0000   1.0000   1.0000   1.0000
     1.0000   1.0000   1.0000   1.0000   1.0000   1.0000   1.0000   1.0000
     1.0000   1.0000   1.0000   1.0000   1.0000   1.0000   1.0000   1.0000
     1.0000   1.0000   1.0000   1.0000   1.0000   1.0000   1.0000   1.0000
     1.0000   1.0000   0.0000   0.0000   0.0000   0.0000   0.0000   0.0000
     0.0000   0.0000   0.0000   0.0000

          k = 0.0840-0.2231-0.0721 ( 19118 PWs)   bands (ev):

  -102.2846 -93.4782 -64.6944 -64.6357 -61.0012 -59.4175 -59.1966 -54.2021
   -54.0318 -53.9643 -29.0181 -28.9548 -28.9235 -28.8587 -28.8237 -28.7663
    -8.3064  -7.6083  -7.2836  -7.1040  -6.7390  -6.5015  -6.3257  -6.1281
     1.1161   2.1354   2.3424   2.4630   2.5062   2.7477   2.9370   3.3709
     3.7213   3.8288   4.5428   4.7776   4.9172   5.1161   5.3337   5.6945
     6.0713   6.3972   6.5992   6.6457   6.7568   7.1797   7.7868   7.9294
     8.0305   8.2640   8.4772   8.7095   8.9630   9.0263   9.3218   9.6299
     9.8713   9.9466  12.7425  12.7762  13.1448  13.4159  13.8576  14.4352
    15.5494  15.7096  17.9100  18.4406

     occupation numbers 
     1.0000   1.0000   1.0000   1.0000   1.0000   1.0000   1.0000   1.0000
     1.0000   1.0000   1.0000   1.0000   1.0000   1.0000   1.0000   1.0000
     1.0000   1.0000   1.0000   1.0000   1.0000   1.0000   1.0000   1.0000
     1.0000   1.0000   1.0000   1.0000   1.0000   1.0000   1.0000   1.0000
     1.0000   1.0000   1.0000   1.0000   1.0000   1.0000   1.0000   1.0000
     1.0000   1.0000   1.0000   1.0000   1.0000   1.0000   1.0000   1.0000
     1.0000   1.0000   1.0000   1.0000   1.0000   1.0000   1.0000   1.0000
     1.0000   1.0000   0.0000   0.0000   0.0000   0.0000   0.0000   0.0000
     0.0000   0.0000   0.0000   0.0000

          k = 0.0827-0.0759 0.0668 ( 19108 PWs)   bands (ev):

  -102.2846 -93.4782 -64.6946 -64.6358 -61.0012 -59.4175 -59.1966 -54.2021
   -54.0318 -53.9643 -29.0183 -28.9543 -28.9237 -28.8580 -28.8235 -28.7660
    -8.4990  -7.5478  -7.2609  -7.0594  -6.6429  -6.5000  -6.2568  -6.1324
     1.0268   2.1085   2.2784   2.4043   2.4541   2.7505   2.8354   3.2498
     3.7143   3.7665   4.3734   4.6542   5.1426   5.3601   5.6574   5.8540
     5.9127   6.3340   6.3983   7.0250   7.1375   7.3810   7.6031   7.7679
     7.9056   7.9989   8.3479   8.4561   8.7771   9.3047   9.5040   9.7058
    10.0149  10.1244  12.6767  12.8618  13.1306  13.5016  13.8050  14.3183
    15.5700  15.7841  17.5278  18.8142

     occupation numbers 
     1.0000   1.0000   1.0000   1.0000   1.0000   1.0000   1.0000   1.0000
     1.0000   1.0000   1.0000   1.0000   1.0000   1.0000   1.0000   1.0000
     1.0000   1.0000   1.0000   1.0000   1.0000   1.0000   1.0000   1.0000
     1.0000   1.0000   1.0000   1.0000   1.0000   1.0000   1.0000   1.0000
     1.0000   1.0000   1.0000   1.0000   1.0000   1.0000   1.0000   1.0000
     1.0000   1.0000   1.0000   1.0000   1.0000   1.0000   1.0000   1.0000
     1.0000   1.0000   1.0000   1.0000   1.0000   1.0000   1.0000   1.0000
     1.0000   1.0000   0.0000   0.0000   0.0000   0.0000   0.0000   0.0000
     0.0000   0.0000   0.0000   0.0000

          k = 0.0813-0.0759 0.2093 ( 19108 PWs)   bands (ev):

  -102.2846 -93.4782 -64.6945 -64.6358 -61.0012 -59.4175 -59.1966 -54.2021
   -54.0319 -53.9643 -29.0158 -28.9590 -28.9190 -28.8666 -28.8139 -28.7696
    -8.3865  -7.5998  -7.2970  -7.1221  -6.6630  -6.5014  -6.1952  -6.1477
     1.0201   2.1184   2.2643   2.4106   2.4629   2.6995   2.7685   3.3477
     3.7187   3.7870   4.3982   4.6549   5.1304   5.3852   5.6404   5.7838
     6.1489   6.3733   6.6158   6.8363   7.1280   7.2433   7.4299   7.6724
     7.8877   8.1322   8.3484   8.4747   8.5753   9.3010   9.6573   9.8358
     9.9836  10.0686  12.5695  12.8481  13.2241  13.2960  13.8835  14.2650
    15.9466  16.0533  17.4208  18.9934

     occupation numbers 
     1.0000   1.0000   1.0000   1.0000   1.0000   1.0000   1.0000   1.0000
     1.0000   1.0000   1.0000   1.0000   1.0000   1.0000   1.0000   1.0000
     1.0000   1.0000   1.0000   1.0000   1.0000   1.0000   1.0000   1.0000
     1.0000   1.0000   1.0000   1.0000   1.0000   1.0000   1.0000   1.0000
     1.0000   1.0000   1.0000   1.0000   1.0000   1.0000   1.0000   1.0000
     1.0000   1.0000   1.0000   1.0000   1.0000   1.0000   1.0000   1.0000
     1.0000   1.0000   1.0000   1.0000   1.0000   1.0000   1.0000   1.0000
     1.0000   1.0000   0.0000   0.0000   0.0000   0.0000   0.0000   0.0000
     0.0000   0.0000   0.0000   0.0000

          k = 0.0799-0.0759 0.3517 ( 19103 PWs)   bands (ev):

  -102.2846 -93.4782 -64.6943 -64.6358 -61.0012 -59.4175 -59.1966 -54.2021
   -54.0319 -53.9643 -29.0127 -28.9647 -28.9138 -28.8743 -28.8041 -28.7748
    -8.1762  -7.7773  -7.3313  -7.1907  -6.6615  -6.4768  -6.1663  -6.1433
     1.0161   2.0963   2.2555   2.3954   2.4721   2.6726   2.7415   3.4254
     3.7016   3.8185   4.3750   4.6696   5.2096   5.5621   5.6969   5.8441
     6.0558   6.2563   6.6115   6.8229   6.9064   7.1790   7.3307   7.5804
     7.9797   8.1324   8.2202   8.4835   9.0474   9.3407   9.6424   9.8267
     9.9783  10.0906  12.4845  12.6356  13.1458  13.3327  14.0320  14.1822
    16.0389  16.2236  17.9222  18.8327

     occupation numbers 
     1.0000   1.0000   1.0000   1.0000   1.0000   1.0000   1.0000   1.0000
     1.0000   1.0000   1.0000   1.0000   1.0000   1.0000   1.0000   1.0000
     1.0000   1.0000   1.0000   1.0000   1.0000   1.0000   1.0000   1.0000
     1.0000   1.0000   1.0000   1.0000   1.0000   1.0000   1.0000   1.0000
     1.0000   1.0000   1.0000   1.0000   1.0000   1.0000   1.0000   1.0000
     1.0000   1.0000   1.0000   1.0000   1.0000   1.0000   1.0000   1.0000
     1.0000   1.0000   1.0000   1.0000   1.0000   1.0000   1.0000   1.0000
     1.0000   1.0000   0.0000   0.0000   0.0000   0.0000   0.0000   0.0000
     0.0000   0.0000   0.0000   0.0000

          k = 0.0868-0.0759-0.3605 ( 19123 PWs)   bands (ev):

  -102.2846 -93.4782 -64.6943 -64.6357 -61.0012 -59.4175 -59.1966 -54.2021
   -54.0319 -53.9643 -29.0125 -28.9654 -28.9139 -28.8741 -28.8038 -28.7748
    -8.0832  -7.8920  -7.3294  -7.2074  -6.6079  -6.4767  -6.1860  -6.1397
     1.0197   2.0737   2.2728   2.3951   2.4671   2.6770   2.7598   3.3962
     3.7034   3.8060   4.3811   4.6928   5.4035   5.4849   5.6881   5.7675
     5.9277   6.1698   6.4634   6.6468   7.0977   7.3335   7.5530   7.7704
     7.9049   7.9645   8.1235   8.4996   9.3766   9.4743   9.5336   9.6097
     9.9921  10.0903  12.4934  12.6530  13.1161  13.3192  13.9921  14.2499
    15.8959  16.0578  18.0737  18.8706

     occupation numbers 
     1.0000   1.0000   1.0000   1.0000   1.0000   1.0000   1.0000   1.0000
     1.0000   1.0000   1.0000   1.0000   1.0000   1.0000   1.0000   1.0000
     1.0000   1.0000   1.0000   1.0000   1.0000   1.0000   1.0000   1.0000
     1.0000   1.0000   1.0000   1.0000   1.0000   1.0000   1.0000   1.0000
     1.0000   1.0000   1.0000   1.0000   1.0000   1.0000   1.0000   1.0000
     1.0000   1.0000   1.0000   1.0000   1.0000   1.0000   1.0000   1.0000
     1.0000   1.0000   1.0000   1.0000   1.0000   1.0000   1.0000   1.0000
     1.0000   1.0000   0.0000   0.0000   0.0000   0.0000   0.0000   0.0000
     0.0000   0.0000   0.0000   0.0000

          k = 0.0854-0.0759-0.2180 ( 19117 PWs)   bands (ev):

  -102.2846 -93.4782 -64.6944 -64.6357 -61.0012 -59.4175 -59.1966 -54.2021
   -54.0318 -53.9643 -29.0156 -28.9603 -28.9192 -28.8661 -28.8136 -28.7695
    -8.3203  -7.7041  -7.2944  -7.1672  -6.5753  -6.4437  -6.2486  -6.1569
     1.0269   2.0770   2.3040   2.4115   2.4630   2.7033   2.7957   3.2959
     3.6954   3.7661   4.4447   4.7823   5.0977   5.3428   5.6159   5.6872
     5.9551   6.2739   6.6612   6.9632   7.0631   7.2012   7.5670   7.7085
     7.8477   8.0494   8.3954   8.6151   9.0691   9.4007   9.4599   9.6487
     9.9955  10.0911  12.5857  12.8473  13.1013  13.3749  13.8704  14.3455
    15.6291  15.7720  17.6397  19.0378

     occupation numbers 
     1.0000   1.0000   1.0000   1.0000   1.0000   1.0000   1.0000   1.0000
     1.0000   1.0000   1.0000   1.0000   1.0000   1.0000   1.0000   1.0000
     1.0000   1.0000   1.0000   1.0000   1.0000   1.0000   1.0000   1.0000
     1.0000   1.0000   1.0000   1.0000   1.0000   1.0000   1.0000   1.0000
     1.0000   1.0000   1.0000   1.0000   1.0000   1.0000   1.0000   1.0000
     1.0000   1.0000   1.0000   1.0000   1.0000   1.0000   1.0000   1.0000
     1.0000   1.0000   1.0000   1.0000   1.0000   1.0000   1.0000   1.0000
     1.0000   1.0000   0.0000   0.0000   0.0000   0.0000   0.0000   0.0000
     0.0000   0.0000   0.0000   0.0000

          k = 0.0841-0.0759-0.0756 ( 19121 PWs)   bands (ev):

  -102.2846 -93.4782 -64.6945 -64.6357 -61.0012 -59.4175 -59.1966 -54.2021
   -54.0318 -53.9643 -29.0182 -28.9549 -28.9238 -28.8576 -28.8235 -28.7659
    -8.4763  -7.5857  -7.2617  -7.0916  -6.5978  -6.4526  -6.2844  -6.1479
     1.0300   2.0896   2.3018   2.4010   2.4660   2.7317   2.8623   3.2222
     3.7019   3.7459   4.4073   4.7623   5.0465   5.2891   5.5996   5.7323
     6.0473   6.4087   6.5488   6.7946   7.0547   7.3423   7.5241   7.7938
     8.0045   8.1055   8.4133   8.5504   8.9149   9.3057   9.4475   9.6194
    10.0238  10.1314  12.6867  12.8464  13.0617  13.5666  13.8087  14.3547
    15.4116  15.6627  17.6108  18.8195

     occupation numbers 
     1.0000   1.0000   1.0000   1.0000   1.0000   1.0000   1.0000   1.0000
     1.0000   1.0000   1.0000   1.0000   1.0000   1.0000   1.0000   1.0000
     1.0000   1.0000   1.0000   1.0000   1.0000   1.0000   1.0000   1.0000
     1.0000   1.0000   1.0000   1.0000   1.0000   1.0000   1.0000   1.0000
     1.0000   1.0000   1.0000   1.0000   1.0000   1.0000   1.0000   1.0000
     1.0000   1.0000   1.0000   1.0000   1.0000   1.0000   1.0000   1.0000
     1.0000   1.0000   1.0000   1.0000   1.0000   1.0000   1.0000   1.0000
     1.0000   1.0000   0.0000   0.0000   0.0000   0.0000   0.0000   0.0000
     0.0000   0.0000   0.0000   0.0000

          k = 0.2495 0.0666 0.0511 ( 19125 PWs)   bands (ev):

  -102.2845 -93.4782 -64.6945 -64.6358 -61.0012 -59.4175 -59.1966 -54.2021
   -54.0319 -53.9643 -29.0185 -28.9553 -28.9244 -28.8580 -28.8240 -28.7662
    -8.3489  -7.5608  -7.2524  -7.1399  -6.6251  -6.4760  -6.3099  -6.2685
     1.0291   2.1090   2.3099   2.4170   2.5919   2.8077   2.8824   3.3798
     3.7285   3.8293   4.3784   4.6098   5.0987   5.3293   5.5007   5.8944
     5.9632   6.1045   6.2345   6.5036   7.0198   7.3157   7.5974   7.7524
     8.2342   8.3726   8.4452   8.7687   8.9101   9.1277   9.4019   9.7408
    10.0741  10.1069  12.6455  12.8864  13.0819  13.3521  13.7797  14.3901
    15.8668  16.0764  17.7050  18.7803

     occupation numbers 
     1.0000   1.0000   1.0000   1.0000   1.0000   1.0000   1.0000   1.0000
     1.0000   1.0000   1.0000   1.0000   1.0000   1.0000   1.0000   1.0000
     1.0000   1.0000   1.0000   1.0000   1.0000   1.0000   1.0000   1.0000
     1.0000   1.0000   1.0000   1.0000   1.0000   1.0000   1.0000   1.0000
     1.0000   1.0000   1.0000   1.0000   1.0000   1.0000   1.0000   1.0000
     1.0000   1.0000   1.0000   1.0000   1.0000   1.0000   1.0000   1.0000
     1.0000   1.0000   1.0000   1.0000   1.0000   1.0000   1.0000   1.0000
     1.0000   1.0000   0.0000   0.0000   0.0000   0.0000   0.0000   0.0000
     0.0000   0.0000   0.0000   0.0000

          k = 0.2482 0.0666 0.1936 ( 19116 PWs)   bands (ev):

  -102.2845 -93.4782 -64.6945 -64.6360 -61.0012 -59.4175 -59.1966 -54.2021
   -54.0319 -53.9643 -29.0156 -28.9606 -28.9196 -28.8668 -28.8139 -28.7698
    -8.2849  -7.5828  -7.2764  -7.0946  -6.6612  -6.5907  -6.2766  -6.2265
     1.0278   2.1182   2.3056   2.4244   2.5848   2.8087   2.8478   3.4668
     3.7494   3.8577   4.3541   4.4628   5.2032   5.4639   5.4796   5.6406
     5.8660   6.1294   6.2230   6.7765   7.0829   7.3885   7.5237   7.9633
     8.1089   8.2194   8.3422   8.5840   8.8468   9.2637   9.4181   9.9254
     9.9725  10.1213  12.6012  12.9418  13.0320  13.3018  13.8458  14.2654
    16.0277  16.3408  17.6318  18.8960

     occupation numbers 
     1.0000   1.0000   1.0000   1.0000   1.0000   1.0000   1.0000   1.0000
     1.0000   1.0000   1.0000   1.0000   1.0000   1.0000   1.0000   1.0000
     1.0000   1.0000   1.0000   1.0000   1.0000   1.0000   1.0000   1.0000
     1.0000   1.0000   1.0000   1.0000   1.0000   1.0000   1.0000   1.0000
     1.0000   1.0000   1.0000   1.0000   1.0000   1.0000   1.0000   1.0000
     1.0000   1.0000   1.0000   1.0000   1.0000   1.0000   1.0000   1.0000
     1.0000   1.0000   1.0000   1.0000   1.0000   1.0000   1.0000   1.0000
     1.0000   1.0000   0.0000   0.0000   0.0000   0.0000   0.0000   0.0000
     0.0000   0.0000   0.0000   0.0000

          k = 0.2468 0.0666 0.3360 ( 19132 PWs)   bands (ev):

  -102.2845 -93.4782 -64.6944 -64.6362 -61.0012 -59.4175 -59.1966 -54.2021
   -54.0319 -53.9643 -29.0126 -28.9656 -28.9143 -28.8749 -28.8040 -28.7752
    -8.1273  -7.6801  -7.3352  -7.1149  -6.7359  -6.5512  -6.2577  -6.2003
     1.0394   2.0967   2.3120   2.4351   2.5538   2.7716   2.8957   3.5215
     3.7716   3.8637   4.2933   4.5082   5.0126   5.2063   5.5923   5.7424
     5.9125   6.1117   6.7811   6.8666   6.9441   7.0086   7.2763   7.6891
     8.0383   8.3781   8.6256   8.7520   8.8811   9.2756   9.6375   9.8175
    10.0193  10.1414  12.5738  12.6726  12.9855  13.4374  13.9875  14.1468
    15.9218  16.1508  18.2703  18.8776

     occupation numbers 
     1.0000   1.0000   1.0000   1.0000   1.0000   1.0000   1.0000   1.0000
     1.0000   1.0000   1.0000   1.0000   1.0000   1.0000   1.0000   1.0000
     1.0000   1.0000   1.0000   1.0000   1.0000   1.0000   1.0000   1.0000
     1.0000   1.0000   1.0000   1.0000   1.0000   1.0000   1.0000   1.0000
     1.0000   1.0000   1.0000   1.0000   1.0000   1.0000   1.0000   1.0000
     1.0000   1.0000   1.0000   1.0000   1.0000   1.0000   1.0000   1.0000
     1.0000   1.0000   1.0000   1.0000   1.0000   1.0000   1.0000   1.0000
     1.0000   1.0000   0.0000   0.0000   0.0000   0.0000   0.0000   0.0000
     0.0000   0.0000   0.0000   0.0000

          k = 0.2537 0.0667-0.3762 ( 19123 PWs)   bands (ev):

  -102.2845 -93.4782 -64.6943 -64.6360 -61.0012 -59.4175 -59.1966 -54.2021
   -54.0319 -53.9643 -29.0130 -28.9651 -28.9141 -28.8752 -28.8043 -28.7751
    -7.9740  -7.8253  -7.3705  -7.1677  -6.7040  -6.4997  -6.2608  -6.1976
     1.0535   2.0661   2.3251   2.4200   2.5623   2.7590   2.9205   3.4681
     3.7874   3.8634   4.3363   4.6119   4.9531   5.1389   5.4509   5.7779
     5.9967   6.1765   6.3551   6.5430   7.1922   7.3859   7.4400   7.6421
     8.0461   8.2650   8.6269   8.7101   9.1178   9.3781   9.6800   9.7519
    10.0166  10.1205  12.5135  12.7441  12.9444  13.4695  13.9089  14.2694
    15.6570  15.8643  18.5400  19.1028

     occupation numbers 
     1.0000   1.0000   1.0000   1.0000   1.0000   1.0000   1.0000   1.0000
     1.0000   1.0000   1.0000   1.0000   1.0000   1.0000   1.0000   1.0000
     1.0000   1.0000   1.0000   1.0000   1.0000   1.0000   1.0000   1.0000
     1.0000   1.0000   1.0000   1.0000   1.0000   1.0000   1.0000   1.0000
     1.0000   1.0000   1.0000   1.0000   1.0000   1.0000   1.0000   1.0000
     1.0000   1.0000   1.0000   1.0000   1.0000   1.0000   1.0000   1.0000
     1.0000   1.0000   1.0000   1.0000   1.0000   1.0000   1.0000   1.0000
     1.0000   1.0000   0.0000   0.0000   0.0000   0.0000   0.0000   0.0000
     0.0000   0.0000   0.0000   0.0000

          k = 0.2523 0.0667-0.2337 ( 19129 PWs)   bands (ev):

  -102.2845 -93.4782 -64.6944 -64.6357 -61.0012 -59.4175 -59.1966 -54.2021
   -54.0319 -53.9643 -29.0163 -28.9596 -28.9195 -28.8671 -28.8144 -28.7699
    -8.1294  -7.7156  -7.3447  -7.2091  -6.5949  -6.4564  -6.3000  -6.2382
     1.0553   2.0611   2.3361   2.4080   2.5968   2.7734   2.9003   3.3769
     3.7526   3.8510   4.5195   4.7901   4.9208   5.0705   5.2626   5.5651
     5.9435   6.1017   6.5607   6.8144   6.9957   7.2695   7.6253   7.8974
     7.9780   8.3468   8.4876   8.7528   9.0915   9.4527   9.5568   9.6066
    10.0513  10.1120  12.5795  12.7941  13.0167  13.5047  13.8158  14.3992
    15.4957  15.6916  18.1523  19.1271

     occupation numbers 
     1.0000   1.0000   1.0000   1.0000   1.0000   1.0000   1.0000   1.0000
     1.0000   1.0000   1.0000   1.0000   1.0000   1.0000   1.0000   1.0000
     1.0000   1.0000   1.0000   1.0000   1.0000   1.0000   1.0000   1.0000
     1.0000   1.0000   1.0000   1.0000   1.0000   1.0000   1.0000   1.0000
     1.0000   1.0000   1.0000   1.0000   1.0000   1.0000   1.0000   1.0000
     1.0000   1.0000   1.0000   1.0000   1.0000   1.0000   1.0000   1.0000
     1.0000   1.0000   1.0000   1.0000   1.0000   1.0000   1.0000   1.0000
     1.0000   1.0000   0.0000   0.0000   0.0000   0.0000   0.0000   0.0000
     0.0000   0.0000   0.0000   0.0000

          k = 0.2509 0.0667-0.0913 ( 19121 PWs)   bands (ev):

  -102.2845 -93.4782 -64.6945 -64.6356 -61.0012 -59.4175 -59.1966 -54.2021
   -54.0319 -53.9643 -29.0188 -28.9548 -28.9244 -28.8580 -28.8243 -28.7662
    -8.2924  -7.6030  -7.2797  -7.2096  -6.5557  -6.4048  -6.3280  -6.3059
     1.0424   2.0822   2.3297   2.4118   2.5962   2.7944   2.9070   3.3336
     3.7131   3.8322   4.4987   4.8030   4.9552   5.0959   5.2549   5.8584
     5.9105   6.2840   6.4023   6.7244   6.9186   7.1941   7.4581   7.9133
     8.1772   8.2426   8.5368   8.8942   9.1350   9.1681   9.4875   9.5825
    10.0661  10.1376  12.6468  12.7892  12.9985  13.5433  13.7857  14.4449
    15.5989  15.7529  17.9745  18.8162

     occupation numbers 
     1.0000   1.0000   1.0000   1.0000   1.0000   1.0000   1.0000   1.0000
     1.0000   1.0000   1.0000   1.0000   1.0000   1.0000   1.0000   1.0000
     1.0000   1.0000   1.0000   1.0000   1.0000   1.0000   1.0000   1.0000
     1.0000   1.0000   1.0000   1.0000   1.0000   1.0000   1.0000   1.0000
     1.0000   1.0000   1.0000   1.0000   1.0000   1.0000   1.0000   1.0000
     1.0000   1.0000   1.0000   1.0000   1.0000   1.0000   1.0000   1.0000
     1.0000   1.0000   1.0000   1.0000   1.0000   1.0000   1.0000   1.0000
     1.0000   1.0000   0.0000   0.0000   0.0000   0.0000   0.0000   0.0000
     0.0000   0.0000   0.0000   0.0000

          k = 0.2496 0.2139 0.0477 ( 19153 PWs)   bands (ev):

  -102.2845 -93.4782 -64.6948 -64.6358 -61.0012 -59.4175 -59.1966 -54.2021
   -54.0319 -53.9643 -29.0178 -28.9550 -28.9239 -28.8589 -28.8242 -28.7665
    -8.2494  -7.5695  -7.2928  -7.2231  -6.6638  -6.4650  -6.3058  -6.2376
     0.9877   2.0856   2.3310   2.3996   2.6438   2.8150   2.8856   3.4751
     3.7253   3.9001   4.4614   4.7690   4.9439   5.2930   5.6090   5.7561
     5.9239   6.1598   6.4083   6.5526   7.0593   7.3265   7.6269   7.8854
     8.0796   8.2629   8.3829   8.7446   8.9935   9.1440   9.2051   9.4921
     9.8127   9.9324  12.6814  12.8163  13.1979  13.2370  13.9466  14.4051
    15.9193  16.1539  17.8683  18.5761

     occupation numbers 
     1.0000   1.0000   1.0000   1.0000   1.0000   1.0000   1.0000   1.0000
     1.0000   1.0000   1.0000   1.0000   1.0000   1.0000   1.0000   1.0000
     1.0000   1.0000   1.0000   1.0000   1.0000   1.0000   1.0000   1.0000
     1.0000   1.0000   1.0000   1.0000   1.0000   1.0000   1.0000   1.0000
     1.0000   1.0000   1.0000   1.0000   1.0000   1.0000   1.0000   1.0000
     1.0000   1.0000   1.0000   1.0000   1.0000   1.0000   1.0000   1.0000
     1.0000   1.0000   1.0000   1.0000   1.0000   1.0000   1.0000   1.0000
     1.0000   1.0000   0.0000   0.0000   0.0000   0.0000   0.0000   0.0000
     0.0000   0.0000   0.0000   0.0000

          k = 0.2482 0.2138 0.1901 ( 19150 PWs)   bands (ev):

  -102.2845 -93.4782 -64.6947 -64.6361 -61.0012 -59.4175 -59.1966 -54.2021
   -54.0319 -53.9643 -29.0154 -28.9615 -28.9192 -28.8671 -28.8135 -28.7697
    -8.1851  -7.6225  -7.3186  -7.1739  -6.6323  -6.5357  -6.3223  -6.2265
     0.9831   2.0722   2.3487   2.3990   2.6082   2.8323   2.9091   3.5592
     3.7457   3.8885   4.4332   4.6593   4.9145   5.3839   5.4564   5.7172
     5.8633   6.1635   6.3950   6.8719   7.2340   7.3374   7.6884   7.8416
     8.1022   8.1934   8.3374   8.4612   9.0158   9.1382   9.2393   9.5665
     9.7944   9.9293  12.5806  12.8638  13.0239  13.3549  13.8832  14.3482
    16.0551  16.3564  17.9744  18.6085

     occupation numbers 
     1.0000   1.0000   1.0000   1.0000   1.0000   1.0000   1.0000   1.0000
     1.0000   1.0000   1.0000   1.0000   1.0000   1.0000   1.0000   1.0000
     1.0000   1.0000   1.0000   1.0000   1.0000   1.0000   1.0000   1.0000
     1.0000   1.0000   1.0000   1.0000   1.0000   1.0000   1.0000   1.0000
     1.0000   1.0000   1.0000   1.0000   1.0000   1.0000   1.0000   1.0000
     1.0000   1.0000   1.0000   1.0000   1.0000   1.0000   1.0000   1.0000
     1.0000   1.0000   1.0000   1.0000   1.0000   1.0000   1.0000   1.0000
     1.0000   1.0000   0.0000   0.0000   0.0000   0.0000   0.0000   0.0000
     0.0000   0.0000   0.0000   0.0000

          k = 0.2468 0.2138 0.3325 ( 19130 PWs)   bands (ev):

  -102.2845 -93.4783 -64.6946 -64.6362 -61.0012 -59.4175 -59.1966 -54.2021
   -54.0319 -53.9643 -29.0129 -28.9671 -28.9140 -28.8748 -28.8030 -28.7747
    -8.0416  -7.7156  -7.3851  -7.1414  -6.6662  -6.5237  -6.3095  -6.2445
     0.9904   2.0501   2.3377   2.4232   2.5545   2.8354   2.9570   3.5980
     3.7971   3.8793   4.3625   4.6319   4.8244   5.1411   5.5359   5.6689
     6.1142   6.4470   6.6973   6.8023   7.0414   7.2615   7.5048   7.6480
     7.8155   8.2112   8.4562   8.6260   9.0383   9.2700   9.4855   9.5249
     9.7069  10.0495  12.5194  12.5881  13.1196  13.4539  13.8637  14.3049
    15.9671  16.2080  18.4057  18.6208

     occupation numbers 
     1.0000   1.0000   1.0000   1.0000   1.0000   1.0000   1.0000   1.0000
     1.0000   1.0000   1.0000   1.0000   1.0000   1.0000   1.0000   1.0000
     1.0000   1.0000   1.0000   1.0000   1.0000   1.0000   1.0000   1.0000
     1.0000   1.0000   1.0000   1.0000   1.0000   1.0000   1.0000   1.0000
     1.0000   1.0000   1.0000   1.0000   1.0000   1.0000   1.0000   1.0000
     1.0000   1.0000   1.0000   1.0000   1.0000   1.0000   1.0000   1.0000
     1.0000   1.0000   1.0000   1.0000   1.0000   1.0000   1.0000   1.0000
     1.0000   1.0000   0.0000   0.0000   0.0000   0.0000   0.0000   0.0000
     0.0000   0.0000   0.0000   0.0000

          k = 0.2537 0.2139-0.3797 ( 19128 PWs)   bands (ev):

  -102.2845 -93.4783 -64.6946 -64.6360 -61.0012 -59.4175 -59.1966 -54.2021
   -54.0319 -53.9643 -29.0135 -28.9660 -28.9138 -28.8754 -28.8036 -28.7747
    -7.9524  -7.7689  -7.4280  -7.1444  -6.7320  -6.4447  -6.2918  -6.2657
     1.0026   2.0340   2.3296   2.4403   2.5495   2.8148   2.9426   3.5584
     3.7890   3.9200   4.3719   4.6325   4.8203   5.1668   5.5304   5.8921
     6.1094   6.3542   6.4379   6.7405   7.0770   7.3671   7.4567   7.6100
     7.8878   8.1288   8.4958   8.6324   9.1238   9.3607   9.3972   9.6289
     9.7696  10.0368  12.4896  12.6204  13.1643  13.4793  13.8695  14.3368
    15.7325  15.9534  18.2033  19.1538

     occupation numbers 
     1.0000   1.0000   1.0000   1.0000   1.0000   1.0000   1.0000   1.0000
     1.0000   1.0000   1.0000   1.0000   1.0000   1.0000   1.0000   1.0000
     1.0000   1.0000   1.0000   1.0000   1.0000   1.0000   1.0000   1.0000
     1.0000   1.0000   1.0000   1.0000   1.0000   1.0000   1.0000   1.0000
     1.0000   1.0000   1.0000   1.0000   1.0000   1.0000   1.0000   1.0000
     1.0000   1.0000   1.0000   1.0000   1.0000   1.0000   1.0000   1.0000
     1.0000   1.0000   1.0000   1.0000   1.0000   1.0000   1.0000   1.0000
     1.0000   1.0000   0.0000   0.0000   0.0000   0.0000   0.0000   0.0000
     0.0000   0.0000   0.0000   0.0000

          k = 0.2524 0.2139-0.2372 ( 19128 PWs)   bands (ev):

  -102.2845 -93.4782 -64.6946 -64.6358 -61.0012 -59.4175 -59.1966 -54.2021
   -54.0319 -53.9643 -29.0165 -28.9592 -28.9189 -28.8681 -28.8144 -28.7698
    -8.0849  -7.6459  -7.4146  -7.2036  -6.6782  -6.4194  -6.3223  -6.2494
     1.0074   2.0426   2.3249   2.4427   2.5914   2.7894   2.9049   3.4838
     3.7496   3.9216   4.5069   4.6370   5.0251   5.2788   5.3943   5.6085
     5.9888   6.4516   6.5087   6.7950   6.9529   7.1571   7.5177   7.6785
     8.0835   8.3143   8.4340   8.6443   9.0350   9.2915   9.4328   9.5382
     9.8376   9.9522  12.5730  12.7516  13.2110  13.4501  13.9255  14.4000
    15.5987  15.7622  17.9987  19.0178

     occupation numbers 
     1.0000   1.0000   1.0000   1.0000   1.0000   1.0000   1.0000   1.0000
     1.0000   1.0000   1.0000   1.0000   1.0000   1.0000   1.0000   1.0000
     1.0000   1.0000   1.0000   1.0000   1.0000   1.0000   1.0000   1.0000
     1.0000   1.0000   1.0000   1.0000   1.0000   1.0000   1.0000   1.0000
     1.0000   1.0000   1.0000   1.0000   1.0000   1.0000   1.0000   1.0000
     1.0000   1.0000   1.0000   1.0000   1.0000   1.0000   1.0000   1.0000
     1.0000   1.0000   1.0000   1.0000   1.0000   1.0000   1.0000   1.0000
     1.0000   1.0000   0.0000   0.0000   0.0000   0.0000   0.0000   0.0000
     0.0000   0.0000   0.0000   0.0000

          k = 0.2510 0.2139-0.0948 ( 19134 PWs)   bands (ev):

  -102.2845 -93.4782 -64.6947 -64.6356 -61.0012 -59.4175 -59.1966 -54.2021
   -54.0319 -53.9643 -29.0183 -28.9537 -28.9239 -28.8593 -28.8246 -28.7667
    -8.2099  -7.5653  -7.3552  -7.2401  -6.6369  -6.4373  -6.3147  -6.2485
     0.9998   2.0712   2.3219   2.4207   2.6262   2.7901   2.9073   3.4369
     3.7210   3.9082   4.5143   4.7782   4.9537   5.2328   5.4999   5.7666
     5.9721   6.1843   6.4680   6.8121   6.9925   7.2268   7.3952   7.6835
     8.0772   8.3779   8.5083   8.6893   9.0818   9.1901   9.3182   9.5074
     9.7845   9.9783  12.6622  12.7648  13.1615  13.4356  13.9735  14.4259
    15.6987  15.8303  17.9348  18.6968

     occupation numbers 
     1.0000   1.0000   1.0000   1.0000   1.0000   1.0000   1.0000   1.0000
     1.0000   1.0000   1.0000   1.0000   1.0000   1.0000   1.0000   1.0000
     1.0000   1.0000   1.0000   1.0000   1.0000   1.0000   1.0000   1.0000
     1.0000   1.0000   1.0000   1.0000   1.0000   1.0000   1.0000   1.0000
     1.0000   1.0000   1.0000   1.0000   1.0000   1.0000   1.0000   1.0000
     1.0000   1.0000   1.0000   1.0000   1.0000   1.0000   1.0000   1.0000
     1.0000   1.0000   1.0000   1.0000   1.0000   1.0000   1.0000   1.0000
     1.0000   1.0000   0.0000   0.0000   0.0000   0.0000   0.0000   0.0000
     0.0000   0.0000   0.0000   0.0000

          k = 0.2497 0.3611 0.0442 ( 19147 PWs)   bands (ev):

  -102.2845 -93.4782 -64.6949 -64.6358 -61.0012 -59.4175 -59.1966 -54.2021
   -54.0319 -53.9643 -29.0176 -28.9541 -28.9233 -28.8601 -28.8246 -28.7670
    -8.0546  -7.6630  -7.3665  -7.2438  -6.7153  -6.5618  -6.2567  -6.1866
     1.0237   2.0820   2.3665   2.4224   2.6169   2.8160   2.8864   3.4955
     3.7064   3.9887   4.5153   4.8272   5.0585   5.2984   5.5636   5.6793
     5.9047   6.2008   6.6298   6.7074   6.9306   7.0948   7.7646   7.8833
     8.0196   8.2263   8.5368   8.6852   8.8537   9.0565   9.1587   9.3440
     9.5383   9.7293  12.7749  12.8390  13.0383  13.3227  14.0818  14.4015
    15.9601  16.2172  17.9716  18.3346

     occupation numbers 
     1.0000   1.0000   1.0000   1.0000   1.0000   1.0000   1.0000   1.0000
     1.0000   1.0000   1.0000   1.0000   1.0000   1.0000   1.0000   1.0000
     1.0000   1.0000   1.0000   1.0000   1.0000   1.0000   1.0000   1.0000
     1.0000   1.0000   1.0000   1.0000   1.0000   1.0000   1.0000   1.0000
     1.0000   1.0000   1.0000   1.0000   1.0000   1.0000   1.0000   1.0000
     1.0000   1.0000   1.0000   1.0000   1.0000   1.0000   1.0000   1.0000
     1.0000   1.0000   1.0000   1.0000   1.0000   1.0000   1.0000   1.0000
     1.0000   1.0000   0.0000   0.0000   0.0000   0.0000   0.0000   0.0000
     0.0000   0.0000   0.0000   0.0000

          k = 0.2483 0.3611 0.1866 ( 19138 PWs)   bands (ev):

  -102.2845 -93.4782 -64.6949 -64.6361 -61.0012 -59.4175 -59.1966 -54.2021
   -54.0319 -53.9643 -29.0159 -28.9612 -28.9186 -28.8678 -28.8135 -28.7696
    -7.9942  -7.6928  -7.3803  -7.2560  -6.6648  -6.5213  -6.3556  -6.1915
     1.0130   2.0714   2.3932   2.4118   2.5862   2.8408   2.9212   3.5821
     3.7378   3.9637   4.4330   4.6578   5.0682   5.3173   5.4316   5.6656
     6.0068   6.1445   6.5582   6.9648   7.0373   7.3728   7.6210   7.8908
     8.1139   8.2159   8.4636   8.6428   8.7743   8.9419   9.1782   9.3415
     9.5751   9.7206  12.5378  12.7583  13.1380  13.3753  13.9092  14.4278
    16.0727  16.3605  18.1685  18.5374

     occupation numbers 
     1.0000   1.0000   1.0000   1.0000   1.0000   1.0000   1.0000   1.0000
     1.0000   1.0000   1.0000   1.0000   1.0000   1.0000   1.0000   1.0000
     1.0000   1.0000   1.0000   1.0000   1.0000   1.0000   1.0000   1.0000
     1.0000   1.0000   1.0000   1.0000   1.0000   1.0000   1.0000   1.0000
     1.0000   1.0000   1.0000   1.0000   1.0000   1.0000   1.0000   1.0000
     1.0000   1.0000   1.0000   1.0000   1.0000   1.0000   1.0000   1.0000
     1.0000   1.0000   1.0000   1.0000   1.0000   1.0000   1.0000   1.0000
     1.0000   1.0000   0.0000   0.0000   0.0000   0.0000   0.0000   0.0000
     0.0000   0.0000   0.0000   0.0000

          k = 0.2469 0.3610 0.3290 ( 19147 PWs)   bands (ev):

  -102.2845 -93.4783 -64.6948 -64.6362 -61.0012 -59.4175 -59.1966 -54.2021
   -54.0319 -53.9643 -29.0137 -28.9679 -28.9139 -28.8747 -28.8024 -28.7743
    -7.8943  -7.7156  -7.4455  -7.2361  -6.6052  -6.5408  -6.4101  -6.2213
     1.0127   2.0705   2.3659   2.4454   2.5423   2.8370   2.9525   3.6039
     3.8282   3.9265   4.2667   4.5823   5.1382   5.1882   5.5101   5.5900
     6.2785   6.4829   6.5892   6.9317   7.0113   7.3556   7.5694   7.7551
     7.8452   8.1795   8.3060   8.5243   8.8458   9.0328   9.3640   9.4352
     9.5609   9.9362  12.3672  12.6010  13.2946  13.4383  13.7965  14.4071
    16.0130  16.2120  18.1594  19.0159

     occupation numbers 
     1.0000   1.0000   1.0000   1.0000   1.0000   1.0000   1.0000   1.0000
     1.0000   1.0000   1.0000   1.0000   1.0000   1.0000   1.0000   1.0000
     1.0000   1.0000   1.0000   1.0000   1.0000   1.0000   1.0000   1.0000
     1.0000   1.0000   1.0000   1.0000   1.0000   1.0000   1.0000   1.0000
     1.0000   1.0000   1.0000   1.0000   1.0000   1.0000   1.0000   1.0000
     1.0000   1.0000   1.0000   1.0000   1.0000   1.0000   1.0000   1.0000
     1.0000   1.0000   1.0000   1.0000   1.0000   1.0000   1.0000   1.0000
     1.0000   1.0000   0.0000   0.0000   0.0000   0.0000   0.0000   0.0000
     0.0000   0.0000   0.0000   0.0000

          k = 0.2538 0.3611-0.3831 ( 19129 PWs)   bands (ev):

  -102.2845 -93.4783 -64.6948 -64.6361 -61.0012 -59.4175 -59.1966 -54.2021
   -54.0319 -53.9643 -29.0140 -28.9674 -28.9139 -28.8750 -28.8026 -28.7742
    -7.8950  -7.6582  -7.4935  -7.1809  -6.7777  -6.4883  -6.3227  -6.2561
     1.0220   2.0723   2.3437   2.4804   2.5325   2.8354   2.8833   3.5515
     3.8149   3.9395   4.2883   4.5096   5.2691   5.3321   5.6539   5.8428
     6.1049   6.2591   6.5308   6.6710   7.1934   7.2747   7.5615   7.7628
     7.9369   8.1266   8.2621   8.4026   8.8823   9.0111   9.2350   9.6505
     9.7527   9.9617  12.3904  12.6656  13.3057  13.4661  13.8273  14.4051
    15.8128  15.9796  17.9655  19.1763

     occupation numbers 
     1.0000   1.0000   1.0000   1.0000   1.0000   1.0000   1.0000   1.0000
     1.0000   1.0000   1.0000   1.0000   1.0000   1.0000   1.0000   1.0000
     1.0000   1.0000   1.0000   1.0000   1.0000   1.0000   1.0000   1.0000
     1.0000   1.0000   1.0000   1.0000   1.0000   1.0000   1.0000   1.0000
     1.0000   1.0000   1.0000   1.0000   1.0000   1.0000   1.0000   1.0000
     1.0000   1.0000   1.0000   1.0000   1.0000   1.0000   1.0000   1.0000
     1.0000   1.0000   1.0000   1.0000   1.0000   1.0000   1.0000   1.0000
     1.0000   1.0000   0.0000   0.0000   0.0000   0.0000   0.0000   0.0000
     0.0000   0.0000   0.0000   0.0000

          k = 0.2524 0.3611-0.2407 ( 19133 PWs)   bands (ev):

  -102.2845 -93.4783 -64.6948 -64.6358 -61.0012 -59.4175 -59.1966 -54.2021
   -54.0319 -53.9643 -29.0164 -28.9600 -28.9187 -28.8683 -28.8140 -28.7697
    -7.9773  -7.5972  -7.4769  -7.1917  -6.8220  -6.4802  -6.2966  -6.2223
     1.0316   2.0784   2.3329   2.4902   2.5662   2.7793   2.8660   3.4806
     3.7389   3.9877   4.3978   4.5974   5.3790   5.5271   5.6202   5.8080
     5.8932   6.2952   6.4534   6.6273   6.8387   7.2499   7.4089   7.8584
     8.1589   8.2634   8.3571   8.6462   8.7227   8.9878   9.1482   9.6432
     9.7445   9.8462  12.5308  12.8842  13.2919  13.3867  14.0055  14.3943
    15.6937  15.8124  17.7936  18.9131

     occupation numbers 
     1.0000   1.0000   1.0000   1.0000   1.0000   1.0000   1.0000   1.0000
     1.0000   1.0000   1.0000   1.0000   1.0000   1.0000   1.0000   1.0000
     1.0000   1.0000   1.0000   1.0000   1.0000   1.0000   1.0000   1.0000
     1.0000   1.0000   1.0000   1.0000   1.0000   1.0000   1.0000   1.0000
     1.0000   1.0000   1.0000   1.0000   1.0000   1.0000   1.0000   1.0000
     1.0000   1.0000   1.0000   1.0000   1.0000   1.0000   1.0000   1.0000
     1.0000   1.0000   1.0000   1.0000   1.0000   1.0000   1.0000   1.0000
     1.0000   1.0000   0.0000   0.0000   0.0000   0.0000   0.0000   0.0000
     0.0000   0.0000   0.0000   0.0000

          k = 0.2510 0.3611-0.0983 ( 19135 PWs)   bands (ev):

  -102.2845 -93.4782 -64.6949 -64.6357 -61.0012 -59.4175 -59.1966 -54.2021
   -54.0319 -53.9643 -29.0179 -28.9534 -28.9235 -28.8603 -28.8248 -28.7671
    -8.0437  -7.6193  -7.4157  -7.2312  -6.7536  -6.5356  -6.2626  -6.1905
     1.0330   2.0873   2.3349   2.4601   2.6074   2.7531   2.9020   3.4508
     3.7072   4.0002   4.4747   4.8122   5.1271   5.3867   5.6310   5.7273
     6.0774   6.2406   6.4402   6.6701   6.8809   7.0518   7.5379   7.8851
     7.9424   8.2676   8.4869   8.6719   8.9194   9.0454   9.2872   9.3607
     9.6371   9.7963  12.6566  12.9321  13.2305  13.3111  14.1813  14.3297
    15.7765  15.9163  17.7717  18.5737

     occupation numbers 
     1.0000   1.0000   1.0000   1.0000   1.0000   1.0000   1.0000   1.0000
     1.0000   1.0000   1.0000   1.0000   1.0000   1.0000   1.0000   1.0000
     1.0000   1.0000   1.0000   1.0000   1.0000   1.0000   1.0000   1.0000
     1.0000   1.0000   1.0000   1.0000   1.0000   1.0000   1.0000   1.0000
     1.0000   1.0000   1.0000   1.0000   1.0000   1.0000   1.0000   1.0000
     1.0000   1.0000   1.0000   1.0000   1.0000   1.0000   1.0000   1.0000
     1.0000   1.0000   1.0000   1.0000   1.0000   1.0000   1.0000   1.0000
     1.0000   1.0000   0.0000   0.0000   0.0000   0.0000   0.0000   0.0000
     0.0000   0.0000   0.0000   0.0000

          k = 0.2493-0.3750 0.0616 ( 19129 PWs)   bands (ev):

  -102.2846 -93.4782 -64.6949 -64.6358 -61.0012 -59.4175 -59.1966 -54.2021
   -54.0319 -53.9643 -29.0181 -28.9535 -28.9232 -28.8604 -28.8246 -28.7671
    -7.9431  -7.7765  -7.3620  -7.2134  -6.7436  -6.6055  -6.2397  -6.1805
     1.0957   2.1166   2.3773   2.4366   2.5295   2.7995   2.9283   3.4928
     3.6887   3.9802   4.4925   4.8354   5.0355   5.3035   5.5814   5.6115
     5.8849   6.1950   6.5948   6.7428   6.9883   7.0694   7.7714   7.9678
     7.9874   8.2631   8.5792   8.5995   8.8662   9.0216   9.1312   9.3551
     9.5635   9.7260  12.7894  12.8805  12.9980  13.3505  14.0723  14.4004
    15.9531  16.2233  17.9543  18.3347

     occupation numbers 
     1.0000   1.0000   1.0000   1.0000   1.0000   1.0000   1.0000   1.0000
     1.0000   1.0000   1.0000   1.0000   1.0000   1.0000   1.0000   1.0000
     1.0000   1.0000   1.0000   1.0000   1.0000   1.0000   1.0000   1.0000
     1.0000   1.0000   1.0000   1.0000   1.0000   1.0000   1.0000   1.0000
     1.0000   1.0000   1.0000   1.0000   1.0000   1.0000   1.0000   1.0000
     1.0000   1.0000   1.0000   1.0000   1.0000   1.0000   1.0000   1.0000
     1.0000   1.0000   1.0000   1.0000   1.0000   1.0000   1.0000   1.0000
     1.0000   1.0000   0.0000   0.0000   0.0000   0.0000   0.0000   0.0000
     0.0000   0.0000   0.0000   0.0000

          k = 0.2480-0.3750 0.2040 ( 19124 PWs)   bands (ev):

  -102.2846 -93.4782 -64.6948 -64.6361 -61.0012 -59.4175 -59.1966 -54.2021
   -54.0319 -53.9643 -29.0165 -28.9600 -28.9185 -28.8682 -28.8139 -28.7697
    -7.9186  -7.7175  -7.4100  -7.2469  -6.7147  -6.5695  -6.3061  -6.1897
     1.0813   2.1215   2.3718   2.4459   2.5330   2.8153   2.9310   3.5924
     3.7102   3.9597   4.4198   4.6541   5.0812   5.2323   5.4735   5.6219
     6.0374   6.1167   6.5642   6.9795   7.0279   7.4005   7.6038   7.9265
     8.1233   8.2234   8.4151   8.7250   8.7679   8.8573   9.1637   9.3718
     9.5900   9.7222  12.4987  12.7836  13.1743  13.3930  13.9127  14.4258
    16.0616  16.3615  18.2022  18.5093

     occupation numbers 
     1.0000   1.0000   1.0000   1.0000   1.0000   1.0000   1.0000   1.0000
     1.0000   1.0000   1.0000   1.0000   1.0000   1.0000   1.0000   1.0000
     1.0000   1.0000   1.0000   1.0000   1.0000   1.0000   1.0000   1.0000
     1.0000   1.0000   1.0000   1.0000   1.0000   1.0000   1.0000   1.0000
     1.0000   1.0000   1.0000   1.0000   1.0000   1.0000   1.0000   1.0000
     1.0000   1.0000   1.0000   1.0000   1.0000   1.0000   1.0000   1.0000
     1.0000   1.0000   1.0000   1.0000   1.0000   1.0000   1.0000   1.0000
     1.0000   1.0000   0.0000   0.0000   0.0000   0.0000   0.0000   0.0000
     0.0000   0.0000   0.0000   0.0000

          k = 0.2466-0.3750 0.3465 ( 19136 PWs)   bands (ev):

  -102.2846 -93.4783 -64.6948 -64.6362 -61.0012 -59.4175 -59.1966 -54.2021
   -54.0319 -53.9643 -29.0142 -28.9673 -28.9140 -28.8747 -28.8026 -28.7743
    -7.8626  -7.6291  -7.4975  -7.2780  -6.7311  -6.4692  -6.4025  -6.2154
     1.0759   2.1389   2.3568   2.4530   2.5323   2.7882   2.9404   3.6178
     3.7841   3.9350   4.2616   4.5560   5.1224   5.1756   5.4754   5.6128
     6.2871   6.4826   6.6049   6.8869   7.1359   7.2229   7.5696   7.7644
     7.8352   8.2070   8.3090   8.6329   8.8204   8.9786   9.3733   9.4103
     9.5924   9.9399  12.3100  12.6445  13.3323  13.4405  13.7905  14.4100
    16.0184  16.2001  18.1699  19.0597

     occupation numbers 
     1.0000   1.0000   1.0000   1.0000   1.0000   1.0000   1.0000   1.0000
     1.0000   1.0000   1.0000   1.0000   1.0000   1.0000   1.0000   1.0000
     1.0000   1.0000   1.0000   1.0000   1.0000   1.0000   1.0000   1.0000
     1.0000   1.0000   1.0000   1.0000   1.0000   1.0000   1.0000   1.0000
     1.0000   1.0000   1.0000   1.0000   1.0000   1.0000   1.0000   1.0000
     1.0000   1.0000   1.0000   1.0000   1.0000   1.0000   1.0000   1.0000
     1.0000   1.0000   1.0000   1.0000   1.0000   1.0000   1.0000   1.0000
     1.0000   1.0000   0.0000   0.0000   0.0000   0.0000   0.0000   0.0000
     0.0000   0.0000   0.0000   0.0000

          k = 0.2535-0.3750-0.3657 ( 19116 PWs)   bands (ev):

  -102.2846 -93.4783 -64.6947 -64.6361 -61.0012 -59.4175 -59.1966 -54.2021
   -54.0319 -53.9643 -29.0140 -28.9679 -28.9142 -28.8745 -28.8023 -28.7743
    -7.8383  -7.6374  -7.4920  -7.2494  -6.8287  -6.4502  -6.3529  -6.2395
     1.0831   2.1482   2.3446   2.4703   2.5427   2.7467   2.9008   3.5486
     3.8015   3.9165   4.2807   4.4919   5.2057   5.3532   5.6334   5.9090
     6.0336   6.2927   6.5397   6.6064   7.1958   7.3677   7.5903   7.7375
     7.9329   8.1128   8.2354   8.4849   8.8481   8.9863   9.2544   9.6592
     9.7555   9.9655  12.3588  12.7152  13.3007  13.4612  13.8096  14.4093
    15.8424  15.9549  17.9707  19.1779

     occupation numbers 
     1.0000   1.0000   1.0000   1.0000   1.0000   1.0000   1.0000   1.0000
     1.0000   1.0000   1.0000   1.0000   1.0000   1.0000   1.0000   1.0000
     1.0000   1.0000   1.0000   1.0000   1.0000   1.0000   1.0000   1.0000
     1.0000   1.0000   1.0000   1.0000   1.0000   1.0000   1.0000   1.0000
     1.0000   1.0000   1.0000   1.0000   1.0000   1.0000   1.0000   1.0000
     1.0000   1.0000   1.0000   1.0000   1.0000   1.0000   1.0000   1.0000
     1.0000   1.0000   1.0000   1.0000   1.0000   1.0000   1.0000   1.0000
     1.0000   1.0000   0.0000   0.0000   0.0000   0.0000   0.0000   0.0000
     0.0000   0.0000   0.0000   0.0000

          k = 0.2521-0.3750-0.2233 ( 19128 PWs)   bands (ev):

  -102.2846 -93.4783 -64.6948 -64.6358 -61.0012 -59.4175 -59.1966 -54.2021
   -54.0319 -53.9643 -29.0163 -28.9612 -28.9191 -28.8677 -28.8136 -28.7696
    -7.8683  -7.7174  -7.4260  -7.2133  -6.8577  -6.4803  -6.2987  -6.2180
     1.0947   2.1417   2.3471   2.4875   2.5525   2.6941   2.9010   3.4643
     3.7238   3.9711   4.3861   4.5911   5.3316   5.5078   5.6264   5.7731
     5.9161   6.3249   6.3709   6.6460   6.8720   7.2665   7.4987   7.8790
     8.1068   8.2879   8.3973   8.5905   8.7005   8.9807   9.1716   9.6498
     9.7414   9.8558  12.5325  12.9534  13.2444  13.3627  13.9816  14.4023
    15.7099  15.8049  17.7863  18.9069

     occupation numbers 
     1.0000   1.0000   1.0000   1.0000   1.0000   1.0000   1.0000   1.0000
     1.0000   1.0000   1.0000   1.0000   1.0000   1.0000   1.0000   1.0000
     1.0000   1.0000   1.0000   1.0000   1.0000   1.0000   1.0000   1.0000
     1.0000   1.0000   1.0000   1.0000   1.0000   1.0000   1.0000   1.0000
     1.0000   1.0000   1.0000   1.0000   1.0000   1.0000   1.0000   1.0000
     1.0000   1.0000   1.0000   1.0000   1.0000   1.0000   1.0000   1.0000
     1.0000   1.0000   1.0000   1.0000   1.0000   1.0000   1.0000   1.0000
     1.0000   1.0000   0.0000   0.0000   0.0000   0.0000   0.0000   0.0000
     0.0000   0.0000   0.0000   0.0000

          k = 0.2507-0.3750-0.0808 ( 19114 PWs)   bands (ev):

  -102.2846 -93.4782 -64.6948 -64.6357 -61.0012 -59.4175 -59.1966 -54.2021
   -54.0319 -53.9643 -29.0180 -28.9540 -28.9236 -28.8600 -28.8246 -28.7670
    -7.9160  -7.7766  -7.3763  -7.2104  -6.7927  -6.5543  -6.2547  -6.1869
     1.1019   2.1268   2.3585   2.4735   2.5284   2.7250   2.9380   3.4359
     3.6911   3.9902   4.4616   4.8068   5.0725   5.4336   5.6183   5.7171
     6.0409   6.1980   6.3641   6.7990   6.8899   7.0671   7.5743   7.8544
     7.9645   8.3090   8.4780   8.6729   8.9231   9.0149   9.2727   9.3553
     9.6564   9.7949  12.6772  13.0009  13.1464  13.3263  14.1483  14.3454
    15.7756  15.9221  17.7485  18.5775

     occupation numbers 
     1.0000   1.0000   1.0000   1.0000   1.0000   1.0000   1.0000   1.0000
     1.0000   1.0000   1.0000   1.0000   1.0000   1.0000   1.0000   1.0000
     1.0000   1.0000   1.0000   1.0000   1.0000   1.0000   1.0000   1.0000
     1.0000   1.0000   1.0000   1.0000   1.0000   1.0000   1.0000   1.0000
     1.0000   1.0000   1.0000   1.0000   1.0000   1.0000   1.0000   1.0000
     1.0000   1.0000   1.0000   1.0000   1.0000   1.0000   1.0000   1.0000
     1.0000   1.0000   1.0000   1.0000   1.0000   1.0000   1.0000   1.0000
     1.0000   1.0000   0.0000   0.0000   0.0000   0.0000   0.0000   0.0000
     0.0000   0.0000   0.0000   0.0000

          k = 0.2494-0.2278 0.0581 ( 19119 PWs)   bands (ev):

  -102.2846 -93.4782 -64.6946 -64.6358 -61.0012 -59.4175 -59.1966 -54.2021
   -54.0319 -53.9643 -29.0187 -28.9538 -28.9237 -28.8595 -28.8244 -28.7667
    -8.1653  -7.6148  -7.3067  -7.1851  -6.7424  -6.5487  -6.2639  -6.2123
     1.1332   2.1617   2.3177   2.4409   2.5082   2.7708   2.9525   3.4642
     3.7025   3.8816   4.4284   4.7252   4.9424   5.3120   5.5588   5.6991
     5.9173   6.1315   6.4221   6.5109   7.1454   7.3279   7.6703   7.9486
     8.0165   8.3546   8.4402   8.6684   8.9231   9.1375   9.2314   9.4771
     9.8267   9.9255  12.6883  12.8939  13.1380  13.2960  13.9376  14.3974
    15.9037  16.1710  17.8250  18.5861

     occupation numbers 
     1.0000   1.0000   1.0000   1.0000   1.0000   1.0000   1.0000   1.0000
     1.0000   1.0000   1.0000   1.0000   1.0000   1.0000   1.0000   1.0000
     1.0000   1.0000   1.0000   1.0000   1.0000   1.0000   1.0000   1.0000
     1.0000   1.0000   1.0000   1.0000   1.0000   1.0000   1.0000   1.0000
     1.0000   1.0000   1.0000   1.0000   1.0000   1.0000   1.0000   1.0000
     1.0000   1.0000   1.0000   1.0000   1.0000   1.0000   1.0000   1.0000
     1.0000   1.0000   1.0000   1.0000   1.0000   1.0000   1.0000   1.0000
     1.0000   1.0000   0.0000   0.0000   0.0000   0.0000   0.0000   0.0000
     0.0000   0.0000   0.0000   0.0000

          k = 0.2480-0.2278 0.2005 ( 19110 PWs)   bands (ev):

  -102.2846 -93.4782 -64.6946 -64.6360 -61.0012 -59.4175 -59.1966 -54.2021
   -54.0319 -53.9643 -29.0168 -28.9591 -28.9189 -28.8679 -28.8143 -28.7699
    -8.1171  -7.5752  -7.3529  -7.1857  -6.7715  -6.5739  -6.2595  -6.2143
     1.1226   2.1819   2.3128   2.4494   2.5219   2.7699   2.9085   3.5628
     3.7282   3.8768   4.4082   4.5919   4.9711   5.3249   5.4316   5.6878
     5.8414   6.1514   6.4129   6.8308   7.2951   7.4344   7.7061   7.7812
     8.0702   8.1029   8.3839   8.5531   9.0383   9.0890   9.2561   9.5727
     9.7866   9.9318  12.5087  12.8812  13.1265  13.3817  13.8976  14.3427
    16.0337  16.3581  18.0128  18.6216

     occupation numbers 
     1.0000   1.0000   1.0000   1.0000   1.0000   1.0000   1.0000   1.0000
     1.0000   1.0000   1.0000   1.0000   1.0000   1.0000   1.0000   1.0000
     1.0000   1.0000   1.0000   1.0000   1.0000   1.0000   1.0000   1.0000
     1.0000   1.0000   1.0000   1.0000   1.0000   1.0000   1.0000   1.0000
     1.0000   1.0000   1.0000   1.0000   1.0000   1.0000   1.0000   1.0000
     1.0000   1.0000   1.0000   1.0000   1.0000   1.0000   1.0000   1.0000
     1.0000   1.0000   1.0000   1.0000   1.0000   1.0000   1.0000   1.0000
     1.0000   1.0000   0.0000   0.0000   0.0000   0.0000   0.0000   0.0000
     0.0000   0.0000   0.0000   0.0000

          k = 0.2466-0.2278 0.3430 ( 19097 PWs)   bands (ev):

  -102.2846 -93.4782 -64.6945 -64.6362 -61.0012 -59.4175 -59.1966 -54.2021
   -54.0319 -53.9643 -29.0139 -28.9657 -28.9142 -28.8748 -28.8036 -28.7747
    -7.9907  -7.5786  -7.4471  -7.2163  -6.8126  -6.5123  -6.2742  -6.2287
     1.1203   2.2037   2.3054   2.4467   2.5382   2.7129   2.9358   3.6015
     3.7814   3.8578   4.3251   4.5620   4.8633   5.1000   5.5104   5.6917
     6.0718   6.4586   6.6759   6.7995   7.0906   7.2798   7.4319   7.6726
     7.8227   8.2566   8.3883   8.7384   9.0430   9.2634   9.4619   9.5688
     9.6842  10.0535  12.3759  12.6815  13.2087  13.4589  13.8555  14.3167
    15.9869  16.1710  18.4391  18.7076

     occupation numbers 
     1.0000   1.0000   1.0000   1.0000   1.0000   1.0000   1.0000   1.0000
     1.0000   1.0000   1.0000   1.0000   1.0000   1.0000   1.0000   1.0000
     1.0000   1.0000   1.0000   1.0000   1.0000   1.0000   1.0000   1.0000
     1.0000   1.0000   1.0000   1.0000   1.0000   1.0000   1.0000   1.0000
     1.0000   1.0000   1.0000   1.0000   1.0000   1.0000   1.0000   1.0000
     1.0000   1.0000   1.0000   1.0000   1.0000   1.0000   1.0000   1.0000
     1.0000   1.0000   1.0000   1.0000   1.0000   1.0000   1.0000   1.0000
     1.0000   1.0000   0.0000   0.0000   0.0000   0.0000   0.0000   0.0000
     0.0000   0.0000   0.0000   0.0000

          k = 0.2535-0.2277-0.3692 ( 19132 PWs)   bands (ev):

  -102.2846 -93.4783 -64.6945 -64.6360 -61.0012 -59.4175 -59.1966 -54.2021
   -54.0319 -53.9643 -29.0135 -28.9671 -28.9145 -28.8744 -28.8031 -28.7747
    -7.8576  -7.7163  -7.4687  -7.2248  -6.8163  -6.4357  -6.3022  -6.2387
     1.1279   2.2037   2.2984   2.4568   2.5394   2.6736   2.9579   3.5378
     3.7861   3.8645   4.3343   4.5610   4.8412   5.1229   5.5439   5.8875
     6.0868   6.3213   6.4131   6.7488   7.0731   7.4403   7.5176   7.6856
     7.8471   8.1325   8.4732   8.6343   9.1202   9.3470   9.4362   9.6279
     9.7823  10.0335  12.4220  12.7071  13.1999  13.4386  13.8314  14.3511
    15.8140  15.8808  18.2144  19.1722

     occupation numbers 
     1.0000   1.0000   1.0000   1.0000   1.0000   1.0000   1.0000   1.0000
     1.0000   1.0000   1.0000   1.0000   1.0000   1.0000   1.0000   1.0000
     1.0000   1.0000   1.0000   1.0000   1.0000   1.0000   1.0000   1.0000
     1.0000   1.0000   1.0000   1.0000   1.0000   1.0000   1.0000   1.0000
     1.0000   1.0000   1.0000   1.0000   1.0000   1.0000   1.0000   1.0000
     1.0000   1.0000   1.0000   1.0000   1.0000   1.0000   1.0000   1.0000
     1.0000   1.0000   1.0000   1.0000   1.0000   1.0000   1.0000   1.0000
     1.0000   1.0000   0.0000   0.0000   0.0000   0.0000   0.0000   0.0000
     0.0000   0.0000   0.0000   0.0000

          k = 0.2522-0.2278-0.2268 ( 19115 PWs)   bands (ev):

  -102.2846 -93.4782 -64.6945 -64.6357 -61.0012 -59.4175 -59.1966 -54.2021
   -54.0319 -53.9643 -29.0161 -28.9616 -28.9196 -28.8668 -28.8136 -28.7696
    -7.9564  -7.7167  -7.4185  -7.2262  -6.7544  -6.4086  -6.3329  -6.2362
     1.1358   2.1846   2.3117   2.4754   2.5056   2.7023   2.9445   3.4553
     3.7228   3.8838   4.4554   4.6274   4.9760   5.2440   5.4396   5.5199
     5.9835   6.3939   6.5153   6.7938   7.0111   7.2698   7.6030   7.6917
     8.0725   8.3406   8.4104   8.5717   9.0711   9.3039   9.4203   9.5157
     9.8681   9.9523  12.5744  12.8398  13.2244  13.3500  13.8813  14.4084
    15.6593  15.7201  17.9732  18.9951

     occupation numbers 
     1.0000   1.0000   1.0000   1.0000   1.0000   1.0000   1.0000   1.0000
     1.0000   1.0000   1.0000   1.0000   1.0000   1.0000   1.0000   1.0000
     1.0000   1.0000   1.0000   1.0000   1.0000   1.0000   1.0000   1.0000
     1.0000   1.0000   1.0000   1.0000   1.0000   1.0000   1.0000   1.0000
     1.0000   1.0000   1.0000   1.0000   1.0000   1.0000   1.0000   1.0000
     1.0000   1.0000   1.0000   1.0000   1.0000   1.0000   1.0000   1.0000
     1.0000   1.0000   1.0000   1.0000   1.0000   1.0000   1.0000   1.0000
     1.0000   1.0000   0.0000   0.0000   0.0000   0.0000   0.0000   0.0000
     0.0000   0.0000   0.0000   0.0000

          k = 0.2508-0.2278-0.0843 ( 19118 PWs)   bands (ev):

  -102.2846 -93.4782 -64.6946 -64.6356 -61.0012 -59.4175 -59.1966 -54.2021
   -54.0319 -53.9643 -29.0185 -28.9550 -28.9240 -28.8587 -28.8243 -28.7665
    -8.1075  -7.6601  -7.3392  -7.2180  -6.7130  -6.4787  -6.2963  -6.2265
     1.1388   2.1642   2.3208   2.4598   2.4942   2.7477   2.9596   3.4204
     3.6856   3.8852   4.4802   4.7617   4.8869   5.2525   5.4586   5.7916
     5.9246   6.1438   6.3934   6.8423   7.0303   7.3224   7.4517   7.7410
     8.0721   8.4235   8.4398   8.7022   9.0991   9.1698   9.2894   9.4789
     9.8079   9.9851  12.7059  12.8154  13.1543  13.3886  13.9419  14.4254
    15.6996  15.8380  17.8758  18.7023

     occupation numbers 
     1.0000   1.0000   1.0000   1.0000   1.0000   1.0000   1.0000   1.0000
     1.0000   1.0000   1.0000   1.0000   1.0000   1.0000   1.0000   1.0000
     1.0000   1.0000   1.0000   1.0000   1.0000   1.0000   1.0000   1.0000
     1.0000   1.0000   1.0000   1.0000   1.0000   1.0000   1.0000   1.0000
     1.0000   1.0000   1.0000   1.0000   1.0000   1.0000   1.0000   1.0000
     1.0000   1.0000   1.0000   1.0000   1.0000   1.0000   1.0000   1.0000
     1.0000   1.0000   1.0000   1.0000   1.0000   1.0000   1.0000   1.0000
     1.0000   1.0000   0.0000   0.0000   0.0000   0.0000   0.0000   0.0000
     0.0000   0.0000   0.0000   0.0000

          k = 0.2495-0.0806 0.0546 ( 19115 PWs)   bands (ev):

  -102.2846 -93.4782 -64.6944 -64.6357 -61.0012 -59.4175 -59.1966 -54.2021
   -54.0319 -53.9643 -29.0189 -28.9547 -28.9243 -28.8582 -28.8241 -28.7663
    -8.3198  -7.5588  -7.2568  -7.1342  -6.6807  -6.5086  -6.2894  -6.2494
     1.1034   2.1470   2.2945   2.4520   2.5265   2.7766   2.9146   3.3695
     3.7248   3.8189   4.3690   4.5879   5.0947   5.3572   5.4309   5.8895
     5.9614   6.0828   6.2583   6.4689   7.0593   7.3807   7.5284   7.7757
     8.2266   8.3986   8.5097   8.7284   8.8807   9.1505   9.3942   9.7272
    10.0771  10.1030  12.6467  12.9424  13.0691  13.3459  13.7809  14.3850
    15.8578  16.0881  17.6827  18.7931

     occupation numbers 
     1.0000   1.0000   1.0000   1.0000   1.0000   1.0000   1.0000   1.0000
     1.0000   1.0000   1.0000   1.0000   1.0000   1.0000   1.0000   1.0000
     1.0000   1.0000   1.0000   1.0000   1.0000   1.0000   1.0000   1.0000
     1.0000   1.0000   1.0000   1.0000   1.0000   1.0000   1.0000   1.0000
     1.0000   1.0000   1.0000   1.0000   1.0000   1.0000   1.0000   1.0000
     1.0000   1.0000   1.0000   1.0000   1.0000   1.0000   1.0000   1.0000
     1.0000   1.0000   1.0000   1.0000   1.0000   1.0000   1.0000   1.0000
     1.0000   1.0000   0.0000   0.0000   0.0000   0.0000   0.0000   0.0000
     0.0000   0.0000   0.0000   0.0000

          k = 0.2481-0.0806 0.1971 ( 19106 PWs)   bands (ev):

  -102.2846 -93.4782 -64.6944 -64.6360 -61.0012 -59.4175 -59.1966 -54.2021
   -54.0319 -53.9643 -29.0163 -28.9594 -28.9195 -28.8672 -28.8143 -28.7699
    -8.2600  -7.5509  -7.2823  -7.1062  -6.7448  -6.5966  -6.2504  -6.2189
     1.0998   2.1732   2.2892   2.4593   2.5409   2.7680   2.8359   3.4698
     3.7531   3.8503   4.3334   4.4487   5.2202   5.4351   5.4852   5.6040
     5.8387   6.1095   6.2760   6.7499   7.0989   7.4212   7.5315   7.9619
     8.0953   8.1416   8.3916   8.5832   8.9074   9.2599   9.4193   9.9118
     9.9660  10.1225  12.5645  12.9383  13.1023  13.3049  13.8587  14.2617
    16.0168  16.3425  17.6477  18.9465

     occupation numbers 
     1.0000   1.0000   1.0000   1.0000   1.0000   1.0000   1.0000   1.0000
     1.0000   1.0000   1.0000   1.0000   1.0000   1.0000   1.0000   1.0000
     1.0000   1.0000   1.0000   1.0000   1.0000   1.0000   1.0000   1.0000
     1.0000   1.0000   1.0000   1.0000   1.0000   1.0000   1.0000   1.0000
     1.0000   1.0000   1.0000   1.0000   1.0000   1.0000   1.0000   1.0000
     1.0000   1.0000   1.0000   1.0000   1.0000   1.0000   1.0000   1.0000
     1.0000   1.0000   1.0000   1.0000   1.0000   1.0000   1.0000   1.0000
     1.0000   1.0000   0.0000   0.0000   0.0000   0.0000   0.0000   0.0000
     0.0000   0.0000   0.0000   0.0000

          k = 0.2467-0.0806 0.3395 ( 19113 PWs)   bands (ev):

  -102.2846 -93.4782 -64.6943 -64.6361 -61.0012 -59.4175 -59.1966 -54.2021
   -54.0319 -53.9643 -29.0131 -28.9649 -28.9144 -28.8749 -28.8043 -28.7752
    -8.1064  -7.6218  -7.3550  -7.1506  -6.7866  -6.5668  -6.2381  -6.1938
     1.1069   2.1756   2.2931   2.4729   2.5287   2.7093   2.8647   3.5322
     3.7746   3.8484   4.2598   4.5022   5.0165   5.1925   5.5755   5.7454
     5.8493   6.1796   6.7663   6.8352   6.9320   7.0382   7.3148   7.6574
     8.0241   8.4566   8.5805   8.6977   8.9981   9.2515   9.6331   9.8197
    10.0095  10.1452  12.5031  12.6911  13.0580  13.4348  13.9748  14.1669
    15.9387  16.1232  18.3055  18.9449

     occupation numbers 
     1.0000   1.0000   1.0000   1.0000   1.0000   1.0000   1.0000   1.0000
     1.0000   1.0000   1.0000   1.0000   1.0000   1.0000   1.0000   1.0000
     1.0000   1.0000   1.0000   1.0000   1.0000   1.0000   1.0000   1.0000
     1.0000   1.0000   1.0000   1.0000   1.0000   1.0000   1.0000   1.0000
     1.0000   1.0000   1.0000   1.0000   1.0000   1.0000   1.0000   1.0000
     1.0000   1.0000   1.0000   1.0000   1.0000   1.0000   1.0000   1.0000
     1.0000   1.0000   1.0000   1.0000   1.0000   1.0000   1.0000   1.0000
     1.0000   1.0000   0.0000   0.0000   0.0000   0.0000   0.0000   0.0000
     0.0000   0.0000   0.0000   0.0000

          k = 0.2536-0.0805-0.3727 ( 19122 PWs)   bands (ev):

  -102.2846 -93.4782 -64.6943 -64.6360 -61.0012 -59.4175 -59.1966 -54.2021
   -54.0319 -53.9643 -29.0130 -28.9657 -28.9145 -28.8747 -28.8041 -28.7752
    -7.9365  -7.7983  -7.3967  -7.1914  -6.7415  -6.5083  -6.2440  -6.1992
     1.1187   2.1496   2.2996   2.4668   2.5124   2.7213   2.9019   3.4708
     3.7888   3.8337   4.3098   4.5945   4.9502   5.1081   5.4357   5.8051
     6.0247   6.0951   6.3726   6.5695   7.1917   7.3469   7.4779   7.7051
     8.0103   8.3396   8.5211   8.7558   9.1466   9.3663   9.6854   9.7468
    10.0309  10.1087  12.5100  12.7120  13.0156  13.4415  13.8829  14.2831
    15.7082  15.8176  18.5420  19.1268

     occupation numbers 
     1.0000   1.0000   1.0000   1.0000   1.0000   1.0000   1.0000   1.0000
     1.0000   1.0000   1.0000   1.0000   1.0000   1.0000   1.0000   1.0000
     1.0000   1.0000   1.0000   1.0000   1.0000   1.0000   1.0000   1.0000
     1.0000   1.0000   1.0000   1.0000   1.0000   1.0000   1.0000   1.0000
     1.0000   1.0000   1.0000   1.0000   1.0000   1.0000   1.0000   1.0000
     1.0000   1.0000   1.0000   1.0000   1.0000   1.0000   1.0000   1.0000
     1.0000   1.0000   1.0000   1.0000   1.0000   1.0000   1.0000   1.0000
     1.0000   1.0000   0.0000   0.0000   0.0000   0.0000   0.0000   0.0000
     0.0000   0.0000   0.0000   0.0000

          k = 0.2522-0.0805-0.2302 ( 19109 PWs)   bands (ev):

  -102.2846 -93.4782 -64.6943 -64.6357 -61.0012 -59.4175 -59.1966 -54.2021
   -54.0319 -53.9643 -29.0162 -28.9608 -28.9198 -28.8665 -28.8140 -28.7698
    -8.0840  -7.7223  -7.3688  -7.2084  -6.6442  -6.4449  -6.2929  -6.2385
     1.1214   2.1313   2.3093   2.4513   2.5215   2.7896   2.8795   3.3743
     3.7368   3.8337   4.4957   4.7781   4.9119   5.0238   5.2804   5.5279
     5.9149   6.1423   6.5610   6.8011   7.0403   7.3222   7.6182   7.9101
     7.9745   8.3577   8.4773   8.7333   9.1171   9.4487   9.5472   9.6070
    10.0708  10.0987  12.5954  12.7968  13.0431  13.4644  13.7940  14.3988
    15.5314  15.6667  18.1296  19.0949

     occupation numbers 
     1.0000   1.0000   1.0000   1.0000   1.0000   1.0000   1.0000   1.0000
     1.0000   1.0000   1.0000   1.0000   1.0000   1.0000   1.0000   1.0000
     1.0000   1.0000   1.0000   1.0000   1.0000   1.0000   1.0000   1.0000
     1.0000   1.0000   1.0000   1.0000   1.0000   1.0000   1.0000   1.0000
     1.0000   1.0000   1.0000   1.0000   1.0000   1.0000   1.0000   1.0000
     1.0000   1.0000   1.0000   1.0000   1.0000   1.0000   1.0000   1.0000
     1.0000   1.0000   1.0000   1.0000   1.0000   1.0000   1.0000   1.0000
     1.0000   1.0000   0.0000   0.0000   0.0000   0.0000   0.0000   0.0000
     0.0000   0.0000   0.0000   0.0000

          k = 0.2508-0.0806-0.0878 ( 19128 PWs)   bands (ev):

  -102.2846 -93.4782 -64.6944 -64.6356 -61.0012 -59.4175 -59.1966 -54.2021
   -54.0319 -53.9643 -29.0189 -28.9554 -28.9244 -28.8577 -28.8242 -28.7662
    -8.2576  -7.6139  -7.2961  -7.1965  -6.6107  -6.3969  -6.3545  -6.2685
     1.1133   2.1309   2.3062   2.4536   2.5206   2.8011   2.9094   3.3301
     3.6930   3.8230   4.4862   4.7807   4.9348   5.1160   5.2134   5.8499
     5.8953   6.2502   6.4130   6.7274   6.9452   7.2956   7.4264   7.8607
     8.1981   8.3486   8.4838   8.9203   9.1053   9.1452   9.4707   9.5973
    10.0710  10.1394  12.6668  12.8093  13.0024  13.5171  13.7762  14.4412
    15.6013  15.7543  17.9414  18.8130

     occupation numbers 
     1.0000   1.0000   1.0000   1.0000   1.0000   1.0000   1.0000   1.0000
     1.0000   1.0000   1.0000   1.0000   1.0000   1.0000   1.0000   1.0000
     1.0000   1.0000   1.0000   1.0000   1.0000   1.0000   1.0000   1.0000
     1.0000   1.0000   1.0000   1.0000   1.0000   1.0000   1.0000   1.0000
     1.0000   1.0000   1.0000   1.0000   1.0000   1.0000   1.0000   1.0000
     1.0000   1.0000   1.0000   1.0000   1.0000   1.0000   1.0000   1.0000
     1.0000   1.0000   1.0000   1.0000   1.0000   1.0000   1.0000   1.0000
     1.0000   1.0000   0.0000   0.0000   0.0000   0.0000   0.0000   0.0000
     0.0000   0.0000   0.0000   0.0000

          k = 0.4163 0.0620 0.0389 ( 19125 PWs)   bands (ev):

  -102.2846 -93.4782 -64.6944 -64.6356 -61.0012 -59.4175 -59.1966 -54.2021
   -54.0319 -53.9643 -29.0192 -28.9558 -28.9250 -28.8581 -28.8247 -28.7664
    -8.0550  -7.5943  -7.3873  -7.2223  -6.6473  -6.4581  -6.4090  -6.3021
     1.1199   2.1432   2.3214   2.4569   2.6573   2.8625   2.9429   3.5312
     3.6614   3.9280   4.3427   4.6269   4.8122   5.2543   5.5554   5.7338
     5.7906   6.0489   6.1880   6.5725   6.8614   7.2203   7.6666   7.7714
     8.1735   8.2181   8.5714   8.8608   9.1094   9.2451   9.6334   9.8811
    10.0076  10.2037  12.6160  12.8249  13.1371  13.2176  13.7014  14.4396
    15.8603  16.4363  18.1319  18.6051

     occupation numbers 
     1.0000   1.0000   1.0000   1.0000   1.0000   1.0000   1.0000   1.0000
     1.0000   1.0000   1.0000   1.0000   1.0000   1.0000   1.0000   1.0000
     1.0000   1.0000   1.0000   1.0000   1.0000   1.0000   1.0000   1.0000
     1.0000   1.0000   1.0000   1.0000   1.0000   1.0000   1.0000   1.0000
     1.0000   1.0000   1.0000   1.0000   1.0000   1.0000   1.0000   1.0000
     1.0000   1.0000   1.0000   1.0000   1.0000   1.0000   1.0000   1.0000
     1.0000   1.0000   1.0000   1.0000   1.0000   1.0000   1.0000   1.0000
     1.0000   1.0000   0.0000   0.0000   0.0000   0.0000   0.0000   0.0000
     0.0000   0.0000   0.0000   0.0000

          k = 0.4149 0.0620 0.1813 ( 19137 PWs)   bands (ev):

  -102.2846 -93.4782 -64.6944 -64.6361 -61.0012 -59.4175 -59.1966 -54.2021
   -54.0319 -53.9643 -29.0162 -28.9611 -28.9202 -28.8673 -28.8143 -28.7701
    -8.0396  -7.5959  -7.3013  -7.2178  -6.7248  -6.5544  -6.3706  -6.2819
     1.1256   2.1692   2.3396   2.4743   2.6129   2.8487   2.9756   3.5950
     3.7583   3.9085   4.3015   4.4565   4.8882   5.1622   5.2886   5.7915
     5.8980   6.0281   6.1464   6.3659   7.1197   7.2956   7.6578   8.0152
     8.1649   8.2930   8.7025   8.8614   8.9466   9.2074   9.5281   9.9052
    10.0457  10.1087  12.5687  12.9508  13.1170  13.2160  13.7759  14.3071
    15.8528  16.2614  18.3244  18.7704

     occupation numbers 
     1.0000   1.0000   1.0000   1.0000   1.0000   1.0000   1.0000   1.0000
     1.0000   1.0000   1.0000   1.0000   1.0000   1.0000   1.0000   1.0000
     1.0000   1.0000   1.0000   1.0000   1.0000   1.0000   1.0000   1.0000
     1.0000   1.0000   1.0000   1.0000   1.0000   1.0000   1.0000   1.0000
     1.0000   1.0000   1.0000   1.0000   1.0000   1.0000   1.0000   1.0000
     1.0000   1.0000   1.0000   1.0000   1.0000   1.0000   1.0000   1.0000
     1.0000   1.0000   1.0000   1.0000   1.0000   1.0000   1.0000   1.0000
     1.0000   1.0000   0.0000   0.0000   0.0000   0.0000   0.0000   0.0000
     0.0000   0.0000   0.0000   0.0000

          k = 0.4136 0.0620 0.3238 ( 19120 PWs)   bands (ev):

  -102.2846 -93.4782 -64.6943 -64.6364 -61.0012 -59.4175 -59.1966 -54.2021
   -54.0319 -53.9643 -29.0131 -28.9659 -28.9148 -28.8755 -28.8043 -28.7755
    -7.9547  -7.6396  -7.3168  -7.1734  -6.7393  -6.6581  -6.3464  -6.2673
     1.1380   2.1717   2.3665   2.5052   2.5664   2.8489   3.0515   3.6804
     3.8085   3.8967   4.2566   4.3210   4.6721   4.8281   5.3985   5.5884
     6.0583   6.2738   6.5613   6.6541   7.0084   7.1002   7.2830   7.4499
     8.4536   8.5557   8.7416   9.0134   9.2003   9.2949   9.5233   9.8285
     9.9765  10.1043  12.5636  12.7497  13.1199  13.3192  13.9745  14.1215
    15.7448  15.9395  18.8414  18.9715

     occupation numbers 
     1.0000   1.0000   1.0000   1.0000   1.0000   1.0000   1.0000   1.0000
     1.0000   1.0000   1.0000   1.0000   1.0000   1.0000   1.0000   1.0000
     1.0000   1.0000   1.0000   1.0000   1.0000   1.0000   1.0000   1.0000
     1.0000   1.0000   1.0000   1.0000   1.0000   1.0000   1.0000   1.0000
     1.0000   1.0000   1.0000   1.0000   1.0000   1.0000   1.0000   1.0000
     1.0000   1.0000   1.0000   1.0000   1.0000   1.0000   1.0000   1.0000
     1.0000   1.0000   1.0000   1.0000   1.0000   1.0000   1.0000   1.0000
     1.0000   1.0000   0.0000   0.0000   0.0000   0.0000   0.0000   0.0000
     0.0000   0.0000   0.0000   0.0000

          k = 0.4205 0.0620-0.3884 ( 19116 PWs)   bands (ev):

  -102.2846 -93.4782 -64.6943 -64.6363 -61.0012 -59.4175 -59.1966 -54.2021
   -54.0319 -53.9643 -29.0134 -28.9653 -28.9146 -28.8758 -28.8046 -28.7755
    -7.8584  -7.6983  -7.4046  -7.1576  -6.7683  -6.6016  -6.3432  -6.2620
     1.1454   2.1463   2.3781   2.4899   2.5939   2.8531   3.0570   3.6185
     3.7941   3.9433   4.2979   4.4205   4.6123   4.6985   5.3073   5.6554
     6.0461   6.3197   6.5653   6.7455   6.8308   7.1995   7.2455   7.5617
     8.3884   8.4238   8.7856   9.0522   9.2237   9.4015   9.6147   9.7846
     9.9548  10.1113  12.5559  12.7890  13.0365  13.3907  13.9031  14.1975
    15.6102  15.8157  18.7495  19.1506

     occupation numbers 
     1.0000   1.0000   1.0000   1.0000   1.0000   1.0000   1.0000   1.0000
     1.0000   1.0000   1.0000   1.0000   1.0000   1.0000   1.0000   1.0000
     1.0000   1.0000   1.0000   1.0000   1.0000   1.0000   1.0000   1.0000
     1.0000   1.0000   1.0000   1.0000   1.0000   1.0000   1.0000   1.0000
     1.0000   1.0000   1.0000   1.0000   1.0000   1.0000   1.0000   1.0000
     1.0000   1.0000   1.0000   1.0000   1.0000   1.0000   1.0000   1.0000
     1.0000   1.0000   1.0000   1.0000   1.0000   1.0000   1.0000   1.0000
     1.0000   1.0000   0.0000   0.0000   0.0000   0.0000   0.0000   0.0000
     0.0000   0.0000   0.0000   0.0000

          k = 0.4191 0.0620-0.2460 ( 19107 PWs)   bands (ev):

  -102.2846 -93.4782 -64.6943 -64.6359 -61.0012 -59.4175 -59.1966 -54.2021
   -54.0319 -53.9643 -29.0168 -28.9599 -28.9200 -28.8677 -28.8147 -28.7702
    -7.8777  -7.7013  -7.4578  -7.1888  -6.7044  -6.5157  -6.3624  -6.2753
     1.1410   2.1181   2.3664   2.4612   2.6482   2.8588   2.9822   3.5055
     3.7617   3.9456   4.4004   4.6541   4.7863   4.9329   5.0494   5.5338
     5.9744   6.1099   6.4483   6.5876   6.9294   7.3950   7.7155   7.9223
     8.1255   8.3086   8.4312   8.7862   9.2007   9.4632   9.6664   9.8192
     9.9539  10.1787  12.5888  12.8538  13.0119  13.4399  13.7326  14.3644
    15.5816  15.9557  18.4876  18.9315

     occupation numbers 
     1.0000   1.0000   1.0000   1.0000   1.0000   1.0000   1.0000   1.0000
     1.0000   1.0000   1.0000   1.0000   1.0000   1.0000   1.0000   1.0000
     1.0000   1.0000   1.0000   1.0000   1.0000   1.0000   1.0000   1.0000
     1.0000   1.0000   1.0000   1.0000   1.0000   1.0000   1.0000   1.0000
     1.0000   1.0000   1.0000   1.0000   1.0000   1.0000   1.0000   1.0000
     1.0000   1.0000   1.0000   1.0000   1.0000   1.0000   1.0000   1.0000
     1.0000   1.0000   1.0000   1.0000   1.0000   1.0000   1.0000   1.0000
     1.0000   1.0000   0.0000   0.0000   0.0000   0.0000   0.0000   0.0000
     0.0000   0.0000   0.0000   0.0000

          k = 0.4177 0.0620-0.1035 ( 19129 PWs)   bands (ev):

  -102.2846 -93.4782 -64.6943 -64.6355 -61.0012 -59.4175 -59.1966 -54.2021
   -54.0319 -53.9643 -29.0194 -28.9552 -28.9250 -28.8583 -28.8249 -28.7665
    -7.9876  -7.6473  -7.4392  -7.2195  -6.6039  -6.4999  -6.3605  -6.3161
     1.1277   2.1172   2.3364   2.4519   2.6687   2.8923   2.9281   3.4823
     3.6709   3.9415   4.4416   4.5579   4.9472   5.1631   5.2429   5.5613
     5.9673   6.0433   6.3056   6.6998   6.8973   7.3717   7.6184   7.7757
     8.0355   8.1764   8.4241   8.8221   9.2484   9.4246   9.7123   9.8060
     9.9660  10.2414  12.6468  12.7187  13.0595  13.3773  13.6996  14.4607
    15.7189  16.2458  18.3238  18.6594

     occupation numbers 
     1.0000   1.0000   1.0000   1.0000   1.0000   1.0000   1.0000   1.0000
     1.0000   1.0000   1.0000   1.0000   1.0000   1.0000   1.0000   1.0000
     1.0000   1.0000   1.0000   1.0000   1.0000   1.0000   1.0000   1.0000
     1.0000   1.0000   1.0000   1.0000   1.0000   1.0000   1.0000   1.0000
     1.0000   1.0000   1.0000   1.0000   1.0000   1.0000   1.0000   1.0000
     1.0000   1.0000   1.0000   1.0000   1.0000   1.0000   1.0000   1.0000
     1.0000   1.0000   1.0000   1.0000   1.0000   1.0000   1.0000   1.0000
     1.0000   1.0000   0.0000   0.0000   0.0000   0.0000   0.0000   0.0000
     0.0000   0.0000   0.0000   0.0000

          k = 0.4164 0.2092 0.0354 ( 19145 PWs)   bands (ev):

  -102.2845 -93.4782 -64.6949 -64.6357 -61.0012 -59.4175 -59.1966 -54.2021
   -54.0319 -53.9643 -29.0183 -28.9552 -28.9244 -28.8590 -28.8248 -28.7668
    -8.0307  -7.5666  -7.4770  -7.2561  -6.6334  -6.4491  -6.4081  -6.2280
     1.0189   2.0918   2.3047   2.4427   2.6248   2.7959   2.9013   3.4547
     3.6761   3.9992   4.3958   4.7752   5.1305   5.3359   5.5303   5.8375
     6.0379   6.1588   6.2639   6.6981   6.9416   7.3154   7.4174   7.6422
     8.0920   8.1610   8.4585   8.9380   9.0572   9.2481   9.3266   9.3831
     9.6587  10.0975  12.6667  12.8959  13.1444  13.2185  13.8565  14.4676
    15.9835  16.4491  17.7923  18.6136

     occupation numbers 
     1.0000   1.0000   1.0000   1.0000   1.0000   1.0000   1.0000   1.0000
     1.0000   1.0000   1.0000   1.0000   1.0000   1.0000   1.0000   1.0000
     1.0000   1.0000   1.0000   1.0000   1.0000   1.0000   1.0000   1.0000
     1.0000   1.0000   1.0000   1.0000   1.0000   1.0000   1.0000   1.0000
     1.0000   1.0000   1.0000   1.0000   1.0000   1.0000   1.0000   1.0000
     1.0000   1.0000   1.0000   1.0000   1.0000   1.0000   1.0000   1.0000
     1.0000   1.0000   1.0000   1.0000   1.0000   1.0000   1.0000   1.0000
     1.0000   1.0000   0.0000   0.0000   0.0000   0.0000   0.0000   0.0000
     0.0000   0.0000   0.0000   0.0000

          k = 0.4150 0.2092 0.1779 ( 19157 PWs)   bands (ev):

  -102.2845 -93.4782 -64.6949 -64.6362 -61.0012 -59.4175 -59.1966 -54.2021
   -54.0319 -53.9643 -29.0157 -28.9618 -28.9196 -28.8674 -28.8139 -28.7699
    -8.0086  -7.5943  -7.3943  -7.2996  -6.6375  -6.4752  -6.3648  -6.2803
     1.0243   2.1069   2.3349   2.4226   2.6048   2.7874   2.9268   3.5312
     3.7557   3.9648   4.3719   4.7435   4.8767   5.1906   5.5302   5.7688
     6.0127   6.0731   6.2818   6.6380   7.3148   7.3782   7.6913   7.9617
     8.1003   8.3327   8.3809   8.5406   8.9254   9.1681   9.3419   9.4154
     9.7970   9.9810  12.5687  12.8415  13.1894  13.3114  13.8913  14.3128
    15.9233  16.2775  18.2185  18.7462

     occupation numbers 
     1.0000   1.0000   1.0000   1.0000   1.0000   1.0000   1.0000   1.0000
     1.0000   1.0000   1.0000   1.0000   1.0000   1.0000   1.0000   1.0000
     1.0000   1.0000   1.0000   1.0000   1.0000   1.0000   1.0000   1.0000
     1.0000   1.0000   1.0000   1.0000   1.0000   1.0000   1.0000   1.0000
     1.0000   1.0000   1.0000   1.0000   1.0000   1.0000   1.0000   1.0000
     1.0000   1.0000   1.0000   1.0000   1.0000   1.0000   1.0000   1.0000
     1.0000   1.0000   1.0000   1.0000   1.0000   1.0000   1.0000   1.0000
     1.0000   1.0000   0.0000   0.0000   0.0000   0.0000   0.0000   0.0000
     0.0000   0.0000   0.0000   0.0000

          k = 0.4136 0.2092 0.3203 ( 19148 PWs)   bands (ev):

  -102.2846 -93.4782 -64.6949 -64.6365 -61.0012 -59.4175 -59.1966 -54.2021
   -54.0319 -53.9643 -29.0131 -28.9672 -28.9145 -28.8751 -28.8032 -28.7751
    -7.9307  -7.6415  -7.4115  -7.2928  -6.5860  -6.5080  -6.3715  -6.3190
     1.0369   2.0974   2.3922   2.4033   2.5565   2.8222   2.9629   3.5933
     3.8020   3.9401   4.3895   4.5704   4.7060   5.0006   5.4221   5.5647
     6.2516   6.3847   6.5739   6.8408   7.0877   7.3596   7.4314   7.6793
     8.2374   8.4808   8.5334   8.7081   8.9657   9.0754   9.3318   9.4920
     9.8302   9.9617  12.5231  12.6243  13.2462  13.4344  13.9807  14.1329
    15.8003  15.9780  18.7269  18.9189

     occupation numbers 
     1.0000   1.0000   1.0000   1.0000   1.0000   1.0000   1.0000   1.0000
     1.0000   1.0000   1.0000   1.0000   1.0000   1.0000   1.0000   1.0000
     1.0000   1.0000   1.0000   1.0000   1.0000   1.0000   1.0000   1.0000
     1.0000   1.0000   1.0000   1.0000   1.0000   1.0000   1.0000   1.0000
     1.0000   1.0000   1.0000   1.0000   1.0000   1.0000   1.0000   1.0000
     1.0000   1.0000   1.0000   1.0000   1.0000   1.0000   1.0000   1.0000
     1.0000   1.0000   1.0000   1.0000   1.0000   1.0000   1.0000   1.0000
     1.0000   1.0000   0.0000   0.0000   0.0000   0.0000   0.0000   0.0000
     0.0000   0.0000   0.0000   0.0000

          k = 0.4205 0.2092-0.3919 ( 19143 PWs)   bands (ev):

  -102.2845 -93.4782 -64.6949 -64.6364 -61.0012 -59.4175 -59.1966 -54.2021
   -54.0319 -53.9643 -29.0138 -28.9659 -28.9141 -28.8757 -28.8038 -28.7750
    -7.8645  -7.6823  -7.4877  -7.2287  -6.6640  -6.4632  -6.3618  -6.3094
     1.0429   2.0701   2.3886   2.4483   2.5415   2.8423   2.9435   3.5498
     3.7800   3.9730   4.3748   4.5210   4.8284   4.9366   5.4757   5.6134
     6.0857   6.5343   6.6780   6.8463   6.9127   7.2713   7.4904   7.6871
     8.1895   8.2335   8.6402   8.8748   8.9904   9.0743   9.3392   9.5601
     9.7945  10.0211  12.5004  12.6775  13.2265  13.4847  13.8874  14.2267
    15.6719  15.8675  18.4575  19.2505

     occupation numbers 
     1.0000   1.0000   1.0000   1.0000   1.0000   1.0000   1.0000   1.0000
     1.0000   1.0000   1.0000   1.0000   1.0000   1.0000   1.0000   1.0000
     1.0000   1.0000   1.0000   1.0000   1.0000   1.0000   1.0000   1.0000
     1.0000   1.0000   1.0000   1.0000   1.0000   1.0000   1.0000   1.0000
     1.0000   1.0000   1.0000   1.0000   1.0000   1.0000   1.0000   1.0000
     1.0000   1.0000   1.0000   1.0000   1.0000   1.0000   1.0000   1.0000
     1.0000   1.0000   1.0000   1.0000   1.0000   1.0000   1.0000   1.0000
     1.0000   1.0000   0.0000   0.0000   0.0000   0.0000   0.0000   0.0000
     0.0000   0.0000   0.0000   0.0000

          k = 0.4191 0.2092-0.2494 ( 19114 PWs)   bands (ev):

  -102.2845 -93.4782 -64.6949 -64.6360 -61.0012 -59.4175 -59.1966 -54.2021
   -54.0319 -53.9643 -29.0168 -28.9593 -28.9192 -28.8685 -28.8147 -28.7701
    -7.9016  -7.6737  -7.5005  -7.2085  -6.6992  -6.4461  -6.3658  -6.2603
     1.0377   2.0487   2.3605   2.4642   2.5840   2.8322   2.8979   3.4607
     3.7208   4.0039   4.3694   4.7110   4.9394   5.3245   5.4373   5.5628
     6.0675   6.3170   6.3813   6.6522   7.0717   7.3372   7.5387   7.8805
     8.0272   8.3489   8.4161   8.7398   9.0232   9.0977   9.3486   9.5557
     9.7706  10.0762  12.5614  12.8795  13.1460  13.4526  13.8101  14.4014
    15.6811  15.9849  18.0714  19.0546

     occupation numbers 
     1.0000   1.0000   1.0000   1.0000   1.0000   1.0000   1.0000   1.0000
     1.0000   1.0000   1.0000   1.0000   1.0000   1.0000   1.0000   1.0000
     1.0000   1.0000   1.0000   1.0000   1.0000   1.0000   1.0000   1.0000
     1.0000   1.0000   1.0000   1.0000   1.0000   1.0000   1.0000   1.0000
     1.0000   1.0000   1.0000   1.0000   1.0000   1.0000   1.0000   1.0000
     1.0000   1.0000   1.0000   1.0000   1.0000   1.0000   1.0000   1.0000
     1.0000   1.0000   1.0000   1.0000   1.0000   1.0000   1.0000   1.0000
     1.0000   1.0000   0.0000   0.0000   0.0000   0.0000   0.0000   0.0000
     0.0000   0.0000   0.0000   0.0000

          k = 0.4178 0.2092-0.1070 ( 19114 PWs)   bands (ev):

  -102.2845 -93.4782 -64.6949 -64.6357 -61.0012 -59.4175 -59.1966 -54.2021
   -54.0319 -53.9643 -29.0187 -28.9540 -28.9243 -28.8595 -28.8251 -28.7670
    -7.9845  -7.6203  -7.4919  -7.2352  -6.6422  -6.4472  -6.4031  -6.2255
     1.0263   2.0597   2.3214   2.4569   2.6138   2.8329   2.8811   3.4232
     3.6603   4.0125   4.4028   4.8077   5.0567   5.3901   5.5193   5.8620
     5.9605   6.1178   6.4639   6.7187   6.9547   7.1253   7.4271   7.6044
     8.0331   8.1785   8.5518   8.8840   9.1016   9.2158   9.3685   9.4212
     9.6878  10.1344  12.6658  12.8600  13.1114  13.3558  13.8248  14.5007
    15.8586  16.2629  17.7970  18.7517

     occupation numbers 
     1.0000   1.0000   1.0000   1.0000   1.0000   1.0000   1.0000   1.0000
     1.0000   1.0000   1.0000   1.0000   1.0000   1.0000   1.0000   1.0000
     1.0000   1.0000   1.0000   1.0000   1.0000   1.0000   1.0000   1.0000
     1.0000   1.0000   1.0000   1.0000   1.0000   1.0000   1.0000   1.0000
     1.0000   1.0000   1.0000   1.0000   1.0000   1.0000   1.0000   1.0000
     1.0000   1.0000   1.0000   1.0000   1.0000   1.0000   1.0000   1.0000
     1.0000   1.0000   1.0000   1.0000   1.0000   1.0000   1.0000   1.0000
     1.0000   1.0000   0.0000   0.0000   0.0000   0.0000   0.0000   0.0000
     0.0000   0.0000   0.0000   0.0000

          k = 0.4165 0.3564 0.0319 ( 19142 PWs)   bands (ev):

  -102.2845 -93.4782 -64.6955 -64.6358 -61.0012 -59.4175 -59.1966 -54.2021
   -54.0319 -53.9643 -29.0177 -28.9541 -28.9236 -28.8601 -28.8251 -28.7673
    -7.9689  -7.6077  -7.5049  -7.2797  -6.6775  -6.5191  -6.3288  -6.1432
     0.9601   2.0515   2.2750   2.4616   2.5610   2.7435   2.8500   3.3845
     3.6825   4.0661   4.3942   5.0606   5.3829   5.4893   5.5736   5.9347
     5.9983   6.1269   6.7085   6.8731   7.0084   7.2090   7.3916   7.6195
     7.9267   8.0849   8.3548   8.7432   8.9306   8.9751   9.1057   9.2026
     9.4006   9.9692  12.7320  12.9592  13.0965  13.3076  14.0287  14.4359
    16.0664  16.4624  17.5061  18.6685

     occupation numbers 
     1.0000   1.0000   1.0000   1.0000   1.0000   1.0000   1.0000   1.0000
     1.0000   1.0000   1.0000   1.0000   1.0000   1.0000   1.0000   1.0000
     1.0000   1.0000   1.0000   1.0000   1.0000   1.0000   1.0000   1.0000
     1.0000   1.0000   1.0000   1.0000   1.0000   1.0000   1.0000   1.0000
     1.0000   1.0000   1.0000   1.0000   1.0000   1.0000   1.0000   1.0000
     1.0000   1.0000   1.0000   1.0000   1.0000   1.0000   1.0000   1.0000
     1.0000   1.0000   1.0000   1.0000   1.0000   1.0000   1.0000   1.0000
     1.0000   1.0000   0.0000   0.0000   0.0000   0.0000   0.0000   0.0000
     0.0000   0.0000   0.0000   0.0000

          k = 0.4151 0.3564 0.1744 ( 19148 PWs)   bands (ev):

  -102.2845 -93.4782 -64.6955 -64.6362 -61.0012 -59.4175 -59.1966 -54.2021
   -54.0319 -53.9643 -29.0158 -28.9612 -28.9188 -28.8680 -28.8138 -28.7699
    -7.9392  -7.6383  -7.4534  -7.3382  -6.6288  -6.5107  -6.3080  -6.2133
     0.9630   2.0501   2.3118   2.4355   2.5644   2.7668   2.8387   3.4709
     3.7131   4.0446   4.4021   4.7768   5.1154   5.2542   5.7974   5.8789
     6.0148   6.1123   6.7718   6.9144   7.1020   7.4206   7.6656   7.8855
     7.9845   8.1830   8.4219   8.5141   8.8067   8.9170   8.9817   9.1537
     9.5702   9.8088  12.6011  12.7059  13.2818  13.4024  14.0464  14.2585
    15.9601  16.2946  18.0809  18.7429

     occupation numbers 
     1.0000   1.0000   1.0000   1.0000   1.0000   1.0000   1.0000   1.0000
     1.0000   1.0000   1.0000   1.0000   1.0000   1.0000   1.0000   1.0000
     1.0000   1.0000   1.0000   1.0000   1.0000   1.0000   1.0000   1.0000
     1.0000   1.0000   1.0000   1.0000   1.0000   1.0000   1.0000   1.0000
     1.0000   1.0000   1.0000   1.0000   1.0000   1.0000   1.0000   1.0000
     1.0000   1.0000   1.0000   1.0000   1.0000   1.0000   1.0000   1.0000
     1.0000   1.0000   1.0000   1.0000   1.0000   1.0000   1.0000   1.0000
     1.0000   1.0000   0.0000   0.0000   0.0000   0.0000   0.0000   0.0000
     0.0000   0.0000   0.0000   0.0000

          k = 0.4137 0.3564 0.3168 ( 19168 PWs)   bands (ev):

  -102.2845 -93.4783 -64.6954 -64.6366 -61.0012 -59.4175 -59.1966 -54.2021
   -54.0319 -53.9643 -29.0136 -28.9678 -28.9140 -28.8749 -28.8025 -28.7746
    -7.8800  -7.6539  -7.4593  -7.3872  -6.5384  -6.4368  -6.3650  -6.3125
     0.9731   2.0490   2.3408   2.4167   2.5473   2.7907   2.8430   3.5382
     3.7414   4.0168   4.3921   4.5649   4.9369   5.1463   5.6541   5.7566
     6.3534   6.5093   6.7484   6.9571   7.0224   7.4116   7.6722   7.9214
     8.0333   8.3150   8.4563   8.5250   8.7426   8.8250   8.8985   9.2856
     9.6438   9.8149  12.4673  12.5295  13.3907  13.5126  13.9821  14.1406
    15.8460  16.0056  18.6341  18.8505

     occupation numbers 
     1.0000   1.0000   1.0000   1.0000   1.0000   1.0000   1.0000   1.0000
     1.0000   1.0000   1.0000   1.0000   1.0000   1.0000   1.0000   1.0000
     1.0000   1.0000   1.0000   1.0000   1.0000   1.0000   1.0000   1.0000
     1.0000   1.0000   1.0000   1.0000   1.0000   1.0000   1.0000   1.0000
     1.0000   1.0000   1.0000   1.0000   1.0000   1.0000   1.0000   1.0000
     1.0000   1.0000   1.0000   1.0000   1.0000   1.0000   1.0000   1.0000
     1.0000   1.0000   1.0000   1.0000   1.0000   1.0000   1.0000   1.0000
     1.0000   1.0000   0.0000   0.0000   0.0000   0.0000   0.0000   0.0000
     0.0000   0.0000   0.0000   0.0000

          k = 0.4206 0.3565-0.3954 ( 19169 PWs)   bands (ev):

  -102.2845 -93.4783 -64.6954 -64.6365 -61.0012 -59.4175 -59.1966 -54.2021
   -54.0319 -53.9643 -29.0140 -28.9672 -28.9139 -28.8752 -28.8028 -28.7746
    -7.8615  -7.6466  -7.5250  -7.3231  -6.6046  -6.4155  -6.3617  -6.2973
     0.9779   2.0405   2.3263   2.4545   2.5387   2.7888   2.8233   3.4835
     3.7625   4.0005   4.3423   4.5759   4.9886   5.3407   5.6601   5.7775
     6.2331   6.5531   6.6345   6.9108   7.2130   7.4035   7.6700   7.8281
     8.0100   8.1154   8.2230   8.5815   8.7657   8.8752   9.1298   9.3263
     9.6335   9.9106  12.4190  12.6492  13.3985  13.5265  13.8515  14.2606
    15.7391  15.8916  18.2837  19.2521

     occupation numbers 
     1.0000   1.0000   1.0000   1.0000   1.0000   1.0000   1.0000   1.0000
     1.0000   1.0000   1.0000   1.0000   1.0000   1.0000   1.0000   1.0000
     1.0000   1.0000   1.0000   1.0000   1.0000   1.0000   1.0000   1.0000
     1.0000   1.0000   1.0000   1.0000   1.0000   1.0000   1.0000   1.0000
     1.0000   1.0000   1.0000   1.0000   1.0000   1.0000   1.0000   1.0000
     1.0000   1.0000   1.0000   1.0000   1.0000   1.0000   1.0000   1.0000
     1.0000   1.0000   1.0000   1.0000   1.0000   1.0000   1.0000   1.0000
     1.0000   1.0000   0.0000   0.0000   0.0000   0.0000   0.0000   0.0000
     0.0000   0.0000   0.0000   0.0000

          k = 0.4192 0.3564-0.2529 ( 19142 PWs)   bands (ev):

  -102.2845 -93.4782 -64.6954 -64.6361 -61.0012 -59.4175 -59.1966 -54.2021
   -54.0319 -53.9643 -29.0164 -28.9600 -28.9188 -28.8685 -28.8142 -28.7700
    -7.9056  -7.6277  -7.5343  -7.2567  -6.7223  -6.4493  -6.3349  -6.2036
     0.9731   2.0320   2.3032   2.4903   2.5425   2.7460   2.8277   3.3898
     3.7221   4.0374   4.3474   4.7532   5.2306   5.6056   5.7789   5.8710
     5.9726   6.3353   6.4726   6.9657   7.0493   7.2487   7.6084   7.6945
     7.9637   8.1036   8.4208   8.5266   8.7594   8.8919   9.1278   9.4066
     9.5455   9.9700  12.5351  12.9239  13.2988  13.4337  13.8538  14.4309
    15.7539  16.0117  17.7995  19.1282

     occupation numbers 
     1.0000   1.0000   1.0000   1.0000   1.0000   1.0000   1.0000   1.0000
     1.0000   1.0000   1.0000   1.0000   1.0000   1.0000   1.0000   1.0000
     1.0000   1.0000   1.0000   1.0000   1.0000   1.0000   1.0000   1.0000
     1.0000   1.0000   1.0000   1.0000   1.0000   1.0000   1.0000   1.0000
     1.0000   1.0000   1.0000   1.0000   1.0000   1.0000   1.0000   1.0000
     1.0000   1.0000   1.0000   1.0000   1.0000   1.0000   1.0000   1.0000
     1.0000   1.0000   1.0000   1.0000   1.0000   1.0000   1.0000   1.0000
     1.0000   1.0000   0.0000   0.0000   0.0000   0.0000   0.0000   0.0000
     0.0000   0.0000   0.0000   0.0000

          k = 0.4178 0.3564-0.1105 ( 19125 PWs)   bands (ev):

  -102.2845 -93.4782 -64.6955 -64.6358 -61.0012 -59.4175 -59.1966 -54.2021
   -54.0319 -53.9643 -29.0179 -28.9534 -28.9237 -28.8604 -28.8252 -28.7673
    -7.9528  -7.5968  -7.5396  -7.2552  -6.7147  -6.4862  -6.3389  -6.1478
     0.9653   2.0412   2.2741   2.4862   2.5482   2.7364   2.8451   3.3526
     3.6814   4.0668   4.3756   5.0482   5.3427   5.5816   5.6828   5.9243
     6.2368   6.2666   6.4743   6.6007   6.9284   7.2513   7.4557   7.5940
     7.8428   8.0319   8.4706   8.6323   8.8797   9.0332   9.1169   9.3373
     9.4191  10.0240  12.6840  13.0345  13.1766  13.3105  13.9425  14.5039
    15.9544  16.2952  17.4368  18.8296

     occupation numbers 
     1.0000   1.0000   1.0000   1.0000   1.0000   1.0000   1.0000   1.0000
     1.0000   1.0000   1.0000   1.0000   1.0000   1.0000   1.0000   1.0000
     1.0000   1.0000   1.0000   1.0000   1.0000   1.0000   1.0000   1.0000
     1.0000   1.0000   1.0000   1.0000   1.0000   1.0000   1.0000   1.0000
     1.0000   1.0000   1.0000   1.0000   1.0000   1.0000   1.0000   1.0000
     1.0000   1.0000   1.0000   1.0000   1.0000   1.0000   1.0000   1.0000
     1.0000   1.0000   1.0000   1.0000   1.0000   1.0000   1.0000   1.0000
     1.0000   1.0000   0.0000   0.0000   0.0000   0.0000   0.0000   0.0000
     0.0000   0.0000   0.0000   0.0000

          k = 0.4161-0.3796 0.0494 ( 19145 PWs)   bands (ev):

  -102.2845 -93.4782 -64.6955 -64.6358 -61.0012 -59.4175 -59.1966 -54.2021
   -54.0319 -53.9643 -29.0180 -28.9535 -28.9235 -28.8604 -28.8252 -28.7673
    -7.8880  -7.7258  -7.4633  -7.2688  -6.6989  -6.5322  -6.3198  -6.1412
     0.9957   2.0522   2.2995   2.4629   2.5162   2.7519   2.8662   3.3711
     3.6793   4.0633   4.3933   5.0811   5.2753   5.4980   5.6452   5.8720
     6.0093   6.1301   6.6541   6.8659   7.1175   7.1795   7.4290   7.6326
     7.9199   8.0615   8.4107   8.6585   8.8879   9.0195   9.1017   9.2370
     9.3925   9.9672  12.7441  12.9784  13.0689  13.3335  14.0299  14.4286
    16.0587  16.4592  17.5021  18.6749

     occupation numbers 
     1.0000   1.0000   1.0000   1.0000   1.0000   1.0000   1.0000   1.0000
     1.0000   1.0000   1.0000   1.0000   1.0000   1.0000   1.0000   1.0000
     1.0000   1.0000   1.0000   1.0000   1.0000   1.0000   1.0000   1.0000
     1.0000   1.0000   1.0000   1.0000   1.0000   1.0000   1.0000   1.0000
     1.0000   1.0000   1.0000   1.0000   1.0000   1.0000   1.0000   1.0000
     1.0000   1.0000   1.0000   1.0000   1.0000   1.0000   1.0000   1.0000
     1.0000   1.0000   1.0000   1.0000   1.0000   1.0000   1.0000   1.0000
     1.0000   1.0000   0.0000   0.0000   0.0000   0.0000   0.0000   0.0000
     0.0000   0.0000   0.0000   0.0000

          k = 0.4147-0.3796 0.1918 ( 19123 PWs)   bands (ev):

  -102.2846 -93.4782 -64.6955 -64.6362 -61.0012 -59.4175 -59.1966 -54.2021
   -54.0319 -53.9643 -29.0164 -28.9600 -28.9186 -28.8685 -28.8142 -28.7700
    -7.8682  -7.7149  -7.4505  -7.3146  -6.6574  -6.5313  -6.2979  -6.2038
     0.9967   2.0541   2.3450   2.4418   2.5233   2.7641   2.8493   3.4589
     3.7048   4.0472   4.3995   4.7771   5.0667   5.2625   5.7816   5.8439
     6.0357   6.1431   6.7563   6.9069   7.1258   7.4738   7.6739   7.8962
     7.9297   8.2019   8.4462   8.4724   8.6946   8.9404   9.0202   9.1988
     9.5788   9.7991  12.5844  12.7184  13.2949  13.4249  14.0700  14.2386
    15.9466  16.2858  18.0812  18.7445

     occupation numbers 
     1.0000   1.0000   1.0000   1.0000   1.0000   1.0000   1.0000   1.0000
     1.0000   1.0000   1.0000   1.0000   1.0000   1.0000   1.0000   1.0000
     1.0000   1.0000   1.0000   1.0000   1.0000   1.0000   1.0000   1.0000
     1.0000   1.0000   1.0000   1.0000   1.0000   1.0000   1.0000   1.0000
     1.0000   1.0000   1.0000   1.0000   1.0000   1.0000   1.0000   1.0000
     1.0000   1.0000   1.0000   1.0000   1.0000   1.0000   1.0000   1.0000
     1.0000   1.0000   1.0000   1.0000   1.0000   1.0000   1.0000   1.0000
     1.0000   1.0000   0.0000   0.0000   0.0000   0.0000   0.0000   0.0000
     0.0000   0.0000   0.0000   0.0000

          k = 0.4134-0.3796 0.3342 ( 19154 PWs)   bands (ev):

  -102.2846 -93.4783 -64.6954 -64.6366 -61.0012 -59.4175 -59.1966 -54.2021
   -54.0319 -53.9643 -29.0141 -28.9671 -28.9140 -28.8750 -28.8028 -28.7746
    -7.8390  -7.6586  -7.4767  -7.3907  -6.5863  -6.4595  -6.3283  -6.3027
     1.0046   2.0746   2.3550   2.4210   2.5443   2.7506   2.8388   3.5593
     3.7056   4.0232   4.3816   4.5529   4.9506   5.1318   5.6299   5.7456
     6.3955   6.5201   6.7681   6.8946   7.0211   7.4548   7.6647   7.9500
     8.0086   8.2497   8.4769   8.5676   8.7407   8.7787   8.9177   9.3184
     9.6316   9.8219  12.4121  12.5779  13.4315  13.4961  13.9808  14.1449
    15.8356  16.0051  18.6514  18.8284

     occupation numbers 
     1.0000   1.0000   1.0000   1.0000   1.0000   1.0000   1.0000   1.0000
     1.0000   1.0000   1.0000   1.0000   1.0000   1.0000   1.0000   1.0000
     1.0000   1.0000   1.0000   1.0000   1.0000   1.0000   1.0000   1.0000
     1.0000   1.0000   1.0000   1.0000   1.0000   1.0000   1.0000   1.0000
     1.0000   1.0000   1.0000   1.0000   1.0000   1.0000   1.0000   1.0000
     1.0000   1.0000   1.0000   1.0000   1.0000   1.0000   1.0000   1.0000
     1.0000   1.0000   1.0000   1.0000   1.0000   1.0000   1.0000   1.0000
     1.0000   1.0000   0.0000   0.0000   0.0000   0.0000   0.0000   0.0000
     0.0000   0.0000   0.0000   0.0000

          k = 0.4203-0.3796-0.3779 ( 19153 PWs)   bands (ev):

  -102.2846 -93.4783 -64.6954 -64.6365 -61.0012 -59.4175 -59.1966 -54.2021
   -54.0319 -53.9643 -29.0138 -28.9678 -28.9142 -28.8748 -28.8025 -28.7746
    -7.8379  -7.6087  -7.5299  -7.3767  -6.6320  -6.4094  -6.3621  -6.2866
     1.0097   2.0857   2.3120   2.4525   2.5572   2.7195   2.8262   3.5091
     3.7444   3.9884   4.3363   4.5655   5.0019   5.3429   5.6559   5.7803
     6.2260   6.5278   6.5958   6.8716   7.3177   7.3781   7.7203   7.8075
     7.9810   8.1348   8.2749   8.6316   8.6855   8.8622   9.1454   9.3218
     9.6154   9.9257  12.3885  12.6869  13.4261  13.4981  13.8283  14.2708
    15.7603  15.8794  18.2971  19.2310

     occupation numbers 
     1.0000   1.0000   1.0000   1.0000   1.0000   1.0000   1.0000   1.0000
     1.0000   1.0000   1.0000   1.0000   1.0000   1.0000   1.0000   1.0000
     1.0000   1.0000   1.0000   1.0000   1.0000   1.0000   1.0000   1.0000
     1.0000   1.0000   1.0000   1.0000   1.0000   1.0000   1.0000   1.0000
     1.0000   1.0000   1.0000   1.0000   1.0000   1.0000   1.0000   1.0000
     1.0000   1.0000   1.0000   1.0000   1.0000   1.0000   1.0000   1.0000
     1.0000   1.0000   1.0000   1.0000   1.0000   1.0000   1.0000   1.0000
     1.0000   1.0000   0.0000   0.0000   0.0000   0.0000   0.0000   0.0000
     0.0000   0.0000   0.0000   0.0000

          k = 0.4189-0.3796-0.2355 ( 19143 PWs)   bands (ev):

  -102.2845 -93.4782 -64.6954 -64.6361 -61.0012 -59.4175 -59.1966 -54.2021
   -54.0319 -53.9643 -29.0160 -28.9612 -28.9191 -28.8679 -28.8138 -28.7699
    -7.8683  -7.6115  -7.5568  -7.2929  -6.7300  -6.4482  -6.3281  -6.2060
     1.0052   2.0814   2.2794   2.4914   2.5444   2.6969   2.8292   3.4045
     3.7109   4.0247   4.3445   4.7604   5.2396   5.5259   5.8430   5.8942
     5.9809   6.2599   6.4372   6.9457   7.0887   7.3037   7.6353   7.6913
     7.9237   8.1930   8.4177   8.4932   8.7596   8.8591   9.1321   9.4089
     9.5455   9.9783  12.5259  12.9628  13.3090  13.3909  13.8274  14.4397
    15.7712  16.0138  17.8018  19.1179

     occupation numbers 
     1.0000   1.0000   1.0000   1.0000   1.0000   1.0000   1.0000   1.0000
     1.0000   1.0000   1.0000   1.0000   1.0000   1.0000   1.0000   1.0000
     1.0000   1.0000   1.0000   1.0000   1.0000   1.0000   1.0000   1.0000
     1.0000   1.0000   1.0000   1.0000   1.0000   1.0000   1.0000   1.0000
     1.0000   1.0000   1.0000   1.0000   1.0000   1.0000   1.0000   1.0000
     1.0000   1.0000   1.0000   1.0000   1.0000   1.0000   1.0000   1.0000
     1.0000   1.0000   1.0000   1.0000   1.0000   1.0000   1.0000   1.0000
     1.0000   1.0000   0.0000   0.0000   0.0000   0.0000   0.0000   0.0000
     0.0000   0.0000   0.0000   0.0000

          k = 0.4175-0.3796-0.0931 ( 19133 PWs)   bands (ev):

  -102.2845 -93.4782 -64.6954 -64.6358 -61.0012 -59.4175 -59.1966 -54.2021
   -54.0319 -53.9643 -29.0178 -28.9541 -28.9238 -28.8600 -28.8251 -28.7673
    -7.8889  -7.6801  -7.5107  -7.2612  -6.7283  -6.4913  -6.3289  -6.1502
     0.9990   2.0684   2.2698   2.4903   2.5208   2.7228   2.8528   3.3497
     3.6745   4.0605   4.3747   5.0643   5.2972   5.5918   5.6984   5.8872
     6.1753   6.2609   6.5101   6.6323   6.9750   7.2429   7.4043   7.6547
     7.8611   8.0172   8.4920   8.6055   8.8568   9.0561   9.0785   9.3533
     9.4350  10.0252  12.6898  13.0902  13.1533  13.2765  13.9307  14.5062
    15.9568  16.3061  17.4268  18.8297

     occupation numbers 
     1.0000   1.0000   1.0000   1.0000   1.0000   1.0000   1.0000   1.0000
     1.0000   1.0000   1.0000   1.0000   1.0000   1.0000   1.0000   1.0000
     1.0000   1.0000   1.0000   1.0000   1.0000   1.0000   1.0000   1.0000
     1.0000   1.0000   1.0000   1.0000   1.0000   1.0000   1.0000   1.0000
     1.0000   1.0000   1.0000   1.0000   1.0000   1.0000   1.0000   1.0000
     1.0000   1.0000   1.0000   1.0000   1.0000   1.0000   1.0000   1.0000
     1.0000   1.0000   1.0000   1.0000   1.0000   1.0000   1.0000   1.0000
     1.0000   1.0000   0.0000   0.0000   0.0000   0.0000   0.0000   0.0000
     0.0000   0.0000   0.0000   0.0000

          k = 0.4162-0.2324 0.0459 ( 19139 PWs)   bands (ev):

  -102.2846 -93.4782 -64.6949 -64.6357 -61.0012 -59.4175 -59.1966 -54.2021
   -54.0319 -53.9643 -29.0189 -28.9540 -28.9242 -28.8596 -28.8250 -28.7670
    -7.9142  -7.7259  -7.4234  -7.2376  -6.6782  -6.4980  -6.3736  -6.2144
     1.0909   2.1075   2.3285   2.4464   2.5549   2.7996   2.9395   3.4386
     3.6656   3.9812   4.3900   4.7829   5.0808   5.2993   5.4821   5.8888
     6.0329   6.1560   6.2496   6.6927   6.9780   7.2386   7.5313   7.7363
     8.0155   8.1016   8.5584   8.9109   8.9957   9.2320   9.3163   9.4241
     9.6626  10.0958  12.6879  12.9292  13.0996  13.2671  13.8603  14.4553
    15.9631  16.4491  17.7705  18.6294

     occupation numbers 
     1.0000   1.0000   1.0000   1.0000   1.0000   1.0000   1.0000   1.0000
     1.0000   1.0000   1.0000   1.0000   1.0000   1.0000   1.0000   1.0000
     1.0000   1.0000   1.0000   1.0000   1.0000   1.0000   1.0000   1.0000
     1.0000   1.0000   1.0000   1.0000   1.0000   1.0000   1.0000   1.0000
     1.0000   1.0000   1.0000   1.0000   1.0000   1.0000   1.0000   1.0000
     1.0000   1.0000   1.0000   1.0000   1.0000   1.0000   1.0000   1.0000
     1.0000   1.0000   1.0000   1.0000   1.0000   1.0000   1.0000   1.0000
     1.0000   1.0000   0.0000   0.0000   0.0000   0.0000   0.0000   0.0000
     0.0000   0.0000   0.0000   0.0000

          k = 0.4148-0.2324 0.1883 ( 19144 PWs)   bands (ev):

  -102.2846 -93.4782 -64.6949 -64.6361 -61.0012 -59.4175 -59.1966 -54.2021
   -54.0319 -53.9643 -29.0169 -28.9593 -28.9192 -28.8684 -28.8146 -28.7701
    -7.9178  -7.6814  -7.3990  -7.2527  -6.6960  -6.5375  -6.3396  -6.2477
     1.0927   2.1212   2.3698   2.4613   2.5407   2.7830   2.9279   3.5211
     3.7304   3.9610   4.3640   4.7482   4.8294   5.1469   5.4797   5.7566
     6.0264   6.1386   6.3031   6.6302   7.3215   7.4809   7.6439   7.9265
     8.1223   8.2469   8.3348   8.5978   8.9236   9.1708   9.3166   9.4725
     9.8114   9.9695  12.5546  12.8370  13.2134  13.3653  13.9230  14.2937
    15.8879  16.2675  18.2089  18.7487

     occupation numbers 
     1.0000   1.0000   1.0000   1.0000   1.0000   1.0000   1.0000   1.0000
     1.0000   1.0000   1.0000   1.0000   1.0000   1.0000   1.0000   1.0000
     1.0000   1.0000   1.0000   1.0000   1.0000   1.0000   1.0000   1.0000
     1.0000   1.0000   1.0000   1.0000   1.0000   1.0000   1.0000   1.0000
     1.0000   1.0000   1.0000   1.0000   1.0000   1.0000   1.0000   1.0000
     1.0000   1.0000   1.0000   1.0000   1.0000   1.0000   1.0000   1.0000
     1.0000   1.0000   1.0000   1.0000   1.0000   1.0000   1.0000   1.0000
     1.0000   1.0000   0.0000   0.0000   0.0000   0.0000   0.0000   0.0000
     0.0000   0.0000   0.0000   0.0000

          k = 0.4134-0.2324 0.3308 ( 19126 PWs)   bands (ev):

  -102.2846 -93.4782 -64.6948 -64.6365 -61.0012 -59.4175 -59.1966 -54.2021
   -54.0319 -53.9643 -29.0140 -28.9658 -28.9143 -28.8754 -28.8038 -28.7750
    -7.8659  -7.6485  -7.4096  -7.3164  -6.6802  -6.5310  -6.3316  -6.2947
     1.1005   2.1546   2.3696   2.4710   2.5497   2.7569   2.9338   3.6385
     3.7112   3.9540   4.3692   4.5102   4.7754   4.9532   5.3986   5.5587
     6.3529   6.4160   6.4930   6.8091   7.1458   7.3518   7.4475   7.5994
     8.2878   8.4774   8.5420   8.6792   9.0005   9.0125   9.3531   9.5368
     9.8162   9.9712  12.4519  12.6696  13.3229  13.4140  13.9834  14.1416
    15.7831  15.9718  18.7597  18.8713

     occupation numbers 
     1.0000   1.0000   1.0000   1.0000   1.0000   1.0000   1.0000   1.0000
     1.0000   1.0000   1.0000   1.0000   1.0000   1.0000   1.0000   1.0000
     1.0000   1.0000   1.0000   1.0000   1.0000   1.0000   1.0000   1.0000
     1.0000   1.0000   1.0000   1.0000   1.0000   1.0000   1.0000   1.0000
     1.0000   1.0000   1.0000   1.0000   1.0000   1.0000   1.0000   1.0000
     1.0000   1.0000   1.0000   1.0000   1.0000   1.0000   1.0000   1.0000
     1.0000   1.0000   1.0000   1.0000   1.0000   1.0000   1.0000   1.0000
     1.0000   1.0000   0.0000   0.0000   0.0000   0.0000   0.0000   0.0000
     0.0000   0.0000   0.0000   0.0000

          k = 0.4203-0.2324-0.3814 ( 19122 PWs)   bands (ev):

  -102.2846 -93.4782 -64.6948 -64.6364 -61.0012 -59.4175 -59.1966 -54.2021
   -54.0319 -53.9643 -29.0134 -28.9672 -28.9147 -28.8749 -28.8033 -28.7751
    -7.8170  -7.6305  -7.4940  -7.3150  -6.7172  -6.4625  -6.3406  -6.3005
     1.1073   2.1698   2.3275   2.4816   2.5623   2.7275   2.9455   3.5669
     3.7695   3.9347   4.3618   4.4909   4.8232   4.9699   5.4890   5.6079
     6.0898   6.4444   6.7085   6.7997   6.8919   7.2848   7.4858   7.7983
     8.2139   8.2822   8.6879   8.7945   8.9859   9.0708   9.3132   9.5832
     9.7661  10.0397  12.4373  12.7601  13.2664  13.4312  13.8430  14.2516
    15.7384  15.8204  18.4953  19.2038

     occupation numbers 
     1.0000   1.0000   1.0000   1.0000   1.0000   1.0000   1.0000   1.0000
     1.0000   1.0000   1.0000   1.0000   1.0000   1.0000   1.0000   1.0000
     1.0000   1.0000   1.0000   1.0000   1.0000   1.0000   1.0000   1.0000
     1.0000   1.0000   1.0000   1.0000   1.0000   1.0000   1.0000   1.0000
     1.0000   1.0000   1.0000   1.0000   1.0000   1.0000   1.0000   1.0000
     1.0000   1.0000   1.0000   1.0000   1.0000   1.0000   1.0000   1.0000
     1.0000   1.0000   1.0000   1.0000   1.0000   1.0000   1.0000   1.0000
     1.0000   1.0000   0.0000   0.0000   0.0000   0.0000   0.0000   0.0000
     0.0000   0.0000   0.0000   0.0000

          k = 0.4189-0.2324-0.2390 ( 19141 PWs)   bands (ev):

  -102.2846 -93.4782 -64.6948 -64.6360 -61.0012 -59.4175 -59.1966 -54.2021
   -54.0319 -53.9643 -29.0161 -28.9618 -28.9198 -28.8672 -28.8139 -28.7699
    -7.8168  -7.6610  -7.5482  -7.2656  -6.7290  -6.4337  -6.3466  -6.2696
     1.1027   2.1581   2.2931   2.4954   2.5593   2.7296   2.9292   3.4680
     3.7136   3.9673   4.3604   4.7092   4.9382   5.3445   5.3892   5.5943
     6.1058   6.2086   6.3401   6.6815   7.0485   7.4152   7.5513   7.8857
     8.0886   8.3765   8.4199   8.7760   8.9412   9.1079   9.3070   9.5537
     9.7936  10.0804  12.5358  12.9802  13.1491  13.3671  13.7623  14.4159
    15.7331  15.9725  18.0820  19.0386

     occupation numbers 
     1.0000   1.0000   1.0000   1.0000   1.0000   1.0000   1.0000   1.0000
     1.0000   1.0000   1.0000   1.0000   1.0000   1.0000   1.0000   1.0000
     1.0000   1.0000   1.0000   1.0000   1.0000   1.0000   1.0000   1.0000
     1.0000   1.0000   1.0000   1.0000   1.0000   1.0000   1.0000   1.0000
     1.0000   1.0000   1.0000   1.0000   1.0000   1.0000   1.0000   1.0000
     1.0000   1.0000   1.0000   1.0000   1.0000   1.0000   1.0000   1.0000
     1.0000   1.0000   1.0000   1.0000   1.0000   1.0000   1.0000   1.0000
     1.0000   1.0000   0.0000   0.0000   0.0000   0.0000   0.0000   0.0000
     0.0000   0.0000   0.0000   0.0000

          k = 0.4176-0.2324-0.0965 ( 19129 PWs)   bands (ev):

  -102.2846 -93.4782 -64.6949 -64.6356 -61.0012 -59.4175 -59.1966 -54.2021
   -54.0319 -53.9643 -29.0186 -28.9553 -28.9244 -28.8588 -28.8249 -28.7668
    -7.8527  -7.7441  -7.4824  -7.2453  -6.6831  -6.4563  -6.3719  -6.2292
     1.0942   2.1288   2.2916   2.4717   2.5572   2.7936   2.9145   3.4223
     3.6450   3.9897   4.4012   4.7756   5.0558   5.4205   5.5262   5.7541
     5.9571   6.1101   6.4945   6.7162   7.0358   7.1357   7.3225   7.6875
     8.0735   8.1876   8.5954   8.8317   9.0430   9.2281   9.3198   9.4571
     9.7228  10.1324  12.6707  12.9006  13.1713  13.2604  13.8050  14.5025
    15.8699  16.2735  17.7770  18.7522

     occupation numbers 
     1.0000   1.0000   1.0000   1.0000   1.0000   1.0000   1.0000   1.0000
     1.0000   1.0000   1.0000   1.0000   1.0000   1.0000   1.0000   1.0000
     1.0000   1.0000   1.0000   1.0000   1.0000   1.0000   1.0000   1.0000
     1.0000   1.0000   1.0000   1.0000   1.0000   1.0000   1.0000   1.0000
     1.0000   1.0000   1.0000   1.0000   1.0000   1.0000   1.0000   1.0000
     1.0000   1.0000   1.0000   1.0000   1.0000   1.0000   1.0000   1.0000
     1.0000   1.0000   1.0000   1.0000   1.0000   1.0000   1.0000   1.0000
     1.0000   1.0000   0.0000   0.0000   0.0000   0.0000   0.0000   0.0000
     0.0000   0.0000   0.0000   0.0000

          k = 0.4163-0.0852 0.0424 ( 19111 PWs)   bands (ev):

  -102.2846 -93.4782 -64.6943 -64.6356 -61.0012 -59.4175 -59.1966 -54.2021
   -54.0319 -53.9643 -29.0195 -28.9552 -28.9249 -28.8584 -28.8248 -28.7665
    -8.0154  -7.6366  -7.3814  -7.2112  -6.6631  -6.4982  -6.3916  -6.2859
     1.1564   2.1653   2.3104   2.4631   2.6314   2.8572   2.9650   3.5388
     3.6466   3.9115   4.3312   4.6594   4.7662   5.2326   5.5314   5.7050
     5.8535   6.0481   6.1808   6.5648   6.8844   7.2499   7.6277   7.7849
     8.1275   8.2817   8.5639   8.8801   9.0991   9.2318   9.6256   9.8766
    10.0108  10.2062  12.6265  12.8370  13.1706  13.1893  13.7059  14.4344
    15.8481  16.4383  18.0976  18.6184

     occupation numbers 
     1.0000   1.0000   1.0000   1.0000   1.0000   1.0000   1.0000   1.0000
     1.0000   1.0000   1.0000   1.0000   1.0000   1.0000   1.0000   1.0000
     1.0000   1.0000   1.0000   1.0000   1.0000   1.0000   1.0000   1.0000
     1.0000   1.0000   1.0000   1.0000   1.0000   1.0000   1.0000   1.0000
     1.0000   1.0000   1.0000   1.0000   1.0000   1.0000   1.0000   1.0000
     1.0000   1.0000   1.0000   1.0000   1.0000   1.0000   1.0000   1.0000
     1.0000   1.0000   1.0000   1.0000   1.0000   1.0000   1.0000   1.0000
     1.0000   1.0000   0.0000   0.0000   0.0000   0.0000   0.0000   0.0000
     0.0000   0.0000   0.0000   0.0000

          k = 0.4149-0.0852 0.1848 ( 19125 PWs)   bands (ev):

  -102.2846 -93.4782 -64.6943 -64.6361 -61.0012 -59.4175 -59.1966 -54.2021
   -54.0319 -53.9643 -29.0168 -28.9598 -28.9200 -28.8677 -28.8147 -28.7702
    -8.0071  -7.6189  -7.3116  -7.1897  -6.7471  -6.5953  -6.3578  -6.2671
     1.1604   2.1840   2.3398   2.4901   2.6092   2.8454   2.9620   3.5951
     3.7427   3.9041   4.2919   4.4456   4.8983   5.1358   5.2475   5.7638
     5.9439   6.0476   6.1540   6.3768   7.1085   7.3357   7.6597   8.0191
     8.1126   8.2599   8.6861   8.8893   8.9619   9.2536   9.4877   9.9098
    10.0582  10.1037  12.5623  12.9389  13.1253  13.2522  13.7929  14.3008
    15.8313  16.2592  18.3100  18.7675

     occupation numbers 
     1.0000   1.0000   1.0000   1.0000   1.0000   1.0000   1.0000   1.0000
     1.0000   1.0000   1.0000   1.0000   1.0000   1.0000   1.0000   1.0000
     1.0000   1.0000   1.0000   1.0000   1.0000   1.0000   1.0000   1.0000
     1.0000   1.0000   1.0000   1.0000   1.0000   1.0000   1.0000   1.0000
     1.0000   1.0000   1.0000   1.0000   1.0000   1.0000   1.0000   1.0000
     1.0000   1.0000   1.0000   1.0000   1.0000   1.0000   1.0000   1.0000
     1.0000   1.0000   1.0000   1.0000   1.0000   1.0000   1.0000   1.0000
     1.0000   1.0000   0.0000   0.0000   0.0000   0.0000   0.0000   0.0000
     0.0000   0.0000   0.0000   0.0000

          k = 0.4135-0.0852 0.3273 ( 19116 PWs)   bands (ev):

  -102.2846 -93.4782 -64.6943 -64.6364 -61.0012 -59.4175 -59.1966 -54.2021
   -54.0319 -53.9643 -29.0135 -28.9652 -28.9148 -28.8757 -28.8046 -28.7755
    -7.9288  -7.6405  -7.3031  -7.1874  -6.7875  -6.6624  -6.3349  -6.2593
     1.1703   2.2068   2.3530   2.5280   2.5778   2.8253   3.0246   3.6850
     3.7682   3.9044   4.2521   4.3014   4.7202   4.7773   5.3880   5.5814
     6.1748   6.2419   6.4438   6.6832   7.0628   7.1453   7.2645   7.3908
     8.4711   8.5537   8.7565   8.9445   9.2366   9.3476   9.4758   9.8491
     9.9714  10.1090  12.5350  12.7532  13.1689  13.3072  13.9779  14.1272
    15.7380  15.9336  18.8174  19.0083

     occupation numbers 
     1.0000   1.0000   1.0000   1.0000   1.0000   1.0000   1.0000   1.0000
     1.0000   1.0000   1.0000   1.0000   1.0000   1.0000   1.0000   1.0000
     1.0000   1.0000   1.0000   1.0000   1.0000   1.0000   1.0000   1.0000
     1.0000   1.0000   1.0000   1.0000   1.0000   1.0000   1.0000   1.0000
     1.0000   1.0000   1.0000   1.0000   1.0000   1.0000   1.0000   1.0000
     1.0000   1.0000   1.0000   1.0000   1.0000   1.0000   1.0000   1.0000
     1.0000   1.0000   1.0000   1.0000   1.0000   1.0000   1.0000   1.0000
     1.0000   1.0000   0.0000   0.0000   0.0000   0.0000   0.0000   0.0000
     0.0000   0.0000   0.0000   0.0000

          k = 0.4204-0.0852-0.3849 ( 19112 PWs)   bands (ev):

  -102.2846 -93.4782 -64.6943 -64.6363 -61.0012 -59.4175 -59.1966 -54.2021
   -54.0319 -53.9643 -29.0132 -28.9659 -28.9149 -28.8754 -28.8043 -28.7755
    -7.8365  -7.6799  -7.4002  -7.1988  -6.8002  -6.5917  -6.3346  -6.2599
     1.1783   2.2040   2.3390   2.5254   2.5782   2.8126   3.0617   3.5966
     3.8184   3.9056   4.2854   4.4228   4.6000   4.7016   5.3202   5.6733
     6.0884   6.2780   6.4912   6.7505   6.8290   7.1636   7.2888   7.6091
     8.3947   8.4756   8.7790   9.0016   9.2619   9.3693   9.6186   9.7996
     9.9376  10.1170  12.5304  12.8178  13.0690  13.3582  13.8759  14.2140
    15.6525  15.7846  18.7932  19.1299

     occupation numbers 
     1.0000   1.0000   1.0000   1.0000   1.0000   1.0000   1.0000   1.0000
     1.0000   1.0000   1.0000   1.0000   1.0000   1.0000   1.0000   1.0000
     1.0000   1.0000   1.0000   1.0000   1.0000   1.0000   1.0000   1.0000
     1.0000   1.0000   1.0000   1.0000   1.0000   1.0000   1.0000   1.0000
     1.0000   1.0000   1.0000   1.0000   1.0000   1.0000   1.0000   1.0000
     1.0000   1.0000   1.0000   1.0000   1.0000   1.0000   1.0000   1.0000
     1.0000   1.0000   1.0000   1.0000   1.0000   1.0000   1.0000   1.0000
     1.0000   1.0000   0.0000   0.0000   0.0000   0.0000   0.0000   0.0000
     0.0000   0.0000   0.0000   0.0000

          k = 0.4190-0.0852-0.2425 ( 19126 PWs)   bands (ev):

  -102.2846 -93.4782 -64.6943 -64.6359 -61.0012 -59.4175 -59.1966 -54.2021
   -54.0319 -53.9643 -29.0165 -28.9612 -28.9203 -28.8671 -28.8144 -28.7701
    -7.8389  -7.6914  -7.4879  -7.2085  -6.7317  -6.4982  -6.3539  -6.2801
     1.1741   2.1835   2.3136   2.4980   2.6098   2.8216   3.0051   3.4970
     3.7794   3.9091   4.3920   4.6289   4.7890   4.9624   5.0362   5.5505
     5.9876   6.0867   6.4058   6.6020   6.9174   7.3982   7.7239   7.9786
     8.1200   8.3325   8.4226   8.8290   9.1268   9.4563   9.6906   9.8169
     9.9537  10.1750  12.5736  12.8924  13.0300  13.3973  13.7084  14.3691
    15.6127  15.9460  18.4976  18.9454

     occupation numbers 
     1.0000   1.0000   1.0000   1.0000   1.0000   1.0000   1.0000   1.0000
     1.0000   1.0000   1.0000   1.0000   1.0000   1.0000   1.0000   1.0000
     1.0000   1.0000   1.0000   1.0000   1.0000   1.0000   1.0000   1.0000
     1.0000   1.0000   1.0000   1.0000   1.0000   1.0000   1.0000   1.0000
     1.0000   1.0000   1.0000   1.0000   1.0000   1.0000   1.0000   1.0000
     1.0000   1.0000   1.0000   1.0000   1.0000   1.0000   1.0000   1.0000
     1.0000   1.0000   1.0000   1.0000   1.0000   1.0000   1.0000   1.0000
     1.0000   1.0000   0.0000   0.0000   0.0000   0.0000   0.0000   0.0000
     0.0000   0.0000   0.0000   0.0000

          k = 0.4176-0.0852-0.1000 ( 19137 PWs)   bands (ev):

  -102.2846 -93.4782 -64.6943 -64.6355 -61.0012 -59.4175 -59.1966 -54.2021
   -54.0319 -53.9643 -29.0194 -28.9558 -28.9250 -28.8580 -28.8248 -28.7664
    -7.9417  -7.6759  -7.4523  -7.2194  -6.6387  -6.4832  -6.3503  -6.3200
     1.1622   2.1681   2.2965   2.4727   2.6285   2.8871   2.9369   3.4924
     3.6643   3.9188   4.4442   4.5283   4.9337   5.1677   5.2923   5.5271
     5.9321   6.0464   6.3224   6.7048   6.9008   7.4157   7.5609   7.7566
     8.0784   8.1911   8.4983   8.7625   9.2238   9.4198   9.7195   9.8073
     9.9719  10.2401  12.6467  12.7305  13.0966  13.3341  13.6921  14.4601
    15.7267  16.2478  18.2967  18.6606

     occupation numbers 
     1.0000   1.0000   1.0000   1.0000   1.0000   1.0000   1.0000   1.0000
     1.0000   1.0000   1.0000   1.0000   1.0000   1.0000   1.0000   1.0000
     1.0000   1.0000   1.0000   1.0000   1.0000   1.0000   1.0000   1.0000
     1.0000   1.0000   1.0000   1.0000   1.0000   1.0000   1.0000   1.0000
     1.0000   1.0000   1.0000   1.0000   1.0000   1.0000   1.0000   1.0000
     1.0000   1.0000   1.0000   1.0000   1.0000   1.0000   1.0000   1.0000
     1.0000   1.0000   1.0000   1.0000   1.0000   1.0000   1.0000   1.0000
     1.0000   1.0000   0.0000   0.0000   0.0000   0.0000   0.0000   0.0000
     0.0000   0.0000   0.0000   0.0000

 ------ SPIN DOWN ----------


          k = 0.0827 0.0713 0.0634 ( 19121 PWs)   bands (ev):

  -101.4363 -91.5256 -64.6717 -64.6133 -59.4052 -58.7257 -58.6305 -52.0089
   -51.9605 -51.9275 -28.9819 -28.9211 -28.8951 -28.8315 -28.7975 -28.7331
    -8.4402  -7.3052  -7.0968  -6.9084  -6.4777  -6.4074  -6.2086  -6.0476
     2.5279   2.7467   3.1460   3.3028   3.5589   4.1284   4.4363   4.7323
     5.0349   5.2892   5.5285   5.6448   5.9833   6.1011   6.2204   6.3091
     6.6929   6.8389   7.1791   7.4018   7.5552   7.8008   7.9348   8.0655
     8.4109   8.7215   9.3601   9.3916   9.5176   9.9724  10.0301  12.0711
    12.6684  12.8773  12.9683  13.6744  13.8794  14.2524  15.0803  15.4498
    15.7153  16.0398  17.6505  18.8529

     occupation numbers 
     1.0000   1.0000   1.0000   1.0000   1.0000   1.0000   1.0000   1.0000
     1.0000   1.0000   1.0000   1.0000   1.0000   1.0000   1.0000   1.0000
     1.0000   1.0000   1.0000   1.0000   1.0000   1.0000   1.0000   1.0000
     1.0000   1.0000   1.0000   1.0000   1.0000   1.0000   1.0000   1.0000
     1.0000   1.0000   1.0000   1.0000   1.0000   1.0000   1.0000   1.0000
     1.0000   1.0000   1.0000   1.0000   1.0000   1.0000   1.0000   1.0000
     1.0000   1.0000   1.0000   1.0000   1.0000   1.0000   1.0000   0.0000
     0.0000   0.0000   0.0000   0.0000   0.0000   0.0000   0.0000   0.0000
     0.0000   0.0000   0.0000   0.0000

          k = 0.0814 0.0713 0.2058 ( 19103 PWs)   bands (ev):

  -101.4363 -91.5256 -64.6716 -64.6134 -59.4052 -58.7257 -58.6305 -52.0089
   -51.9605 -51.9275 -28.9797 -28.9266 -28.8899 -28.8403 -28.7862 -28.7378
    -8.3223  -7.4461  -7.0733  -6.9213  -6.5094  -6.4321  -6.1573  -6.0487
     2.5197   2.7560   3.1326   3.2487   3.6659   4.2178   4.3528   4.8061
     5.1406   5.2165   5.4541   5.6497   5.9452   6.0700   6.1891   6.3756
     6.6807   6.9729   7.1415   7.2671   7.6510   7.7985   7.9424   8.1298
     8.2974   8.5035   9.3145   9.4890   9.6021   9.9239  10.0057  12.1229
    12.5768  12.9691  13.0630  13.5213  13.9093  14.2170  15.0022  15.4505
    16.0519  16.2892  17.5265  18.9994

     occupation numbers 
     1.0000   1.0000   1.0000   1.0000   1.0000   1.0000   1.0000   1.0000
     1.0000   1.0000   1.0000   1.0000   1.0000   1.0000   1.0000   1.0000
     1.0000   1.0000   1.0000   1.0000   1.0000   1.0000   1.0000   1.0000
     1.0000   1.0000   1.0000   1.0000   1.0000   1.0000   1.0000   1.0000
     1.0000   1.0000   1.0000   1.0000   1.0000   1.0000   1.0000   1.0000
     1.0000   1.0000   1.0000   1.0000   1.0000   1.0000   1.0000   1.0000
     1.0000   1.0000   1.0000   1.0000   1.0000   1.0000   1.0000   0.0000
     0.0000   0.0000   0.0000   0.0000   0.0000   0.0000   0.0000   0.0000
     0.0000   0.0000   0.0000   0.0000

          k = 0.0800 0.0713 0.3482 ( 19108 PWs)   bands (ev):

  -101.4363 -91.5256 -64.6715 -64.6134 -59.4052 -58.7257 -58.6305 -52.0089
   -51.9605 -51.9275 -28.9772 -28.9315 -28.8843 -28.8484 -28.7747 -28.7447
    -8.0976  -7.6958  -7.0796  -6.9615  -6.5323  -6.3911  -6.1040  -6.0610
     2.4924   2.7386   3.1378   3.1891   3.7620   4.3197   4.3891   4.7729
     5.1512   5.2429   5.4021   5.7863   5.8368   6.0218   6.2491   6.4792
     6.6191   6.8401   7.0271   7.1626   7.6016   7.8186   7.9534   8.0003
     8.3695   8.7978   9.3287   9.5261   9.6610   9.8304   9.9605  12.1412
    12.4819  12.9630  13.1563  13.4011  14.0568  14.1979  14.9581  15.2890
    16.2035  16.4458  17.9921  18.9302

     occupation numbers 
     1.0000   1.0000   1.0000   1.0000   1.0000   1.0000   1.0000   1.0000
     1.0000   1.0000   1.0000   1.0000   1.0000   1.0000   1.0000   1.0000
     1.0000   1.0000   1.0000   1.0000   1.0000   1.0000   1.0000   1.0000
     1.0000   1.0000   1.0000   1.0000   1.0000   1.0000   1.0000   1.0000
     1.0000   1.0000   1.0000   1.0000   1.0000   1.0000   1.0000   1.0000
     1.0000   1.0000   1.0000   1.0000   1.0000   1.0000   1.0000   1.0000
     1.0000   1.0000   1.0000   1.0000   1.0000   1.0000   1.0000   0.0000
     0.0000   0.0000   0.0000   0.0000   0.0000   0.0000   0.0000   0.0000
     0.0000   0.0000   0.0000   0.0000

          k = 0.0869 0.0713-0.3639 ( 19116 PWs)   bands (ev):

  -101.4363 -91.5256 -64.6716 -64.6134 -59.4052 -58.7257 -58.6305 -52.0089
   -51.9605 -51.9275 -28.9775 -28.9309 -28.8842 -28.8486 -28.7751 -28.7447
    -8.0118  -7.7989  -7.0879  -6.9849  -6.5003  -6.3689  -6.1134  -6.0515
     2.4937   2.7212   3.1177   3.1880   3.7501   4.3584   4.4613   4.7008
     5.1472   5.2328   5.4792   5.7270   5.8633   5.9497   6.2852   6.4213
     6.5172   6.7451   7.1530   7.2847   7.5923   7.7291   7.9847   8.1379
     8.2546   9.0118   9.3659   9.5386   9.5705   9.8296   9.8985  12.1409
    12.4829  12.9169  13.1642  13.4441  14.0692  14.2725  14.9918  15.1939
    16.0685  16.2958  18.2059  18.9589

     occupation numbers 
     1.0000   1.0000   1.0000   1.0000   1.0000   1.0000   1.0000   1.0000
     1.0000   1.0000   1.0000   1.0000   1.0000   1.0000   1.0000   1.0000
     1.0000   1.0000   1.0000   1.0000   1.0000   1.0000   1.0000   1.0000
     1.0000   1.0000   1.0000   1.0000   1.0000   1.0000   1.0000   1.0000
     1.0000   1.0000   1.0000   1.0000   1.0000   1.0000   1.0000   1.0000
     1.0000   1.0000   1.0000   1.0000   1.0000   1.0000   1.0000   1.0000
     1.0000   1.0000   1.0000   1.0000   1.0000   1.0000   1.0000   0.0000
     0.0000   0.0000   0.0000   0.0000   0.0000   0.0000   0.0000   0.0000
     0.0000   0.0000   0.0000   0.0000

          k = 0.0855 0.0713-0.2215 ( 19099 PWs)   bands (ev):

  -101.4363 -91.5256 -64.6717 -64.6133 -59.4052 -58.7257 -58.6305 -52.0089
   -51.9605 -51.9275 -28.9801 -28.9255 -28.8899 -28.8405 -28.7868 -28.7379
    -8.2633  -7.5467  -7.0621  -6.9932  -6.4713  -6.3532  -6.1452  -6.0651
     2.5297   2.7351   3.1110   3.1967   3.6503   4.3333   4.4113   4.6886
     5.1383   5.2553   5.4659   5.6627   5.8463   5.9927   6.2714   6.3843
     6.5718   6.8804   7.1254   7.3654   7.5381   7.8980   8.0157   8.1183
     8.3091   8.9647   9.2896   9.4734   9.5292   9.8311   9.9486  12.1486
    12.5835  12.8266  13.1528  13.5722  13.9547  14.3390  15.0577  15.2836
    15.7723  16.0504  17.7623  19.1774

     occupation numbers 
     1.0000   1.0000   1.0000   1.0000   1.0000   1.0000   1.0000   1.0000
     1.0000   1.0000   1.0000   1.0000   1.0000   1.0000   1.0000   1.0000
     1.0000   1.0000   1.0000   1.0000   1.0000   1.0000   1.0000   1.0000
     1.0000   1.0000   1.0000   1.0000   1.0000   1.0000   1.0000   1.0000
     1.0000   1.0000   1.0000   1.0000   1.0000   1.0000   1.0000   1.0000
     1.0000   1.0000   1.0000   1.0000   1.0000   1.0000   1.0000   1.0000
     1.0000   1.0000   1.0000   1.0000   1.0000   1.0000   1.0000   0.0000
     0.0000   0.0000   0.0000   0.0000   0.0000   0.0000   0.0000   0.0000
     0.0000   0.0000   0.0000   0.0000

          k = 0.0841 0.0713-0.0791 ( 19110 PWs)   bands (ev):

  -101.4363 -91.5256 -64.6718 -64.6133 -59.4052 -58.7257 -58.6305 -52.0089
   -51.9605 -51.9275 -28.9821 -28.9206 -28.8951 -28.8316 -28.7978 -28.7332
    -8.4198  -7.3585  -7.0693  -6.9571  -6.4674  -6.3548  -6.1951  -6.0647
     2.5372   2.7418   3.1328   3.2643   3.5489   4.2157   4.4029   4.7071
     5.0804   5.2883   5.4256   5.6819   5.9569   6.1600   6.2091   6.3498
     6.6587   6.8623   7.0249   7.3470   7.5638   7.7549   8.1046   8.1287
     8.4722   8.8458   9.2875   9.4150   9.5145   9.8815  10.0272  12.0957
    12.6769  12.7920  13.0274  13.7077  13.8877  14.3145  15.0772  15.4008
    15.6073  15.9193  17.7304  18.9024

     occupation numbers 
     1.0000   1.0000   1.0000   1.0000   1.0000   1.0000   1.0000   1.0000
     1.0000   1.0000   1.0000   1.0000   1.0000   1.0000   1.0000   1.0000
     1.0000   1.0000   1.0000   1.0000   1.0000   1.0000   1.0000   1.0000
     1.0000   1.0000   1.0000   1.0000   1.0000   1.0000   1.0000   1.0000
     1.0000   1.0000   1.0000   1.0000   1.0000   1.0000   1.0000   1.0000
     1.0000   1.0000   1.0000   1.0000   1.0000   1.0000   1.0000   1.0000
     1.0000   1.0000   1.0000   1.0000   1.0000   1.0000   1.0000   0.0000
     0.0000   0.0000   0.0000   0.0000   0.0000   0.0000   0.0000   0.0000
     0.0000   0.0000   0.0000   0.0000

          k = 0.0828 0.2185 0.0599 ( 19145 PWs)   bands (ev):

  -101.4363 -91.5256 -64.6716 -64.6133 -59.4052 -58.7257 -58.6305 -52.0089
   -51.9605 -51.9275 -28.9814 -28.9208 -28.8947 -28.8326 -28.7977 -28.7335
    -8.2822  -7.3661  -7.1427  -6.9918  -6.6136  -6.3093  -6.2602  -5.9761
     2.5652   2.8163   3.2177   3.3197   3.7785   4.3063   4.3969   4.8223
     5.0806   5.2653   5.3394   5.6117   5.7878   6.0195   6.1005   6.2449
     6.6375   6.8457   7.0666   7.4240   7.7391   7.8799   8.0438   8.2269
     8.4787   8.7900   9.1033   9.1610   9.3438   9.7709   9.9354  12.1500
    12.7407  12.8719  13.1344  13.5331  13.8667  14.2965  15.1036  15.4605
    15.7923  16.0764  18.0147  18.4462

     occupation numbers 
     1.0000   1.0000   1.0000   1.0000   1.0000   1.0000   1.0000   1.0000
     1.0000   1.0000   1.0000   1.0000   1.0000   1.0000   1.0000   1.0000
     1.0000   1.0000   1.0000   1.0000   1.0000   1.0000   1.0000   1.0000
     1.0000   1.0000   1.0000   1.0000   1.0000   1.0000   1.0000   1.0000
     1.0000   1.0000   1.0000   1.0000   1.0000   1.0000   1.0000   1.0000
     1.0000   1.0000   1.0000   1.0000   1.0000   1.0000   1.0000   1.0000
     1.0000   1.0000   1.0000   1.0000   1.0000   1.0000   1.0000   0.0000
     0.0000   0.0000   0.0000   0.0000   0.0000   0.0000   0.0000   0.0000
     0.0000   0.0000   0.0000   0.0000

          k = 0.0814 0.2185 0.2023 ( 19115 PWs)   bands (ev):

  -101.4363 -91.5256 -64.6715 -64.6134 -59.4052 -58.7257 -58.6305 -52.0089
   -51.9605 -51.9275 -28.9796 -28.9276 -28.8896 -28.8408 -28.7858 -28.7376
    -8.1703  -7.4972  -7.1239  -6.9780  -6.5641  -6.4007  -6.2325  -5.9984
     2.5492   2.8278   3.2101   3.3313   3.8728   4.2381   4.4321   4.9069
     5.0865   5.2136   5.3345   5.5551   5.8399   5.9430   6.0803   6.3936
     6.6143   6.8638   7.1282   7.5137   7.7237   7.8332   7.9549   8.1147
     8.4201   8.6039   9.0731   9.2458   9.4691   9.7045   9.9769  12.1663
    12.6192  13.0461  13.1251  13.4147  13.8645  14.2913  15.0122  15.4433
    16.0658  16.3345  17.9673  18.4955

     occupation numbers 
     1.0000   1.0000   1.0000   1.0000   1.0000   1.0000   1.0000   1.0000
     1.0000   1.0000   1.0000   1.0000   1.0000   1.0000   1.0000   1.0000
     1.0000   1.0000   1.0000   1.0000   1.0000   1.0000   1.0000   1.0000
     1.0000   1.0000   1.0000   1.0000   1.0000   1.0000   1.0000   1.0000
     1.0000   1.0000   1.0000   1.0000   1.0000   1.0000   1.0000   1.0000
     1.0000   1.0000   1.0000   1.0000   1.0000   1.0000   1.0000   1.0000
     1.0000   1.0000   1.0000   1.0000   1.0000   1.0000   1.0000   0.0000
     0.0000   0.0000   0.0000   0.0000   0.0000   0.0000   0.0000   0.0000
     0.0000   0.0000   0.0000   0.0000

          k = 0.0800 0.2185 0.3447 ( 19130 PWs)   bands (ev):

  -101.4363 -91.5256 -64.6714 -64.6134 -59.4052 -58.7257 -58.6305 -52.0089
   -51.9605 -51.9274 -28.9776 -28.9331 -28.8843 -28.8484 -28.7737 -28.7442
    -7.9654  -7.6868  -7.1408  -6.9913  -6.5303  -6.4616  -6.1554  -6.0526
     2.5450   2.8228   3.2061   3.3042   3.9426   4.2791   4.4798   4.7875
     5.0891   5.1503   5.3154   5.6624   5.8143   6.0301   6.2602   6.4613
     6.6695   6.8076   7.0750   7.3753   7.6315   7.6896   7.9227   7.9983
     8.3716   8.7064   9.1573   9.3830   9.4703   9.7113   9.9271  12.1946
    12.4815  12.9866  13.1865  13.4475  13.9844  14.2723  14.9863  15.2829
    16.2393  16.4617  18.2904  18.4925

     occupation numbers 
     1.0000   1.0000   1.0000   1.0000   1.0000   1.0000   1.0000   1.0000
     1.0000   1.0000   1.0000   1.0000   1.0000   1.0000   1.0000   1.0000
     1.0000   1.0000   1.0000   1.0000   1.0000   1.0000   1.0000   1.0000
     1.0000   1.0000   1.0000   1.0000   1.0000   1.0000   1.0000   1.0000
     1.0000   1.0000   1.0000   1.0000   1.0000   1.0000   1.0000   1.0000
     1.0000   1.0000   1.0000   1.0000   1.0000   1.0000   1.0000   1.0000
     1.0000   1.0000   1.0000   1.0000   1.0000   1.0000   1.0000   0.0000
     0.0000   0.0000   0.0000   0.0000   0.0000   0.0000   0.0000   0.0000
     0.0000   0.0000   0.0000   0.0000

          k = 0.0869 0.2185-0.3674 ( 19119 PWs)   bands (ev):

  -101.4363 -91.5256 -64.6714 -64.6134 -59.4052 -58.7257 -58.6305 -52.0089
   -51.9605 -51.9275 -28.9781 -28.9318 -28.8840 -28.8488 -28.7744 -28.7441
    -7.9360  -7.6958  -7.1579  -7.0261  -6.5681  -6.3935  -6.1496  -6.0541
     2.5722   2.8081   3.1587   3.2919   3.9355   4.3008   4.5300   4.7927
     5.0354   5.0988   5.3393   5.6900   5.9207   6.0387   6.2513   6.3195
     6.5844   6.8517   7.2480   7.3502   7.5509   7.6450   7.9520   8.0934
     8.2616   8.8551   9.2261   9.3035   9.5083   9.7477   9.7809  12.2157
    12.4770  12.9257  13.2126  13.5081  14.1185  14.2508  15.0274  15.1928
    16.1486  16.2980  18.2384  18.8063

     occupation numbers 
     1.0000   1.0000   1.0000   1.0000   1.0000   1.0000   1.0000   1.0000
     1.0000   1.0000   1.0000   1.0000   1.0000   1.0000   1.0000   1.0000
     1.0000   1.0000   1.0000   1.0000   1.0000   1.0000   1.0000   1.0000
     1.0000   1.0000   1.0000   1.0000   1.0000   1.0000   1.0000   1.0000
     1.0000   1.0000   1.0000   1.0000   1.0000   1.0000   1.0000   1.0000
     1.0000   1.0000   1.0000   1.0000   1.0000   1.0000   1.0000   1.0000
     1.0000   1.0000   1.0000   1.0000   1.0000   1.0000   1.0000   0.0000
     0.0000   0.0000   0.0000   0.0000   0.0000   0.0000   0.0000   0.0000
     0.0000   0.0000   0.0000   0.0000

          k = 0.0856 0.2185-0.2250 ( 19106 PWs)   bands (ev):

  -101.4363 -91.5256 -64.6715 -64.6133 -59.4052 -58.7257 -58.6305 -52.0089
   -51.9605 -51.9275 -28.9805 -28.9253 -28.8893 -28.8415 -28.7868 -28.7378
    -8.1404  -7.4843  -7.1422  -7.0644  -6.5914  -6.3012  -6.2325  -6.0025
     2.6035   2.8034   3.1608   3.2658   3.8546   4.2938   4.5478   4.7739
     5.0373   5.1830   5.2957   5.6502   5.8221   5.9997   6.1932   6.3558
     6.6315   6.8043   7.1858   7.3453   7.6959   7.7612   8.0584   8.2242
     8.3554   8.9155   9.1135   9.1805   9.4332   9.6819   9.8042  12.2636
    12.6072  12.8147  13.2517  13.5583  14.0545  14.2852  15.1315  15.2764
    15.8628  16.0279  18.0483  18.7629

     occupation numbers 
     1.0000   1.0000   1.0000   1.0000   1.0000   1.0000   1.0000   1.0000
     1.0000   1.0000   1.0000   1.0000   1.0000   1.0000   1.0000   1.0000
     1.0000   1.0000   1.0000   1.0000   1.0000   1.0000   1.0000   1.0000
     1.0000   1.0000   1.0000   1.0000   1.0000   1.0000   1.0000   1.0000
     1.0000   1.0000   1.0000   1.0000   1.0000   1.0000   1.0000   1.0000
     1.0000   1.0000   1.0000   1.0000   1.0000   1.0000   1.0000   1.0000
     1.0000   1.0000   1.0000   1.0000   1.0000   1.0000   1.0000   0.0000
     0.0000   0.0000   0.0000   0.0000   0.0000   0.0000   0.0000   0.0000
     0.0000   0.0000   0.0000   0.0000

          k = 0.0842 0.2185-0.0826 ( 19142 PWs)   bands (ev):

  -101.4363 -91.5256 -64.6716 -64.6133 -59.4052 -58.7257 -58.6305 -52.0089
   -51.9605 -51.9275 -28.9818 -28.9196 -28.8946 -28.8329 -28.7981 -28.7337
    -8.2702  -7.3546  -7.1434  -7.0482  -6.6104  -6.2790  -6.2532  -5.9802
     2.5915   2.8064   3.2092   3.2779   3.7650   4.3262   4.4544   4.7848
     5.0212   5.2171   5.3144   5.6666   5.7960   6.0076   6.1524   6.4125
     6.6200   6.7450   7.1072   7.2867   7.6983   7.8558   8.1558   8.2635
     8.5861   8.7826   9.0535   9.1535   9.4078   9.7461   9.8350  12.2198
    12.7134  12.7891  13.1771  13.6275  13.9250  14.3002  15.1909  15.3690
    15.6918  15.9241  18.0622  18.5248

     occupation numbers 
     1.0000   1.0000   1.0000   1.0000   1.0000   1.0000   1.0000   1.0000
     1.0000   1.0000   1.0000   1.0000   1.0000   1.0000   1.0000   1.0000
     1.0000   1.0000   1.0000   1.0000   1.0000   1.0000   1.0000   1.0000
     1.0000   1.0000   1.0000   1.0000   1.0000   1.0000   1.0000   1.0000
     1.0000   1.0000   1.0000   1.0000   1.0000   1.0000   1.0000   1.0000
     1.0000   1.0000   1.0000   1.0000   1.0000   1.0000   1.0000   1.0000
     1.0000   1.0000   1.0000   1.0000   1.0000   1.0000   1.0000   0.0000
     0.0000   0.0000   0.0000   0.0000   0.0000   0.0000   0.0000   0.0000
     0.0000   0.0000   0.0000   0.0000

          k = 0.0829 0.3657 0.0564 ( 19138 PWs)   bands (ev):

  -101.4363 -91.5256 -64.6715 -64.6134 -59.4052 -58.7257 -58.6305 -52.0090
   -51.9605 -51.9275 -28.9810 -28.9200 -28.8941 -28.8339 -28.7981 -28.7340
    -7.9948  -7.6029  -7.2155  -7.0555  -6.5867  -6.4133  -6.2149  -5.9030
     2.6402   2.8749   3.2622   3.3325   4.0557   4.2104   4.6850   4.8907
     5.0045   5.1955   5.3308   5.4312   5.6939   5.8842   6.0161   6.2311
     6.6176   6.7396   7.1799   7.4760   7.7613   8.0666   8.1975   8.2742
     8.4826   8.6871   8.7525   8.9893   9.3275   9.4640   9.8678  12.3872
    12.8365  12.9059  13.2449  13.3628  13.8181  14.3460  15.0870  15.5166
    15.8344  16.0888  18.0719  18.6097

     occupation numbers 
     1.0000   1.0000   1.0000   1.0000   1.0000   1.0000   1.0000   1.0000
     1.0000   1.0000   1.0000   1.0000   1.0000   1.0000   1.0000   1.0000
     1.0000   1.0000   1.0000   1.0000   1.0000   1.0000   1.0000   1.0000
     1.0000   1.0000   1.0000   1.0000   1.0000   1.0000   1.0000   1.0000
     1.0000   1.0000   1.0000   1.0000   1.0000   1.0000   1.0000   1.0000
     1.0000   1.0000   1.0000   1.0000   1.0000   1.0000   1.0000   1.0000
     1.0000   1.0000   1.0000   1.0000   1.0000   1.0000   1.0000   0.0000
     0.0000   0.0000   0.0000   0.0000   0.0000   0.0000   0.0000   0.0000
     0.0000   0.0000   0.0000   0.0000

          k = 0.0815 0.3657 0.1988 ( 19130 PWs)   bands (ev):

  -101.4363 -91.5256 -64.6715 -64.6134 -59.4052 -58.7257 -58.6305 -52.0089
   -51.9605 -51.9275 -28.9798 -28.9275 -28.8891 -28.8416 -28.7859 -28.7376
    -7.9012  -7.6323  -7.2251  -7.0523  -6.5756  -6.4350  -6.2616  -5.9307
     2.6382   2.8799   3.2431   3.3646   4.0483   4.3040   4.6211   4.8767
     5.0855   5.2061   5.2765   5.5592   5.6900   5.8026   6.0197   6.3789
     6.5885   6.7788   7.0357   7.5616   7.8627   7.9697   8.0368   8.2012
     8.4063   8.5565   8.8663   9.0106   9.3362   9.4573   9.9228  12.3915
    12.6721  13.0202  13.1399  13.3846  13.8236  14.3574  15.0024  15.4536
    16.0878  16.3526  18.0702  18.6846

     occupation numbers 
     1.0000   1.0000   1.0000   1.0000   1.0000   1.0000   1.0000   1.0000
     1.0000   1.0000   1.0000   1.0000   1.0000   1.0000   1.0000   1.0000
     1.0000   1.0000   1.0000   1.0000   1.0000   1.0000   1.0000   1.0000
     1.0000   1.0000   1.0000   1.0000   1.0000   1.0000   1.0000   1.0000
     1.0000   1.0000   1.0000   1.0000   1.0000   1.0000   1.0000   1.0000
     1.0000   1.0000   1.0000   1.0000   1.0000   1.0000   1.0000   1.0000
     1.0000   1.0000   1.0000   1.0000   1.0000   1.0000   1.0000   0.0000
     0.0000   0.0000   0.0000   0.0000   0.0000   0.0000   0.0000   0.0000
     0.0000   0.0000   0.0000   0.0000

          k = 0.0801 0.3657 0.3413 ( 19128 PWs)   bands (ev):

  -101.4363 -91.5256 -64.6714 -64.6134 -59.4052 -58.7257 -58.6305 -52.0089
   -51.9605 -51.9274 -28.9782 -28.9341 -28.8841 -28.8485 -28.7730 -28.7437
    -7.7722  -7.6830  -7.2187  -7.0221  -6.6320  -6.5680  -6.1507  -5.9926
     2.6476   2.8795   3.2190   3.3838   4.0716   4.3922   4.5694   4.7589
     4.9724   5.1053   5.3363   5.6273   5.8398   6.0484   6.1941   6.4853
     6.6794   6.7616   6.9213   7.3862   7.6023   7.8249   7.9211   8.1550
     8.2971   8.4886   9.0108   9.1902   9.3478   9.5691   9.9043  12.3981
    12.5134  12.8607  13.2924  13.4305  13.9577  14.3250  15.0057  15.2786
    16.2662  16.4704  18.1472  18.6848

     occupation numbers 
     1.0000   1.0000   1.0000   1.0000   1.0000   1.0000   1.0000   1.0000
     1.0000   1.0000   1.0000   1.0000   1.0000   1.0000   1.0000   1.0000
     1.0000   1.0000   1.0000   1.0000   1.0000   1.0000   1.0000   1.0000
     1.0000   1.0000   1.0000   1.0000   1.0000   1.0000   1.0000   1.0000
     1.0000   1.0000   1.0000   1.0000   1.0000   1.0000   1.0000   1.0000
     1.0000   1.0000   1.0000   1.0000   1.0000   1.0000   1.0000   1.0000
     1.0000   1.0000   1.0000   1.0000   1.0000   1.0000   1.0000   0.0000
     0.0000   0.0000   0.0000   0.0000   0.0000   0.0000   0.0000   0.0000
     0.0000   0.0000   0.0000   0.0000

          k = 0.0870 0.3657-0.3709 ( 19114 PWs)   bands (ev):

  -101.4363 -91.5256 -64.6714 -64.6134 -59.4052 -58.7257 -58.6305 -52.0089
   -51.9605 -51.9274 -28.9785 -28.9334 -28.8839 -28.8488 -28.7734 -28.7436
    -7.8267  -7.6048  -7.1825  -7.0553  -6.7212  -6.5386  -6.0937  -6.0153
     2.6680   2.8759   3.1913   3.3628   4.1320   4.2521   4.5789   4.8426
     4.9418   5.0489   5.3977   5.7640   5.8773   6.0965   6.1540   6.2462
     6.6729   6.8824   7.0033   7.3790   7.5301   7.7289   7.9464   8.1786
     8.2734   8.5424   9.0384   9.1501   9.4567   9.6343   9.7245  12.4155
    12.5127  12.8593  13.2682  13.4924  14.1179  14.2752  15.0707  15.1834
    16.1787  16.3331  18.1754  18.6245

     occupation numbers 
     1.0000   1.0000   1.0000   1.0000   1.0000   1.0000   1.0000   1.0000
     1.0000   1.0000   1.0000   1.0000   1.0000   1.0000   1.0000   1.0000
     1.0000   1.0000   1.0000   1.0000   1.0000   1.0000   1.0000   1.0000
     1.0000   1.0000   1.0000   1.0000   1.0000   1.0000   1.0000   1.0000
     1.0000   1.0000   1.0000   1.0000   1.0000   1.0000   1.0000   1.0000
     1.0000   1.0000   1.0000   1.0000   1.0000   1.0000   1.0000   1.0000
     1.0000   1.0000   1.0000   1.0000   1.0000   1.0000   1.0000   0.0000
     0.0000   0.0000   0.0000   0.0000   0.0000   0.0000   0.0000   0.0000
     0.0000   0.0000   0.0000   0.0000

          k = 0.0856 0.3657-0.2285 ( 19110 PWs)   bands (ev):

  -101.4363 -91.5256 -64.6715 -64.6134 -59.4052 -58.7257 -58.6305 -52.0089
   -51.9605 -51.9275 -28.9803 -28.9262 -28.8889 -28.8420 -28.7864 -28.7376
    -7.9331  -7.5633  -7.1534  -7.1183  -6.6800  -6.4651  -6.1605  -5.9376
     2.6732   2.8726   3.1961   3.3348   4.0771   4.2098   4.6349   4.9323
     4.9859   5.1239   5.4117   5.5821   5.7318   5.7992   6.0928   6.4200
     6.6636   6.8051   7.0375   7.3832   7.6265   8.0272   8.1075   8.2937
     8.4132   8.5284   8.9574   9.0738   9.3716   9.4563   9.7165  12.4791
    12.6481  12.8696  13.2345  13.5210  14.1145  14.2257  15.1878  15.2835
    15.9181  16.0372  18.2426  18.4501

     occupation numbers 
     1.0000   1.0000   1.0000   1.0000   1.0000   1.0000   1.0000   1.0000
     1.0000   1.0000   1.0000   1.0000   1.0000   1.0000   1.0000   1.0000
     1.0000   1.0000   1.0000   1.0000   1.0000   1.0000   1.0000   1.0000
     1.0000   1.0000   1.0000   1.0000   1.0000   1.0000   1.0000   1.0000
     1.0000   1.0000   1.0000   1.0000   1.0000   1.0000   1.0000   1.0000
     1.0000   1.0000   1.0000   1.0000   1.0000   1.0000   1.0000   1.0000
     1.0000   1.0000   1.0000   1.0000   1.0000   1.0000   1.0000   0.0000
     0.0000   0.0000   0.0000   0.0000   0.0000   0.0000   0.0000   0.0000
     0.0000   0.0000   0.0000   0.0000

          k = 0.0843 0.3657-0.0860 ( 19143 PWs)   bands (ev):

  -101.4363 -91.5256 -64.6716 -64.6133 -59.4052 -58.7257 -58.6305 -52.0090
   -51.9605 -51.9275 -28.9812 -28.9193 -28.8941 -28.8341 -28.7984 -28.7341
    -8.0025  -7.5812  -7.1955  -7.0723  -6.6198  -6.4392  -6.1711  -5.9039
     2.6550   2.8712   3.2313   3.3371   4.0250   4.2238   4.7048   4.8628
     4.9986   5.1835   5.2410   5.5168   5.7211   5.8375   6.0414   6.3687
     6.6338   6.7871   7.0780   7.4246   7.7899   7.9864   8.1707   8.3425
     8.5070   8.6386   8.8266   9.0130   9.3295   9.4847   9.7637  12.4556
    12.7353  12.8992  13.2630  13.4848  13.9157  14.2980  15.2212  15.4195
    15.7468  15.9167  18.2071  18.4266

     occupation numbers 
     1.0000   1.0000   1.0000   1.0000   1.0000   1.0000   1.0000   1.0000
     1.0000   1.0000   1.0000   1.0000   1.0000   1.0000   1.0000   1.0000
     1.0000   1.0000   1.0000   1.0000   1.0000   1.0000   1.0000   1.0000
     1.0000   1.0000   1.0000   1.0000   1.0000   1.0000   1.0000   1.0000
     1.0000   1.0000   1.0000   1.0000   1.0000   1.0000   1.0000   1.0000
     1.0000   1.0000   1.0000   1.0000   1.0000   1.0000   1.0000   1.0000
     1.0000   1.0000   1.0000   1.0000   1.0000   1.0000   1.0000   0.0000
     0.0000   0.0000   0.0000   0.0000   0.0000   0.0000   0.0000   0.0000
     0.0000   0.0000   0.0000   0.0000

          k = 0.0825-0.3703 0.0738 ( 19135 PWs)   bands (ev):

  -101.4363 -91.5256 -64.6716 -64.6134 -59.4052 -58.7257 -58.6305 -52.0090
   -51.9605 -51.9275 -28.9811 -28.9194 -28.8940 -28.8342 -28.7983 -28.7341
    -7.9652  -7.6389  -7.2305  -7.0476  -6.6015  -6.3935  -6.2070  -5.8987
     2.6834   2.8541   3.2278   3.3265   4.0622   4.1976   4.6703   4.9176
     4.9867   5.2001   5.3658   5.4185   5.6551   5.8066   6.0669   6.3099
     6.6129   6.7840   7.1978   7.4127   7.7996   8.0452   8.1813   8.3155
     8.5245   8.6533   8.7391   8.9873   9.1938   9.5175   9.8433  12.5676
    12.7967  12.8490  13.1798  13.4175  13.8113  14.3530  15.0897  15.5218
    15.8475  16.0678  18.0764  18.6134

     occupation numbers 
     1.0000   1.0000   1.0000   1.0000   1.0000   1.0000   1.0000   1.0000
     1.0000   1.0000   1.0000   1.0000   1.0000   1.0000   1.0000   1.0000
     1.0000   1.0000   1.0000   1.0000   1.0000   1.0000   1.0000   1.0000
     1.0000   1.0000   1.0000   1.0000   1.0000   1.0000   1.0000   1.0000
     1.0000   1.0000   1.0000   1.0000   1.0000   1.0000   1.0000   1.0000
     1.0000   1.0000   1.0000   1.0000   1.0000   1.0000   1.0000   1.0000
     1.0000   1.0000   1.0000   1.0000   1.0000   1.0000   1.0000   0.0000
     0.0000   0.0000   0.0000   0.0000   0.0000   0.0000   0.0000   0.0000
     0.0000   0.0000   0.0000   0.0000

          k = 0.0812-0.3704 0.2163 ( 19117 PWs)   bands (ev):

  -101.4363 -91.5256 -64.6715 -64.6134 -59.4052 -58.7257 -58.6305 -52.0089
   -51.9605 -51.9275 -28.9802 -28.9263 -28.8888 -28.8420 -28.7863 -28.7377
    -7.9071  -7.5782  -7.2691  -7.0783  -6.6133  -6.3763  -6.2706  -5.9169
     2.7030   2.8532   3.2152   3.3198   4.0144   4.3508   4.6399   4.8674
     5.0663   5.2019   5.3464   5.5293   5.6308   5.7481   6.1015   6.4241
     6.6508   6.8373   6.9710   7.4543   7.8065   8.0228   8.0791   8.2101
     8.4557   8.5204   8.8990   8.9692   9.2655   9.4879   9.8739  12.5213
    12.6284  12.9803  13.1549  13.3921  13.8375  14.3618  14.9986  15.4537
    16.1088  16.3341  18.0868  18.7595

     occupation numbers 
     1.0000   1.0000   1.0000   1.0000   1.0000   1.0000   1.0000   1.0000
     1.0000   1.0000   1.0000   1.0000   1.0000   1.0000   1.0000   1.0000
     1.0000   1.0000   1.0000   1.0000   1.0000   1.0000   1.0000   1.0000
     1.0000   1.0000   1.0000   1.0000   1.0000   1.0000   1.0000   1.0000
     1.0000   1.0000   1.0000   1.0000   1.0000   1.0000   1.0000   1.0000
     1.0000   1.0000   1.0000   1.0000   1.0000   1.0000   1.0000   1.0000
     1.0000   1.0000   1.0000   1.0000   1.0000   1.0000   1.0000   0.0000
     0.0000   0.0000   0.0000   0.0000   0.0000   0.0000   0.0000   0.0000
     0.0000   0.0000   0.0000   0.0000

          k = 0.0798-0.3704 0.3587 ( 19109 PWs)   bands (ev):

  -101.4363 -91.5256 -64.6714 -64.6134 -59.4052 -58.7257 -58.6305 -52.0089
   -51.9605 -51.9274 -28.9784 -28.9335 -28.8838 -28.8487 -28.7734 -28.7437
    -7.8204  -7.5826  -7.2379  -7.0814  -6.7000  -6.4785  -6.1657  -5.9689
     2.7113   2.8582   3.1807   3.3422   4.0312   4.4305   4.5989   4.7720
     4.9853   5.0686   5.3389   5.6406   5.8038   6.1341   6.2151   6.5010
     6.5914   6.7379   7.0100   7.3119   7.5710   7.8467   7.9488   8.2049
     8.2946   8.4330   9.0017   9.1896   9.3679   9.5509   9.8656  12.3806
    12.5861  12.9038  13.3111  13.3718  13.9669  14.3214  15.0011  15.2772
    16.2719  16.4647  18.1561  18.7500

     occupation numbers 
     1.0000   1.0000   1.0000   1.0000   1.0000   1.0000   1.0000   1.0000
     1.0000   1.0000   1.0000   1.0000   1.0000   1.0000   1.0000   1.0000
     1.0000   1.0000   1.0000   1.0000   1.0000   1.0000   1.0000   1.0000
     1.0000   1.0000   1.0000   1.0000   1.0000   1.0000   1.0000   1.0000
     1.0000   1.0000   1.0000   1.0000   1.0000   1.0000   1.0000   1.0000
     1.0000   1.0000   1.0000   1.0000   1.0000   1.0000   1.0000   1.0000
     1.0000   1.0000   1.0000   1.0000   1.0000   1.0000   1.0000   0.0000
     0.0000   0.0000   0.0000   0.0000   0.0000   0.0000   0.0000   0.0000
     0.0000   0.0000   0.0000   0.0000

          k = 0.0867-0.3703-0.3535 ( 19100 PWs)   bands (ev):

  -101.4363 -91.5256 -64.6715 -64.6134 -59.4052 -58.7257 -58.6305 -52.0089
   -51.9605 -51.9274 -28.9781 -28.9341 -28.8840 -28.8485 -28.7731 -28.7436
    -7.7808  -7.6600  -7.1817  -7.0573  -6.7351  -6.5246  -6.0865  -6.0083
     2.7048   2.8644   3.1842   3.3290   4.0861   4.2613   4.5815   4.8611
     4.9378   5.0613   5.4409   5.7034   5.8859   6.0743   6.1868   6.3577
     6.5568   6.9091   7.0007   7.4069   7.5472   7.7074   7.9760   8.1816
     8.2684   8.4620   9.0346   9.1500   9.4568   9.6431   9.7185  12.3976
    12.6284  12.8846  13.2564  13.4247  14.1013  14.2797  15.0756  15.1734
    16.1428  16.3648  18.1720  18.6175

     occupation numbers 
     1.0000   1.0000   1.0000   1.0000   1.0000   1.0000   1.0000   1.0000
     1.0000   1.0000   1.0000   1.0000   1.0000   1.0000   1.0000   1.0000
     1.0000   1.0000   1.0000   1.0000   1.0000   1.0000   1.0000   1.0000
     1.0000   1.0000   1.0000   1.0000   1.0000   1.0000   1.0000   1.0000
     1.0000   1.0000   1.0000   1.0000   1.0000   1.0000   1.0000   1.0000
     1.0000   1.0000   1.0000   1.0000   1.0000   1.0000   1.0000   1.0000
     1.0000   1.0000   1.0000   1.0000   1.0000   1.0000   1.0000   0.0000
     0.0000   0.0000   0.0000   0.0000   0.0000   0.0000   0.0000   0.0000
     0.0000   0.0000   0.0000   0.0000

          k = 0.0853-0.3703-0.2110 ( 19106 PWs)   bands (ev):

  -101.4363 -91.5256 -64.6715 -64.6134 -59.4052 -58.7257 -58.6305 -52.0089
   -51.9605 -51.9275 -28.9797 -28.9274 -28.8891 -28.8415 -28.7860 -28.7375
    -7.8607  -7.6869  -7.1832  -7.0336  -6.6799  -6.4777  -6.1461  -5.9395
     2.6872   2.8647   3.1875   3.3372   4.0611   4.1940   4.6318   4.9121
     4.9744   5.1643   5.3631   5.6332   5.7545   5.8453   6.1152   6.3792
     6.5095   6.8263   7.1346   7.4754   7.6486   7.9921   8.1129   8.2233
     8.4447   8.4933   8.9849   9.0444   9.2399   9.5390   9.7400  12.5183
    12.7337  12.9304  13.1576  13.4455  14.0907  14.2415  15.1952  15.2595
    15.8674  16.0839  18.2361  18.4212

     occupation numbers 
     1.0000   1.0000   1.0000   1.0000   1.0000   1.0000   1.0000   1.0000
     1.0000   1.0000   1.0000   1.0000   1.0000   1.0000   1.0000   1.0000
     1.0000   1.0000   1.0000   1.0000   1.0000   1.0000   1.0000   1.0000
     1.0000   1.0000   1.0000   1.0000   1.0000   1.0000   1.0000   1.0000
     1.0000   1.0000   1.0000   1.0000   1.0000   1.0000   1.0000   1.0000
     1.0000   1.0000   1.0000   1.0000   1.0000   1.0000   1.0000   1.0000
     1.0000   1.0000   1.0000   1.0000   1.0000   1.0000   1.0000   0.0000
     0.0000   0.0000   0.0000   0.0000   0.0000   0.0000   0.0000   0.0000
     0.0000   0.0000   0.0000   0.0000

          k = 0.0839-0.3703-0.0686 ( 19116 PWs)   bands (ev):

  -101.4363 -91.5256 -64.6716 -64.6133 -59.4052 -58.7257 -58.6305 -52.0090
   -51.9605 -51.9275 -28.9809 -28.9199 -28.8942 -28.8339 -28.7982 -28.7340
    -7.9490  -7.6788  -7.1967  -7.0299  -6.6260  -6.4343  -6.1621  -5.9049
     2.6747   2.8590   3.1949   3.3593   4.0525   4.1814   4.6748   4.8756
     4.9880   5.1714   5.2879   5.5424   5.7112   5.8463   6.0122   6.3421
     6.6480   6.7863   7.0972   7.4439   7.8815   8.0000   8.1897   8.2511
     8.5052   8.6713   8.8214   9.0082   9.1480   9.5370   9.7917  12.5812
    12.7349  12.9469  13.1676  13.4551  13.9049  14.3060  15.2127  15.4177
    15.7369  15.9204  18.2001  18.4051

     occupation numbers 
     1.0000   1.0000   1.0000   1.0000   1.0000   1.0000   1.0000   1.0000
     1.0000   1.0000   1.0000   1.0000   1.0000   1.0000   1.0000   1.0000
     1.0000   1.0000   1.0000   1.0000   1.0000   1.0000   1.0000   1.0000
     1.0000   1.0000   1.0000   1.0000   1.0000   1.0000   1.0000   1.0000
     1.0000   1.0000   1.0000   1.0000   1.0000   1.0000   1.0000   1.0000
     1.0000   1.0000   1.0000   1.0000   1.0000   1.0000   1.0000   1.0000
     1.0000   1.0000   1.0000   1.0000   1.0000   1.0000   1.0000   0.0000
     0.0000   0.0000   0.0000   0.0000   0.0000   0.0000   0.0000   0.0000
     0.0000   0.0000   0.0000   0.0000

          k = 0.0826-0.2231 0.0703 ( 19121 PWs)   bands (ev):

  -101.4363 -91.5256 -64.6717 -64.6134 -59.4052 -58.7257 -58.6305 -52.0089
   -51.9605 -51.9275 -28.9816 -28.9197 -28.8945 -28.8331 -28.7980 -28.7337
    -8.2639  -7.3885  -7.1755  -6.9803  -6.6310  -6.3236  -6.2059  -5.9653
     2.6303   2.7942   3.1531   3.3051   3.7865   4.2544   4.4256   4.8390
     5.0335   5.2965   5.3826   5.6309   5.7447   5.8906   6.1066   6.4012
     6.6194   6.9215   7.1550   7.2726   7.8017   7.9186   8.0607   8.2054
     8.6011   8.6885   8.9712   9.1490   9.2561   9.7858   9.8982  12.4383
    12.7053  12.7880  13.1026  13.5387  13.8594  14.3136  15.1080  15.4774
    15.8114  16.0411  18.0151  18.4723

     occupation numbers 
     1.0000   1.0000   1.0000   1.0000   1.0000   1.0000   1.0000   1.0000
     1.0000   1.0000   1.0000   1.0000   1.0000   1.0000   1.0000   1.0000
     1.0000   1.0000   1.0000   1.0000   1.0000   1.0000   1.0000   1.0000
     1.0000   1.0000   1.0000   1.0000   1.0000   1.0000   1.0000   1.0000
     1.0000   1.0000   1.0000   1.0000   1.0000   1.0000   1.0000   1.0000
     1.0000   1.0000   1.0000   1.0000   1.0000   1.0000   1.0000   1.0000
     1.0000   1.0000   1.0000   1.0000   1.0000   1.0000   1.0000   0.0000
     0.0000   0.0000   0.0000   0.0000   0.0000   0.0000   0.0000   0.0000
     0.0000   0.0000   0.0000   0.0000

          k = 0.0812-0.2231 0.2128 ( 19126 PWs)   bands (ev):

  -101.4363 -91.5256 -64.6716 -64.6134 -59.4052 -58.7257 -58.6305 -52.0089
   -51.9605 -51.9275 -28.9803 -28.9253 -28.8890 -28.8416 -28.7867 -28.7379
    -8.1659  -7.4189  -7.1909  -7.0300  -6.6224  -6.3599  -6.2017  -5.9676
     2.6704   2.7773   3.1594   3.2331   3.8868   4.2323   4.4895   4.8264
     5.0543   5.2614   5.4149   5.6144   5.7697   5.8700   6.0944   6.4715
     6.6560   7.0278   7.0889   7.3517   7.6976   7.7923   7.9708   8.1127
     8.4223   8.7730   9.0015   9.2208   9.3592   9.6875   9.9205  12.3723
    12.5876  12.9458  13.1909  13.4099  13.8996  14.3004  15.0028  15.4453
    16.1137  16.2934  18.0279  18.5483

     occupation numbers 
     1.0000   1.0000   1.0000   1.0000   1.0000   1.0000   1.0000   1.0000
     1.0000   1.0000   1.0000   1.0000   1.0000   1.0000   1.0000   1.0000
     1.0000   1.0000   1.0000   1.0000   1.0000   1.0000   1.0000   1.0000
     1.0000   1.0000   1.0000   1.0000   1.0000   1.0000   1.0000   1.0000
     1.0000   1.0000   1.0000   1.0000   1.0000   1.0000   1.0000   1.0000
     1.0000   1.0000   1.0000   1.0000   1.0000   1.0000   1.0000   1.0000
     1.0000   1.0000   1.0000   1.0000   1.0000   1.0000   1.0000   0.0000
     0.0000   0.0000   0.0000   0.0000   0.0000   0.0000   0.0000   0.0000
     0.0000   0.0000   0.0000   0.0000

          k = 0.0798-0.2232 0.3552 ( 19099 PWs)   bands (ev):

  -101.4363 -91.5256 -64.6716 -64.6134 -59.4052 -58.7257 -58.6305 -52.0089
   -51.9605 -51.9274 -28.9780 -28.9319 -28.8838 -28.8487 -28.7744 -28.7442
    -7.9857  -7.6026  -7.1596  -7.0709  -6.6309  -6.3510  -6.1743  -6.0018
     2.6678   2.7736   3.1214   3.2398   3.9353   4.2932   4.5139   4.7610
     5.0325   5.2046   5.3675   5.7150   5.8422   6.0088   6.2534   6.4904
     6.5666   6.8437   7.1740   7.3238   7.5922   7.6574   7.9080   8.0882
     8.2781   8.7501   9.1467   9.4175   9.4497   9.6146   9.9128  12.2394
    12.5378  13.0664  13.2707  13.2916  14.0049  14.2696  14.9783  15.2825
    16.2372  16.4550  18.3750  18.5377

     occupation numbers 
     1.0000   1.0000   1.0000   1.0000   1.0000   1.0000   1.0000   1.0000
     1.0000   1.0000   1.0000   1.0000   1.0000   1.0000   1.0000   1.0000
     1.0000   1.0000   1.0000   1.0000   1.0000   1.0000   1.0000   1.0000
     1.0000   1.0000   1.0000   1.0000   1.0000   1.0000   1.0000   1.0000
     1.0000   1.0000   1.0000   1.0000   1.0000   1.0000   1.0000   1.0000
     1.0000   1.0000   1.0000   1.0000   1.0000   1.0000   1.0000   1.0000
     1.0000   1.0000   1.0000   1.0000   1.0000   1.0000   1.0000   0.0000
     0.0000   0.0000   0.0000   0.0000   0.0000   0.0000   0.0000   0.0000
     0.0000   0.0000   0.0000   0.0000

          k = 0.0867-0.2231-0.3570 ( 19128 PWs)   bands (ev):

  -101.4363 -91.5256 -64.6716 -64.6134 -59.4052 -58.7257 -58.6305 -52.0089
   -51.9605 -51.9274 -28.9775 -28.9331 -28.8842 -28.8482 -28.7738 -28.7442
    -7.8841  -7.7509  -7.1446  -7.0702  -6.5722  -6.3871  -6.1085  -6.0560
     2.6325   2.7955   3.1317   3.2381   3.9124   4.3044   4.5064   4.7595
     4.9845   5.2255   5.3941   5.6793   5.8802   6.0541   6.2643   6.3495
     6.5514   6.9150   7.2067   7.2980   7.6228   7.7144   7.9478   8.0847
     8.2048   8.7311   9.2328   9.3539   9.4414   9.7186   9.8500  12.2392
    12.5888  13.0543  13.1759  13.3641  14.0706  14.2707  15.0381  15.1794
    16.0783  16.3534  18.2121  18.8079

     occupation numbers 
     1.0000   1.0000   1.0000   1.0000   1.0000   1.0000   1.0000   1.0000
     1.0000   1.0000   1.0000   1.0000   1.0000   1.0000   1.0000   1.0000
     1.0000   1.0000   1.0000   1.0000   1.0000   1.0000   1.0000   1.0000
     1.0000   1.0000   1.0000   1.0000   1.0000   1.0000   1.0000   1.0000
     1.0000   1.0000   1.0000   1.0000   1.0000   1.0000   1.0000   1.0000
     1.0000   1.0000   1.0000   1.0000   1.0000   1.0000   1.0000   1.0000
     1.0000   1.0000   1.0000   1.0000   1.0000   1.0000   1.0000   0.0000
     0.0000   0.0000   0.0000   0.0000   0.0000   0.0000   0.0000   0.0000
     0.0000   0.0000   0.0000   0.0000

          k = 0.0854-0.2231-0.2145 ( 19100 PWs)   bands (ev):

  -101.4363 -91.5256 -64.6717 -64.6134 -59.4052 -58.7257 -58.6305 -52.0089
   -51.9605 -51.9275 -28.9794 -28.9277 -28.8897 -28.8406 -28.7860 -28.7376
    -8.0999  -7.5952  -7.1320  -7.0316  -6.5493  -6.3551  -6.1806  -6.0074
     2.6107   2.8131   3.1219   3.2863   3.8416   4.2582   4.5125   4.7913
     4.9929   5.2146   5.4112   5.6186   5.7730   6.0485   6.1993   6.3302
     6.4770   6.8858   7.3458   7.4502   7.5996   7.8363   8.0646   8.1543
     8.3894   8.6979   9.1080   9.2415   9.3045   9.7597   9.8454  12.3388
    12.7208  12.9654  13.1158  13.4191  14.0233  14.2963  15.1493  15.2313
    15.7934  16.0871  18.0194  18.7137

     occupation numbers 
     1.0000   1.0000   1.0000   1.0000   1.0000   1.0000   1.0000   1.0000
     1.0000   1.0000   1.0000   1.0000   1.0000   1.0000   1.0000   1.0000
     1.0000   1.0000   1.0000   1.0000   1.0000   1.0000   1.0000   1.0000
     1.0000   1.0000   1.0000   1.0000   1.0000   1.0000   1.0000   1.0000
     1.0000   1.0000   1.0000   1.0000   1.0000   1.0000   1.0000   1.0000
     1.0000   1.0000   1.0000   1.0000   1.0000   1.0000   1.0000   1.0000
     1.0000   1.0000   1.0000   1.0000   1.0000   1.0000   1.0000   0.0000
     0.0000   0.0000   0.0000   0.0000   0.0000   0.0000   0.0000   0.0000
     0.0000   0.0000   0.0000   0.0000

          k = 0.0840-0.2231-0.0721 ( 19118 PWs)   bands (ev):

  -101.4363 -91.5256 -64.6718 -64.6133 -59.4052 -58.7257 -58.6305 -52.0089
   -51.9605 -51.9275 -28.9812 -28.9209 -28.8947 -28.8325 -28.7978 -28.7335
    -8.2423  -7.4714  -7.1321  -6.9896  -6.6006  -6.3033  -6.2125  -5.9793
     2.6069   2.8079   3.1187   3.3466   3.7689   4.2665   4.4279   4.8428
     4.9960   5.2437   5.3862   5.6360   5.8320   5.9072   6.1009   6.3487
     6.6339   6.7747   7.1877   7.4448   7.7096   7.9972   8.0313   8.2953
     8.5570   8.7041   8.9671   9.1733   9.2283   9.8038   9.8685  12.4045
    12.7767  12.8323  13.0685  13.5259  13.9213  14.3152  15.1865  15.3522
    15.6732  15.9330  18.0451  18.5053

     occupation numbers 
     1.0000   1.0000   1.0000   1.0000   1.0000   1.0000   1.0000   1.0000
     1.0000   1.0000   1.0000   1.0000   1.0000   1.0000   1.0000   1.0000
     1.0000   1.0000   1.0000   1.0000   1.0000   1.0000   1.0000   1.0000
     1.0000   1.0000   1.0000   1.0000   1.0000   1.0000   1.0000   1.0000
     1.0000   1.0000   1.0000   1.0000   1.0000   1.0000   1.0000   1.0000
     1.0000   1.0000   1.0000   1.0000   1.0000   1.0000   1.0000   1.0000
     1.0000   1.0000   1.0000   1.0000   1.0000   1.0000   1.0000   0.0000
     0.0000   0.0000   0.0000   0.0000   0.0000   0.0000   0.0000   0.0000
     0.0000   0.0000   0.0000   0.0000

          k = 0.0827-0.0759 0.0668 ( 19108 PWs)   bands (ev):

  -101.4363 -91.5256 -64.6718 -64.6133 -59.4052 -58.7257 -58.6305 -52.0089
   -51.9605 -51.9275 -28.9820 -28.9205 -28.8950 -28.8318 -28.7976 -28.7332
    -8.4341  -7.3138  -7.1056  -6.9064  -6.4977  -6.4136  -6.1735  -6.0431
     2.5534   2.7412   3.1130   3.2960   3.5621   4.1381   4.4089   4.7397
     5.0311   5.3140   5.5423   5.6446   5.9333   6.0984   6.1697   6.3884
     6.6999   6.8624   7.2191   7.2930   7.7094   7.7937   7.9415   8.0229
     8.4098   8.6839   9.3342   9.4000   9.4589   9.9442  10.0411  12.1992
    12.6870  12.8001  12.9787  13.6615  13.8832  14.2615  15.0824  15.4643
    15.7190  16.0254  17.6504  18.8738

     occupation numbers 
     1.0000   1.0000   1.0000   1.0000   1.0000   1.0000   1.0000   1.0000
     1.0000   1.0000   1.0000   1.0000   1.0000   1.0000   1.0000   1.0000
     1.0000   1.0000   1.0000   1.0000   1.0000   1.0000   1.0000   1.0000
     1.0000   1.0000   1.0000   1.0000   1.0000   1.0000   1.0000   1.0000
     1.0000   1.0000   1.0000   1.0000   1.0000   1.0000   1.0000   1.0000
     1.0000   1.0000   1.0000   1.0000   1.0000   1.0000   1.0000   1.0000
     1.0000   1.0000   1.0000   1.0000   1.0000   1.0000   1.0000   0.0000
     0.0000   0.0000   0.0000   0.0000   0.0000   0.0000   0.0000   0.0000
     0.0000   0.0000   0.0000   0.0000

          k = 0.0813-0.0759 0.2093 ( 19108 PWs)   bands (ev):

  -101.4363 -91.5256 -64.6717 -64.6134 -59.4052 -58.7257 -58.6305 -52.0089
   -51.9605 -51.9275 -28.9801 -28.9255 -28.8896 -28.8407 -28.7867 -28.7379
    -8.3199  -7.4199  -7.0896  -6.9487  -6.5414  -6.4269  -6.1260  -6.0342
     2.5786   2.7282   3.1087   3.1969   3.6879   4.2272   4.3553   4.7820
     5.0476   5.2840   5.5656   5.6631   5.8855   6.0374   6.1888   6.4078
     6.6790   7.0272   7.1536   7.2795   7.6045   7.7346   7.9651   8.0971
     8.2798   8.5959   9.3427   9.4178   9.5561   9.9129   9.9928  12.2248
    12.5883  12.8768  13.1125  13.5144  13.9340  14.2205  14.9964  15.4522
    16.0819  16.2646  17.5493  19.0675

     occupation numbers 
     1.0000   1.0000   1.0000   1.0000   1.0000   1.0000   1.0000   1.0000
     1.0000   1.0000   1.0000   1.0000   1.0000   1.0000   1.0000   1.0000
     1.0000   1.0000   1.0000   1.0000   1.0000   1.0000   1.0000   1.0000
     1.0000   1.0000   1.0000   1.0000   1.0000   1.0000   1.0000   1.0000
     1.0000   1.0000   1.0000   1.0000   1.0000   1.0000   1.0000   1.0000
     1.0000   1.0000   1.0000   1.0000   1.0000   1.0000   1.0000   1.0000
     1.0000   1.0000   1.0000   1.0000   1.0000   1.0000   1.0000   0.0000
     0.0000   0.0000   0.0000   0.0000   0.0000   0.0000   0.0000   0.0000
     0.0000   0.0000   0.0000   0.0000

          k = 0.0799-0.0759 0.3517 ( 19103 PWs)   bands (ev):

  -101.4363 -91.5256 -64.6716 -64.6134 -59.4052 -58.7257 -58.6305 -52.0089
   -51.9605 -51.9275 -28.9774 -28.9309 -28.8841 -28.8486 -28.7750 -28.7447
    -8.1020  -7.6695  -7.0754  -7.0052  -6.5615  -6.3715  -6.1013  -6.0327
     2.5512   2.7077   3.1029   3.1576   3.7796   4.3135   4.4047   4.7396
     5.0783   5.2708   5.5798   5.7188   5.8694   6.0110   6.2298   6.4697
     6.5768   6.8403   7.0555   7.2267   7.5555   7.7699   7.9621   8.0733
     8.2713   8.8555   9.3652   9.4455   9.6628   9.8020   9.9703  12.1669
    12.5084  12.9887  13.1895  13.3404  14.0654  14.2013  14.9550  15.2895
    16.1976  16.4430  18.0367  18.9452

     occupation numbers 
     1.0000   1.0000   1.0000   1.0000   1.0000   1.0000   1.0000   1.0000
     1.0000   1.0000   1.0000   1.0000   1.0000   1.0000   1.0000   1.0000
     1.0000   1.0000   1.0000   1.0000   1.0000   1.0000   1.0000   1.0000
     1.0000   1.0000   1.0000   1.0000   1.0000   1.0000   1.0000   1.0000
     1.0000   1.0000   1.0000   1.0000   1.0000   1.0000   1.0000   1.0000
     1.0000   1.0000   1.0000   1.0000   1.0000   1.0000   1.0000   1.0000
     1.0000   1.0000   1.0000   1.0000   1.0000   1.0000   1.0000   0.0000
     0.0000   0.0000   0.0000   0.0000   0.0000   0.0000   0.0000   0.0000
     0.0000   0.0000   0.0000   0.0000

          k = 0.0868-0.0759-0.3605 ( 19123 PWs)   bands (ev):

  -101.4363 -91.5256 -64.6716 -64.6134 -59.4052 -58.7257 -58.6305 -52.0089
   -51.9605 -51.9275 -28.9771 -28.9315 -28.8843 -28.8483 -28.7748 -28.7447
    -7.9952  -7.8147  -7.0641  -7.0302  -6.5033  -6.3581  -6.0906  -6.0578
     2.5179   2.7176   3.1055   3.1604   3.7560   4.3602   4.4422   4.6890
     5.0739   5.3568   5.5353   5.5955   5.8882   6.0314   6.2567   6.4372
     6.5119   6.7321   7.1423   7.2843   7.5940   7.7854   7.9822   8.1145
     8.2353   8.9637   9.3403   9.5377   9.5984   9.7913   9.9486  12.1488
    12.5153  13.0372  13.1111  13.3756  14.0431  14.2818  14.9981  15.1905
    16.0354  16.3182  18.1844  18.9824

     occupation numbers 
     1.0000   1.0000   1.0000   1.0000   1.0000   1.0000   1.0000   1.0000
     1.0000   1.0000   1.0000   1.0000   1.0000   1.0000   1.0000   1.0000
     1.0000   1.0000   1.0000   1.0000   1.0000   1.0000   1.0000   1.0000
     1.0000   1.0000   1.0000   1.0000   1.0000   1.0000   1.0000   1.0000
     1.0000   1.0000   1.0000   1.0000   1.0000   1.0000   1.0000   1.0000
     1.0000   1.0000   1.0000   1.0000   1.0000   1.0000   1.0000   1.0000
     1.0000   1.0000   1.0000   1.0000   1.0000   1.0000   1.0000   0.0000
     0.0000   0.0000   0.0000   0.0000   0.0000   0.0000   0.0000   0.0000
     0.0000   0.0000   0.0000   0.0000

          k = 0.0854-0.0759-0.2180 ( 19117 PWs)   bands (ev):

  -101.4363 -91.5256 -64.6717 -64.6133 -59.4052 -58.7257 -58.6305 -52.0089
   -51.9605 -51.9275 -28.9796 -28.9267 -28.8900 -28.8400 -28.7863 -28.7377
    -8.2513  -7.5790  -7.0426  -7.0126  -6.4371  -6.3655  -6.1437  -6.0643
     2.5245   2.7512   3.0796   3.2131   3.6522   4.3179   4.3786   4.7193
     5.1332   5.2900   5.4945   5.6006   5.7796   6.0720   6.2815   6.3701
     6.4942   7.0188   7.1647   7.2779   7.5833   7.9052   8.0325   8.1150
     8.3197   8.8240   9.2774   9.4833   9.5503   9.8128   9.9937  12.1779
    12.6192  12.9451  13.0564  13.5167  13.9408  14.3390  15.0621  15.2688
    15.7467  16.0695  17.7499  19.1154

     occupation numbers 
     1.0000   1.0000   1.0000   1.0000   1.0000   1.0000   1.0000   1.0000
     1.0000   1.0000   1.0000   1.0000   1.0000   1.0000   1.0000   1.0000
     1.0000   1.0000   1.0000   1.0000   1.0000   1.0000   1.0000   1.0000
     1.0000   1.0000   1.0000   1.0000   1.0000   1.0000   1.0000   1.0000
     1.0000   1.0000   1.0000   1.0000   1.0000   1.0000   1.0000   1.0000
     1.0000   1.0000   1.0000   1.0000   1.0000   1.0000   1.0000   1.0000
     1.0000   1.0000   1.0000   1.0000   1.0000   1.0000   1.0000   0.0000
     0.0000   0.0000   0.0000   0.0000   0.0000   0.0000   0.0000   0.0000
     0.0000   0.0000   0.0000   0.0000

          k = 0.0841-0.0759-0.0756 ( 19121 PWs)   bands (ev):

  -101.4363 -91.5256 -64.6718 -64.6133 -59.4052 -58.7257 -58.6305 -52.0089
   -51.9605 -51.9275 -28.9818 -28.9212 -28.8951 -28.8314 -28.7976 -28.7331
    -8.4113  -7.3972  -7.0649  -6.9450  -6.4488  -6.3661  -6.1897  -6.0595
     2.5351   2.7530   3.0829   3.3065   3.5470   4.2046   4.3627   4.7322
     5.1723   5.2511   5.4317   5.6432   5.9316   6.1404   6.1655   6.3783
     6.5821   6.8749   7.2366   7.2963   7.6061   7.8870   7.9593   8.1606
     8.4355   8.7564   9.3251   9.4054   9.4533   9.8735  10.0550  12.1790
    12.7102  12.8374  12.9541  13.6506  13.8991  14.3200  15.0774  15.3901
    15.5974  15.9254  17.7265  18.8818

     occupation numbers 
     1.0000   1.0000   1.0000   1.0000   1.0000   1.0000   1.0000   1.0000
     1.0000   1.0000   1.0000   1.0000   1.0000   1.0000   1.0000   1.0000
     1.0000   1.0000   1.0000   1.0000   1.0000   1.0000   1.0000   1.0000
     1.0000   1.0000   1.0000   1.0000   1.0000   1.0000   1.0000   1.0000
     1.0000   1.0000   1.0000   1.0000   1.0000   1.0000   1.0000   1.0000
     1.0000   1.0000   1.0000   1.0000   1.0000   1.0000   1.0000   1.0000
     1.0000   1.0000   1.0000   1.0000   1.0000   1.0000   1.0000   0.0000
     0.0000   0.0000   0.0000   0.0000   0.0000   0.0000   0.0000   0.0000
     0.0000   0.0000   0.0000   0.0000

          k = 0.2495 0.0666 0.0511 ( 19125 PWs)   bands (ev):

  -101.4363 -91.5256 -64.6716 -64.6133 -59.4052 -58.7257 -58.6305 -52.0089
   -51.9605 -51.9275 -28.9822 -28.9214 -28.8955 -28.8316 -28.7981 -28.7333
    -8.2758  -7.3434  -7.1110  -7.0402  -6.4314  -6.3549  -6.2152  -6.1697
     2.5890   2.7871   3.2627   3.2889   3.7333   4.1417   4.3472   4.8175
     5.0637   5.2225   5.4934   5.6708   5.7746   5.9592   6.1392   6.1925
     6.5959   6.7036   7.1595   7.4122   7.5618   7.7624   8.1733   8.4480
     8.5509   8.8414   9.0744   9.3486   9.4629   9.9249  10.1588  12.1184
    12.6150  12.8731  13.0309  13.5703  13.8208  14.3620  15.0994  15.5087
    15.9842  16.2388  17.8310  18.8469

     occupation numbers 
     1.0000   1.0000   1.0000   1.0000   1.0000   1.0000   1.0000   1.0000
     1.0000   1.0000   1.0000   1.0000   1.0000   1.0000   1.0000   1.0000
     1.0000   1.0000   1.0000   1.0000   1.0000   1.0000   1.0000   1.0000
     1.0000   1.0000   1.0000   1.0000   1.0000   1.0000   1.0000   1.0000
     1.0000   1.0000   1.0000   1.0000   1.0000   1.0000   1.0000   1.0000
     1.0000   1.0000   1.0000   1.0000   1.0000   1.0000   1.0000   1.0000
     1.0000   1.0000   1.0000   1.0000   1.0000   1.0000   1.0000   0.0000
     0.0000   0.0000   0.0000   0.0000   0.0000   0.0000   0.0000   0.0000
     0.0000   0.0000   0.0000   0.0000

          k = 0.2482 0.0666 0.1936 ( 19116 PWs)   bands (ev):

  -101.4363 -91.5256 -64.6715 -64.6135 -59.4052 -58.7257 -58.6305 -52.0089
   -51.9605 -51.9275 -28.9800 -28.9268 -28.8902 -28.8408 -28.7865 -28.7380
    -8.2094  -7.3306  -7.1556  -6.9917  -6.5486  -6.4605  -6.1434  -6.1190
     2.5985   2.7912   3.2719   3.2926   3.8137   4.1186   4.3427   4.8671
     4.9610   5.2588   5.4459   5.6090   5.7896   5.8995   6.0471   6.2143
     6.7631   6.8661   7.2629   7.2941   7.6193   7.7584   8.0501   8.3092
     8.4598   8.7428   9.2264   9.3766   9.4879  10.0347  10.0470  12.1227
    12.5963  12.9138  13.0840  13.4965  13.8859  14.1992  15.0836  15.4932
    16.1738  16.4924  17.7549  18.9587

     occupation numbers 
     1.0000   1.0000   1.0000   1.0000   1.0000   1.0000   1.0000   1.0000
     1.0000   1.0000   1.0000   1.0000   1.0000   1.0000   1.0000   1.0000
     1.0000   1.0000   1.0000   1.0000   1.0000   1.0000   1.0000   1.0000
     1.0000   1.0000   1.0000   1.0000   1.0000   1.0000   1.0000   1.0000
     1.0000   1.0000   1.0000   1.0000   1.0000   1.0000   1.0000   1.0000
     1.0000   1.0000   1.0000   1.0000   1.0000   1.0000   1.0000   1.0000
     1.0000   1.0000   1.0000   1.0000   1.0000   1.0000   1.0000   0.0000
     0.0000   0.0000   0.0000   0.0000   0.0000   0.0000   0.0000   0.0000
     0.0000   0.0000   0.0000   0.0000

          k = 0.2468 0.0666 0.3360 ( 19132 PWs)   bands (ev):

  -101.4363 -91.5255 -64.6714 -64.6136 -59.4052 -58.7257 -58.6305 -52.0089
   -51.9605 -51.9275 -28.9775 -28.9315 -28.8845 -28.8490 -28.7749 -28.7450
    -8.0447  -7.4917  -7.1839  -6.9754  -6.6636  -6.4338  -6.1073  -6.0636
     2.5662   2.8010   3.2366   3.3120   3.8430   4.2542   4.3227   4.7467
     5.0241   5.1218   5.3073   5.6390   5.7761   5.9772   6.1100   6.4105
     6.7417   6.8964   7.0637   7.2715   7.5417   7.8654   7.9830   8.1588
     8.5696   8.7846   9.2775   9.4493   9.6776   9.9167  10.1000  12.0891
    12.5957  12.8939  13.0586  13.5309  13.9930  14.1248  15.0924  15.3603
    16.0791  16.3374  18.3802  18.9419

     occupation numbers 
     1.0000   1.0000   1.0000   1.0000   1.0000   1.0000   1.0000   1.0000
     1.0000   1.0000   1.0000   1.0000   1.0000   1.0000   1.0000   1.0000
     1.0000   1.0000   1.0000   1.0000   1.0000   1.0000   1.0000   1.0000
     1.0000   1.0000   1.0000   1.0000   1.0000   1.0000   1.0000   1.0000
     1.0000   1.0000   1.0000   1.0000   1.0000   1.0000   1.0000   1.0000
     1.0000   1.0000   1.0000   1.0000   1.0000   1.0000   1.0000   1.0000
     1.0000   1.0000   1.0000   1.0000   1.0000   1.0000   1.0000   0.0000
     0.0000   0.0000   0.0000   0.0000   0.0000   0.0000   0.0000   0.0000
     0.0000   0.0000   0.0000   0.0000

          k = 0.2537 0.0667-0.3762 ( 19123 PWs)   bands (ev):

  -101.4363 -91.5255 -64.6714 -64.6136 -59.4052 -58.7257 -58.6305 -52.0089
   -51.9605 -51.9275 -28.9777 -28.9309 -28.8845 -28.8491 -28.7753 -28.7449
    -7.8539  -7.7372  -7.2080  -6.9904  -6.6405  -6.3677  -6.1119  -6.0428
     2.5294   2.8014   3.2058   3.3187   3.8019   4.3601   4.4578   4.6513
     4.9666   5.0656   5.2958   5.5474   5.8424   5.9296   6.1012   6.4306
     6.6179   6.8680   7.2251   7.4461   7.5322   7.8003   8.0010   8.1956
     8.5822   8.7590   9.3545   9.4775   9.6736   9.9156  10.1001  12.0928
    12.5841  12.8701  13.0838  13.5879  13.9472  14.2809  15.1185  15.2086
    15.8595  16.0506  18.6313  19.2254

     occupation numbers 
     1.0000   1.0000   1.0000   1.0000   1.0000   1.0000   1.0000   1.0000
     1.0000   1.0000   1.0000   1.0000   1.0000   1.0000   1.0000   1.0000
     1.0000   1.0000   1.0000   1.0000   1.0000   1.0000   1.0000   1.0000
     1.0000   1.0000   1.0000   1.0000   1.0000   1.0000   1.0000   1.0000
     1.0000   1.0000   1.0000   1.0000   1.0000   1.0000   1.0000   1.0000
     1.0000   1.0000   1.0000   1.0000   1.0000   1.0000   1.0000   1.0000
     1.0000   1.0000   1.0000   1.0000   1.0000   1.0000   1.0000   0.0000
     0.0000   0.0000   0.0000   0.0000   0.0000   0.0000   0.0000   0.0000
     0.0000   0.0000   0.0000   0.0000

          k = 0.2523 0.0667-0.2337 ( 19129 PWs)   bands (ev):

  -101.4363 -91.5256 -64.6715 -64.6134 -59.4052 -58.7257 -58.6305 -52.0089
   -51.9605 -51.9275 -28.9803 -28.9257 -28.8903 -28.8408 -28.7872 -28.7381
    -8.0367  -7.6141  -7.2025  -7.0061  -6.5283  -6.3148  -6.1543  -6.0793
     2.5313   2.8059   3.2078   3.2809   3.7412   4.3542   4.5322   4.6783
     4.9353   5.1712   5.3036   5.4221   5.7551   5.8568   6.1035   6.4528
     6.6866   6.8338   7.2236   7.4848   7.6457   7.9001   8.1156   8.3395
     8.4058   8.7634   9.2678   9.3845   9.6165   9.8683  10.1427  12.1484
    12.6477  12.7989  13.1382  13.6041  13.8817  14.4343  15.0590  15.2821
    15.7334  15.8608  18.2480  19.2122

     occupation numbers 
     1.0000   1.0000   1.0000   1.0000   1.0000   1.0000   1.0000   1.0000
     1.0000   1.0000   1.0000   1.0000   1.0000   1.0000   1.0000   1.0000
     1.0000   1.0000   1.0000   1.0000   1.0000   1.0000   1.0000   1.0000
     1.0000   1.0000   1.0000   1.0000   1.0000   1.0000   1.0000   1.0000
     1.0000   1.0000   1.0000   1.0000   1.0000   1.0000   1.0000   1.0000
     1.0000   1.0000   1.0000   1.0000   1.0000   1.0000   1.0000   1.0000
     1.0000   1.0000   1.0000   1.0000   1.0000   1.0000   1.0000   0.0000
     0.0000   0.0000   0.0000   0.0000   0.0000   0.0000   0.0000   0.0000
     0.0000   0.0000   0.0000   0.0000

          k = 0.2509 0.0667-0.0913 ( 19121 PWs)   bands (ev):

  -101.4363 -91.5256 -64.6716 -64.6132 -59.4052 -58.7257 -58.6305 -52.0089
   -51.9605 -51.9275 -28.9823 -28.9208 -28.8957 -28.8315 -28.7985 -28.7334
    -8.2163  -7.4529  -7.1546  -7.0264  -6.4121  -6.2893  -6.2251  -6.1539
     2.5604   2.8002   3.2309   3.2720   3.6966   4.2979   4.3490   4.7839
     5.0212   5.2184   5.4046   5.5326   5.7619   5.9339   6.2169   6.2575
     6.5527   6.8087   7.1427   7.4565   7.5446   7.8551   8.2508   8.3721
     8.5988   8.8289   9.0531   9.3691   9.5545   9.8245  10.1946  12.1495
    12.6690  12.7817  13.0629  13.6279  13.8228  14.4683  15.0671  15.4796
    15.7003  15.9511  18.0849  18.8858

     occupation numbers 
     1.0000   1.0000   1.0000   1.0000   1.0000   1.0000   1.0000   1.0000
     1.0000   1.0000   1.0000   1.0000   1.0000   1.0000   1.0000   1.0000
     1.0000   1.0000   1.0000   1.0000   1.0000   1.0000   1.0000   1.0000
     1.0000   1.0000   1.0000   1.0000   1.0000   1.0000   1.0000   1.0000
     1.0000   1.0000   1.0000   1.0000   1.0000   1.0000   1.0000   1.0000
     1.0000   1.0000   1.0000   1.0000   1.0000   1.0000   1.0000   1.0000
     1.0000   1.0000   1.0000   1.0000   1.0000   1.0000   1.0000   0.0000
     0.0000   0.0000   0.0000   0.0000   0.0000   0.0000   0.0000   0.0000
     0.0000   0.0000   0.0000   0.0000

          k = 0.2496 0.2139 0.0477 ( 19153 PWs)   bands (ev):

  -101.4363 -91.5256 -64.6715 -64.6133 -59.4052 -58.7257 -58.6305 -52.0089
   -51.9605 -51.9275 -28.9818 -28.9210 -28.8951 -28.8326 -28.7983 -28.7337
    -8.1560  -7.3097  -7.1919  -7.1199  -6.5305  -6.3132  -6.2253  -6.1354
     2.5752   2.8413   3.2387   3.3282   3.8589   4.2287   4.4284   4.8484
     5.0981   5.2001   5.4636   5.6571   5.8246   5.8832   6.1359   6.2633
     6.4813   6.7807   7.1214   7.3765   7.6913   7.8714   8.1753   8.3258
     8.5001   8.7592   9.0150   9.2179   9.3617   9.7310   9.9969  11.9840
    12.6386  12.9114  13.0871  13.5648  13.9180  14.3425  15.0443  15.5015
    16.0535  16.3536  17.9972  18.6493

     occupation numbers 
     1.0000   1.0000   1.0000   1.0000   1.0000   1.0000   1.0000   1.0000
     1.0000   1.0000   1.0000   1.0000   1.0000   1.0000   1.0000   1.0000
     1.0000   1.0000   1.0000   1.0000   1.0000   1.0000   1.0000   1.0000
     1.0000   1.0000   1.0000   1.0000   1.0000   1.0000   1.0000   1.0000
     1.0000   1.0000   1.0000   1.0000   1.0000   1.0000   1.0000   1.0000
     1.0000   1.0000   1.0000   1.0000   1.0000   1.0000   1.0000   1.0000
     1.0000   1.0000   1.0000   1.0000   1.0000   1.0000   1.0000   0.0000
     0.0000   0.0000   0.0000   0.0000   0.0000   0.0000   0.0000   0.0000
     0.0000   0.0000   0.0000   0.0000

          k = 0.2482 0.2138 0.1901 ( 19150 PWs)   bands (ev):

  -101.4363 -91.5256 -64.6714 -64.6134 -59.4052 -58.7257 -58.6305 -52.0089
   -51.9605 -51.9275 -28.9799 -28.9277 -28.8900 -28.8411 -28.7861 -28.7378
    -8.0873  -7.3654  -7.1875  -7.0994  -6.4942  -6.4055  -6.2360  -6.1229
     2.5623   2.8559   3.2785   3.3303   3.9489   4.2557   4.3425   4.8714
     5.0429   5.1586   5.4477   5.6281   5.6756   5.8553   6.1072   6.3273
     6.6570   6.8797   7.1544   7.4550   7.7854   7.8658   8.0449   8.2142
     8.4203   8.7457   9.0542   9.1577   9.4101   9.8452   9.9013  12.0278
    12.5385  12.9125  13.1051  13.5215  13.9091  14.2328  15.0622  15.4905
    16.2297  16.5042  18.0956  18.6777

     occupation numbers 
     1.0000   1.0000   1.0000   1.0000   1.0000   1.0000   1.0000   1.0000
     1.0000   1.0000   1.0000   1.0000   1.0000   1.0000   1.0000   1.0000
     1.0000   1.0000   1.0000   1.0000   1.0000   1.0000   1.0000   1.0000
     1.0000   1.0000   1.0000   1.0000   1.0000   1.0000   1.0000   1.0000
     1.0000   1.0000   1.0000   1.0000   1.0000   1.0000   1.0000   1.0000
     1.0000   1.0000   1.0000   1.0000   1.0000   1.0000   1.0000   1.0000
     1.0000   1.0000   1.0000   1.0000   1.0000   1.0000   1.0000   0.0000
     0.0000   0.0000   0.0000   0.0000   0.0000   0.0000   0.0000   0.0000
     0.0000   0.0000   0.0000   0.0000

          k = 0.2468 0.2138 0.3325 ( 19130 PWs)   bands (ev):

  -101.4363 -91.5256 -64.6713 -64.6136 -59.4052 -58.7257 -58.6305 -52.0089
   -51.9605 -51.9274 -28.9779 -28.9331 -28.8846 -28.8489 -28.7739 -28.7444
    -7.9302  -7.5334  -7.2119  -7.0514  -6.5474  -6.4044  -6.2043  -6.1246
     2.5294   2.8702   3.2795   3.3590   3.9534   4.2748   4.4021   4.7843
     4.9815   5.0977   5.2701   5.5302   5.7671   5.9907   6.3391   6.4886
     6.7275   6.8926   7.0261   7.3628   7.6785   7.8048   7.9747   8.1314
     8.5384   8.7759   8.9881   9.2710   9.5619   9.7508   9.9764  12.0812
    12.4968  12.7796  13.0917  13.6418  13.8790  14.2403  15.1173  15.3626
    16.1829  16.3277  18.4779  18.7303

     occupation numbers 
     1.0000   1.0000   1.0000   1.0000   1.0000   1.0000   1.0000   1.0000
     1.0000   1.0000   1.0000   1.0000   1.0000   1.0000   1.0000   1.0000
     1.0000   1.0000   1.0000   1.0000   1.0000   1.0000   1.0000   1.0000
     1.0000   1.0000   1.0000   1.0000   1.0000   1.0000   1.0000   1.0000
     1.0000   1.0000   1.0000   1.0000   1.0000   1.0000   1.0000   1.0000
     1.0000   1.0000   1.0000   1.0000   1.0000   1.0000   1.0000   1.0000
     1.0000   1.0000   1.0000   1.0000   1.0000   1.0000   1.0000   0.0000
     0.0000   0.0000   0.0000   0.0000   0.0000   0.0000   0.0000   0.0000
     0.0000   0.0000   0.0000   0.0000

          k = 0.2537 0.2139-0.3797 ( 19128 PWs)   bands (ev):

  -101.4363 -91.5256 -64.6713 -64.6135 -59.4052 -58.7257 -58.6305 -52.0089
   -51.9605 -51.9275 -28.9784 -28.9318 -28.8844 -28.8493 -28.7745 -28.7444
    -7.7952  -7.6769  -7.2644  -7.0120  -6.6160  -6.3157  -6.2006  -6.1199
     2.5145   2.8744   3.2324   3.3525   3.9172   4.2669   4.5352   4.7882
     4.8702   5.1380   5.2354   5.5235   5.9080   5.9946   6.2669   6.4517
     6.6305   6.9079   7.1857   7.4294   7.5071   7.7610   8.0064   8.2502
     8.4971   8.7666   9.0539   9.2393   9.5313   9.8160   9.9683  12.1190
    12.5215  12.7689  13.0577  13.6968  13.9699  14.3246  15.1481  15.2433
    15.9800  16.0574  18.2834  19.2766

     occupation numbers 
     1.0000   1.0000   1.0000   1.0000   1.0000   1.0000   1.0000   1.0000
     1.0000   1.0000   1.0000   1.0000   1.0000   1.0000   1.0000   1.0000
     1.0000   1.0000   1.0000   1.0000   1.0000   1.0000   1.0000   1.0000
     1.0000   1.0000   1.0000   1.0000   1.0000   1.0000   1.0000   1.0000
     1.0000   1.0000   1.0000   1.0000   1.0000   1.0000   1.0000   1.0000
     1.0000   1.0000   1.0000   1.0000   1.0000   1.0000   1.0000   1.0000
     1.0000   1.0000   1.0000   1.0000   1.0000   1.0000   1.0000   0.0000
     0.0000   0.0000   0.0000   0.0000   0.0000   0.0000   0.0000   0.0000
     0.0000   0.0000   0.0000   0.0000

          k = 0.2524 0.2139-0.2372 ( 19128 PWs)   bands (ev):

  -101.4363 -91.5256 -64.6714 -64.6134 -59.4052 -58.7257 -58.6305 -52.0089
   -51.9605 -51.9275 -28.9807 -28.9252 -28.8898 -28.8418 -28.7871 -28.7380
    -7.9697  -7.5173  -7.2882  -7.0153  -6.5914  -6.2593  -6.2345  -6.1089
     2.5349   2.8692   3.1970   3.3121   3.8669   4.2613   4.6393   4.7680
     4.8796   5.2585   5.3226   5.4715   5.7667   5.9463   6.2470   6.4054
     6.7309   6.8279   7.0401   7.4019   7.6826   7.8219   8.2071   8.3231
     8.4741   8.7199   8.9990   9.1613   9.4516   9.7764   9.9792  12.1243
    12.6175  12.8007  13.1057  13.6562  14.0339  14.4260  15.0810  15.3548
    15.7801  15.9055  18.1031  19.1102

     occupation numbers 
     1.0000   1.0000   1.0000   1.0000   1.0000   1.0000   1.0000   1.0000
     1.0000   1.0000   1.0000   1.0000   1.0000   1.0000   1.0000   1.0000
     1.0000   1.0000   1.0000   1.0000   1.0000   1.0000   1.0000   1.0000
     1.0000   1.0000   1.0000   1.0000   1.0000   1.0000   1.0000   1.0000
     1.0000   1.0000   1.0000   1.0000   1.0000   1.0000   1.0000   1.0000
     1.0000   1.0000   1.0000   1.0000   1.0000   1.0000   1.0000   1.0000
     1.0000   1.0000   1.0000   1.0000   1.0000   1.0000   1.0000   0.0000
     0.0000   0.0000   0.0000   0.0000   0.0000   0.0000   0.0000   0.0000
     0.0000   0.0000   0.0000   0.0000

          k = 0.2510 0.2139-0.0948 ( 19134 PWs)   bands (ev):

  -101.4363 -91.5256 -64.6715 -64.6132 -59.4052 -58.7257 -58.6305 -52.0089
   -51.9605 -51.9275 -28.9821 -28.9197 -28.8952 -28.8329 -28.7988 -28.7339
    -8.1132  -7.3782  -7.2555  -7.0597  -6.5440  -6.2939  -6.2064  -6.1246
     2.5634   2.8494   3.2091   3.3109   3.8155   4.2667   4.5162   4.7880
     5.0901   5.1704   5.3696   5.6484   5.7984   5.9601   6.2114   6.3032
     6.4925   6.8994   7.0300   7.3376   7.6557   7.8331   8.2276   8.3950
     8.4804   8.7512   8.9895   9.2606   9.3878   9.6579  10.0327  12.0427
    12.6922  12.8309  13.1041  13.6320  13.9713  14.4392  15.0650  15.4469
    15.8058  16.0483  18.0622  18.7726

     occupation numbers 
     1.0000   1.0000   1.0000   1.0000   1.0000   1.0000   1.0000   1.0000
     1.0000   1.0000   1.0000   1.0000   1.0000   1.0000   1.0000   1.0000
     1.0000   1.0000   1.0000   1.0000   1.0000   1.0000   1.0000   1.0000
     1.0000   1.0000   1.0000   1.0000   1.0000   1.0000   1.0000   1.0000
     1.0000   1.0000   1.0000   1.0000   1.0000   1.0000   1.0000   1.0000
     1.0000   1.0000   1.0000   1.0000   1.0000   1.0000   1.0000   1.0000
     1.0000   1.0000   1.0000   1.0000   1.0000   1.0000   1.0000   0.0000
     0.0000   0.0000   0.0000   0.0000   0.0000   0.0000   0.0000   0.0000
     0.0000   0.0000   0.0000   0.0000

          k = 0.2497 0.3611 0.0442 ( 19147 PWs)   bands (ev):

  -101.4363 -91.5256 -64.6715 -64.6132 -59.4052 -58.7257 -58.6305 -52.0090
   -51.9605 -51.9275 -28.9814 -28.9200 -28.8945 -28.8340 -28.7986 -28.7343
    -7.9391  -7.4897  -7.2296  -7.1368  -6.5723  -6.4546  -6.1354  -6.0545
     2.5859   2.8825   3.2211   3.3173   3.9165   4.2190   4.6799   4.9375
     5.1536   5.2844   5.3887   5.5816   5.7218   5.9396   6.0690   6.2678
     6.5615   6.8426   7.0837   7.4706   7.7136   7.9347   8.0869   8.3495
     8.4320   8.5958   8.8716   9.0561   9.2551   9.5814   9.7733  12.0729
    12.7430  12.8991  13.1160  13.4925  14.0390  14.2937  14.9791  15.5191
    16.1163  16.4284  18.1040  18.4078

     occupation numbers 
     1.0000   1.0000   1.0000   1.0000   1.0000   1.0000   1.0000   1.0000
     1.0000   1.0000   1.0000   1.0000   1.0000   1.0000   1.0000   1.0000
     1.0000   1.0000   1.0000   1.0000   1.0000   1.0000   1.0000   1.0000
     1.0000   1.0000   1.0000   1.0000   1.0000   1.0000   1.0000   1.0000
     1.0000   1.0000   1.0000   1.0000   1.0000   1.0000   1.0000   1.0000
     1.0000   1.0000   1.0000   1.0000   1.0000   1.0000   1.0000   1.0000
     1.0000   1.0000   1.0000   1.0000   1.0000   1.0000   1.0000   0.0000
     0.0000   0.0000   0.0000   0.0000   0.0000   0.0000   0.0000   0.0000
     0.0000   0.0000   0.0000   0.0000

          k = 0.2483 0.3611 0.1866 ( 19138 PWs)   bands (ev):

  -101.4363 -91.5256 -64.6714 -64.6134 -59.4052 -58.7257 -58.6305 -52.0089
   -51.9605 -51.9275 -28.9801 -28.9275 -28.8894 -28.8419 -28.7861 -28.7378
    -7.8652  -7.5008  -7.2721  -7.1544  -6.5037  -6.3937  -6.2756  -6.0625
     2.5777   2.8985   3.2755   3.2920   3.9845   4.2766   4.5912   4.8702
     5.0744   5.2548   5.4090   5.5760   5.6801   5.8757   6.0994   6.3753
     6.6006   6.8644   7.0867   7.5691   7.7670   8.0282   8.0961   8.2371
     8.3999   8.6633   8.8183   8.9310   9.2771   9.6259   9.7527  12.1067
    12.5565  12.8475  13.1482  13.4941  13.9118  14.2939  15.0288  15.4926
    16.2612  16.5083  18.2505  18.6569

     occupation numbers 
     1.0000   1.0000   1.0000   1.0000   1.0000   1.0000   1.0000   1.0000
     1.0000   1.0000   1.0000   1.0000   1.0000   1.0000   1.0000   1.0000
     1.0000   1.0000   1.0000   1.0000   1.0000   1.0000   1.0000   1.0000
     1.0000   1.0000   1.0000   1.0000   1.0000   1.0000   1.0000   1.0000
     1.0000   1.0000   1.0000   1.0000   1.0000   1.0000   1.0000   1.0000
     1.0000   1.0000   1.0000   1.0000   1.0000   1.0000   1.0000   1.0000
     1.0000   1.0000   1.0000   1.0000   1.0000   1.0000   1.0000   0.0000
     0.0000   0.0000   0.0000   0.0000   0.0000   0.0000   0.0000   0.0000
     0.0000   0.0000   0.0000   0.0000

          k = 0.2469 0.3610 0.3290 ( 19147 PWs)   bands (ev):

  -101.4363 -91.5256 -64.6713 -64.6136 -59.4052 -58.7257 -58.6305 -52.0089
   -51.9605 -51.9274 -28.9785 -28.9340 -28.8845 -28.8489 -28.7731 -28.7439
    -7.7366  -7.5899  -7.2683  -7.1516  -6.4918  -6.4320  -6.2795  -6.0919
     2.5664   2.9112   3.2431   3.3417   3.9608   4.3474   4.5896   4.7248
     5.0071   5.1586   5.2645   5.6453   5.7767   6.0426   6.3188   6.5417
     6.6812   6.8143   6.9921   7.5166   7.6735   7.8539   7.9624   8.2900
     8.4070   8.6290   8.8429   9.0172   9.4297   9.4861   9.9031  12.1747
    12.4349  12.6892  13.1605  13.6526  13.8211  14.3303  15.1351  15.3705
    16.2038  16.3327  18.2252  19.1514

     occupation numbers 
     1.0000   1.0000   1.0000   1.0000   1.0000   1.0000   1.0000   1.0000
     1.0000   1.0000   1.0000   1.0000   1.0000   1.0000   1.0000   1.0000
     1.0000   1.0000   1.0000   1.0000   1.0000   1.0000   1.0000   1.0000
     1.0000   1.0000   1.0000   1.0000   1.0000   1.0000   1.0000   1.0000
     1.0000   1.0000   1.0000   1.0000   1.0000   1.0000   1.0000   1.0000
     1.0000   1.0000   1.0000   1.0000   1.0000   1.0000   1.0000   1.0000
     1.0000   1.0000   1.0000   1.0000   1.0000   1.0000   1.0000   0.0000
     0.0000   0.0000   0.0000   0.0000   0.0000   0.0000   0.0000   0.0000
     0.0000   0.0000   0.0000   0.0000

          k = 0.2538 0.3611-0.3831 ( 19129 PWs)   bands (ev):

  -101.4363 -91.5256 -64.6714 -64.6135 -59.4052 -58.7257 -58.6305 -52.0089
   -51.9605 -51.9274 -28.9788 -28.9333 -28.8844 -28.8492 -28.7735 -28.7438
    -7.7498  -7.5603  -7.2940  -7.0761  -6.6836  -6.3805  -6.1620  -6.1327
     2.5697   2.9169   3.2002   3.3219   3.9246   4.2856   4.6082   4.7133
     5.0683   5.1454   5.3391   5.7181   5.9448   6.1383   6.2175   6.3320
     6.6402   6.7901   7.2675   7.3741   7.6063   7.7536   8.0033   8.2843
     8.3646   8.6164   8.9260   9.0016   9.3889   9.5895   9.8902  12.2265
    12.4623  12.7076  13.0961  13.7140  13.9548  14.3922  15.1671  15.3087
    15.9639  16.1155  18.0452  19.2867

     occupation numbers 
     1.0000   1.0000   1.0000   1.0000   1.0000   1.0000   1.0000   1.0000
     1.0000   1.0000   1.0000   1.0000   1.0000   1.0000   1.0000   1.0000
     1.0000   1.0000   1.0000   1.0000   1.0000   1.0000   1.0000   1.0000
     1.0000   1.0000   1.0000   1.0000   1.0000   1.0000   1.0000   1.0000
     1.0000   1.0000   1.0000   1.0000   1.0000   1.0000   1.0000   1.0000
     1.0000   1.0000   1.0000   1.0000   1.0000   1.0000   1.0000   1.0000
     1.0000   1.0000   1.0000   1.0000   1.0000   1.0000   1.0000   0.0000
     0.0000   0.0000   0.0000   0.0000   0.0000   0.0000   0.0000   0.0000
     0.0000   0.0000   0.0000   0.0000

          k = 0.2524 0.3611-0.2407 ( 19133 PWs)   bands (ev):

  -101.4363 -91.5256 -64.6715 -64.6133 -59.4052 -58.7257 -58.6305 -52.0089
   -51.9605 -51.9275 -28.9806 -28.9261 -28.8894 -28.8423 -28.7867 -28.7378
    -7.8601  -7.4974  -7.2742  -7.0535  -6.7367  -6.3862  -6.1268  -6.0883
     2.5851   2.9048   3.1709   3.2881   3.8919   4.2362   4.6709   4.8345
     5.0314   5.2732   5.5126   5.5839   5.8581   6.0322   6.1897   6.2901
     6.6024   6.8525   7.1813   7.2900   7.6022   7.8475   8.1872   8.3300
     8.4447   8.5957   8.8184   8.9803   9.3436   9.5887   9.8049  12.2304
    12.5960  12.8200  13.0780  13.7057  14.0874  14.4315  15.0977  15.4235
    15.8268  15.9252  17.9086  19.0026

     occupation numbers 
     1.0000   1.0000   1.0000   1.0000   1.0000   1.0000   1.0000   1.0000
     1.0000   1.0000   1.0000   1.0000   1.0000   1.0000   1.0000   1.0000
     1.0000   1.0000   1.0000   1.0000   1.0000   1.0000   1.0000   1.0000
     1.0000   1.0000   1.0000   1.0000   1.0000   1.0000   1.0000   1.0000
     1.0000   1.0000   1.0000   1.0000   1.0000   1.0000   1.0000   1.0000
     1.0000   1.0000   1.0000   1.0000   1.0000   1.0000   1.0000   1.0000
     1.0000   1.0000   1.0000   1.0000   1.0000   1.0000   1.0000   0.0000
     0.0000   0.0000   0.0000   0.0000   0.0000   0.0000   0.0000   0.0000
     0.0000   0.0000   0.0000   0.0000

          k = 0.2510 0.3611-0.0983 ( 19135 PWs)   bands (ev):

  -101.4363 -91.5256 -64.6716 -64.6132 -59.4052 -58.7257 -58.6305 -52.0090
   -51.9605 -51.9275 -28.9816 -28.9193 -28.8947 -28.8341 -28.7989 -28.7343
    -7.9334  -7.4976  -7.2156  -7.1119  -6.6492  -6.4465  -6.0946  -6.0610
     2.5904   2.8816   3.1840   3.3078   3.8672   4.2292   4.7806   4.8443
     5.0611   5.3257   5.3716   5.6597   5.8186   5.9160   6.1408   6.3743
     6.4812   6.8969   7.0968   7.3588   7.6670   7.8383   8.1110   8.3004
     8.4520   8.5616   8.9680   9.0557   9.3244   9.4874   9.8164  12.1394
    12.7289  12.8820  13.1098  13.6196  14.1142  14.3556  15.0432  15.4549
    15.9050  16.1182  17.9110  18.6493

     occupation numbers 
     1.0000   1.0000   1.0000   1.0000   1.0000   1.0000   1.0000   1.0000
     1.0000   1.0000   1.0000   1.0000   1.0000   1.0000   1.0000   1.0000
     1.0000   1.0000   1.0000   1.0000   1.0000   1.0000   1.0000   1.0000
     1.0000   1.0000   1.0000   1.0000   1.0000   1.0000   1.0000   1.0000
     1.0000   1.0000   1.0000   1.0000   1.0000   1.0000   1.0000   1.0000
     1.0000   1.0000   1.0000   1.0000   1.0000   1.0000   1.0000   1.0000
     1.0000   1.0000   1.0000   1.0000   1.0000   1.0000   1.0000   0.0000
     0.0000   0.0000   0.0000   0.0000   0.0000   0.0000   0.0000   0.0000
     0.0000   0.0000   0.0000   0.0000

          k = 0.2493-0.3750 0.0616 ( 19129 PWs)   bands (ev):

  -101.4363 -91.5256 -64.6717 -64.6133 -59.4052 -58.7257 -58.6305 -52.0089
   -51.9605 -51.9275 -28.9813 -28.9194 -28.8944 -28.8343 -28.7988 -28.7344
    -7.8350  -7.6502  -7.2425  -7.0952  -6.5901  -6.4248  -6.1188  -6.0475
     2.6272   2.8681   3.1770   3.3117   3.9412   4.1700   4.6543   4.9822
     5.1208   5.2940   5.3677   5.5626   5.7327   5.9670   6.0065   6.3487
     6.6309   6.8837   7.0824   7.4257   7.7600   7.9944   8.1001   8.3240
     8.4578   8.5909   8.7908   9.0124   9.1016   9.5830   9.7733  12.2998
    12.7254  12.9494  13.0420  13.4465  14.0540  14.2857  14.9768  15.5169
    16.1049  16.4274  18.1062  18.4048

     occupation numbers 
     1.0000   1.0000   1.0000   1.0000   1.0000   1.0000   1.0000   1.0000
     1.0000   1.0000   1.0000   1.0000   1.0000   1.0000   1.0000   1.0000
     1.0000   1.0000   1.0000   1.0000   1.0000   1.0000   1.0000   1.0000
     1.0000   1.0000   1.0000   1.0000   1.0000   1.0000   1.0000   1.0000
     1.0000   1.0000   1.0000   1.0000   1.0000   1.0000   1.0000   1.0000
     1.0000   1.0000   1.0000   1.0000   1.0000   1.0000   1.0000   1.0000
     1.0000   1.0000   1.0000   1.0000   1.0000   1.0000   1.0000   0.0000
     0.0000   0.0000   0.0000   0.0000   0.0000   0.0000   0.0000   0.0000
     0.0000   0.0000   0.0000   0.0000

          k = 0.2480-0.3750 0.2040 ( 19124 PWs)   bands (ev):

  -101.4363 -91.5256 -64.6715 -64.6135 -59.4052 -58.7257 -58.6305 -52.0089
   -51.9605 -51.9275 -28.9804 -28.9263 -28.8891 -28.8423 -28.7866 -28.7380
    -7.7859  -7.5792  -7.3197  -7.1383  -6.5376  -6.3777  -6.2341  -6.0477
     2.6412   2.8709   3.2147   3.2704   3.9917   4.2738   4.5626   4.9074
     5.0943   5.2289   5.3793   5.5858   5.6986   5.8888   6.0786   6.4607
     6.5910   6.9149   7.0845   7.4522   7.8692   8.0113   8.0894   8.2997
     8.4782   8.6046   8.8553   8.9075   8.9955   9.6340   9.7625  12.3351
    12.5113  12.8548  13.1458  13.4566  13.9066  14.3099  15.0268  15.4869
    16.2281  16.5178  18.2876  18.6414

     occupation numbers 
     1.0000   1.0000   1.0000   1.0000   1.0000   1.0000   1.0000   1.0000
     1.0000   1.0000   1.0000   1.0000   1.0000   1.0000   1.0000   1.0000
     1.0000   1.0000   1.0000   1.0000   1.0000   1.0000   1.0000   1.0000
     1.0000   1.0000   1.0000   1.0000   1.0000   1.0000   1.0000   1.0000
     1.0000   1.0000   1.0000   1.0000   1.0000   1.0000   1.0000   1.0000
     1.0000   1.0000   1.0000   1.0000   1.0000   1.0000   1.0000   1.0000
     1.0000   1.0000   1.0000   1.0000   1.0000   1.0000   1.0000   0.0000
     0.0000   0.0000   0.0000   0.0000   0.0000   0.0000   0.0000   0.0000
     0.0000   0.0000   0.0000   0.0000

          k = 0.2466-0.3750 0.3465 ( 19136 PWs)   bands (ev):

  -101.4363 -91.5256 -64.6715 -64.6136 -59.4052 -58.7257 -58.6305 -52.0089
   -51.9605 -51.9274 -28.9786 -28.9334 -28.8842 -28.8490 -28.7735 -28.7439
    -7.7222  -7.5142  -7.3693  -7.1724  -6.5677  -6.3567  -6.2693  -6.0622
     2.6520   2.8761   3.1801   3.2844   3.9529   4.4011   4.5256   4.7644
     5.0092   5.1880   5.2695   5.6845   5.7881   6.0222   6.3296   6.5167
     6.6243   6.7883   7.1185   7.4920   7.7224   7.8304   7.9425   8.3148
     8.4274   8.5940   8.8500   9.0267   9.2394   9.4904   9.9324  12.3053
    12.4253  12.7012  13.2096  13.5949  13.8104  14.3422  15.1412  15.3609
    16.1455  16.3718  18.2383  19.2050

     occupation numbers 
     1.0000   1.0000   1.0000   1.0000   1.0000   1.0000   1.0000   1.0000
     1.0000   1.0000   1.0000   1.0000   1.0000   1.0000   1.0000   1.0000
     1.0000   1.0000   1.0000   1.0000   1.0000   1.0000   1.0000   1.0000
     1.0000   1.0000   1.0000   1.0000   1.0000   1.0000   1.0000   1.0000
     1.0000   1.0000   1.0000   1.0000   1.0000   1.0000   1.0000   1.0000
     1.0000   1.0000   1.0000   1.0000   1.0000   1.0000   1.0000   1.0000
     1.0000   1.0000   1.0000   1.0000   1.0000   1.0000   1.0000   0.0000
     0.0000   0.0000   0.0000   0.0000   0.0000   0.0000   0.0000   0.0000
     0.0000   0.0000   0.0000   0.0000

          k = 0.2535-0.3750-0.3657 ( 19116 PWs)   bands (ev):

  -101.4363 -91.5256 -64.6715 -64.6135 -59.4052 -58.7257 -58.6305 -52.0089
   -51.9605 -51.9274 -28.9784 -28.9340 -28.8844 -28.8488 -28.7732 -28.7438
    -7.7252  -7.5477  -7.3136  -7.1286  -6.7053  -6.3469  -6.1743  -6.0896
     2.6565   2.8850   3.1500   3.2601   3.9130   4.2889   4.5611   4.7448
     5.0771   5.2103   5.3307   5.7882   5.9454   6.0824   6.2452   6.3248
     6.5068   6.9350   7.2670   7.4385   7.5522   7.7770   7.9989   8.2730
     8.3428   8.6004   8.8587   9.0610   9.3602   9.5073   9.9240  12.3063
    12.4877  12.7131  13.1331  13.7032  13.8879  14.4020  15.1681  15.3018
    15.9277  16.1510  18.0549  19.2828

     occupation numbers 
     1.0000   1.0000   1.0000   1.0000   1.0000   1.0000   1.0000   1.0000
     1.0000   1.0000   1.0000   1.0000   1.0000   1.0000   1.0000   1.0000
     1.0000   1.0000   1.0000   1.0000   1.0000   1.0000   1.0000   1.0000
     1.0000   1.0000   1.0000   1.0000   1.0000   1.0000   1.0000   1.0000
     1.0000   1.0000   1.0000   1.0000   1.0000   1.0000   1.0000   1.0000
     1.0000   1.0000   1.0000   1.0000   1.0000   1.0000   1.0000   1.0000
     1.0000   1.0000   1.0000   1.0000   1.0000   1.0000   1.0000   0.0000
     0.0000   0.0000   0.0000   0.0000   0.0000   0.0000   0.0000   0.0000
     0.0000   0.0000   0.0000   0.0000

          k = 0.2521-0.3750-0.2233 ( 19128 PWs)   bands (ev):

  -101.4363 -91.5256 -64.6716 -64.6133 -59.4052 -58.7257 -58.6305 -52.0089
   -51.9605 -51.9275 -28.9800 -28.9274 -28.8895 -28.8418 -28.7863 -28.7377
    -7.7812  -7.6172  -7.2502  -7.0690  -6.7373  -6.3701  -6.1292  -6.0609
     2.6468   2.8845   3.1417   3.2469   3.8762   4.2080   4.6840   4.8237
     5.0322   5.2703   5.5179   5.6139   5.9305   5.9739   6.2020   6.3553
     6.4605   6.8935   7.2503   7.4049   7.6109   7.8415   8.1704   8.2884
     8.4020   8.5497   8.7756   8.9881   9.3375   9.5334   9.8368  12.3670
    12.5938  12.8136  13.0929  13.6673  14.0456  14.4376  15.0906  15.4019
    15.8333  15.9421  17.9120  18.9910

     occupation numbers 
     1.0000   1.0000   1.0000   1.0000   1.0000   1.0000   1.0000   1.0000
     1.0000   1.0000   1.0000   1.0000   1.0000   1.0000   1.0000   1.0000
     1.0000   1.0000   1.0000   1.0000   1.0000   1.0000   1.0000   1.0000
     1.0000   1.0000   1.0000   1.0000   1.0000   1.0000   1.0000   1.0000
     1.0000   1.0000   1.0000   1.0000   1.0000   1.0000   1.0000   1.0000
     1.0000   1.0000   1.0000   1.0000   1.0000   1.0000   1.0000   1.0000
     1.0000   1.0000   1.0000   1.0000   1.0000   1.0000   1.0000   0.0000
     0.0000   0.0000   0.0000   0.0000   0.0000   0.0000   0.0000   0.0000
     0.0000   0.0000   0.0000   0.0000

          k = 0.2507-0.3750-0.0808 ( 19114 PWs)   bands (ev):

  -101.4363 -91.5256 -64.6717 -64.6132 -59.4052 -58.7257 -58.6305 -52.0089
   -51.9605 -51.9275 -28.9811 -28.9200 -28.8946 -28.8339 -28.7988 -28.7342
    -7.8294  -7.6647  -7.2148  -7.0771  -6.6462  -6.4345  -6.0968  -6.0381
     2.6286   2.8723   3.1461   3.3001   3.8651   4.1906   4.7596   4.9070
     5.0051   5.2447   5.5275   5.6477   5.7893   5.8728   6.1082   6.3829
     6.5652   6.8966   7.1514   7.4509   7.6847   7.9309   8.0628   8.2211
     8.4249   8.5574   8.8316   9.0590   9.2615   9.4944   9.8298  12.3290
    12.7062  12.8989  13.1012  13.5458  14.1332  14.3343  15.0361  15.4495
    15.9101  16.1175  17.9029  18.6499

     occupation numbers 
     1.0000   1.0000   1.0000   1.0000   1.0000   1.0000   1.0000   1.0000
     1.0000   1.0000   1.0000   1.0000   1.0000   1.0000   1.0000   1.0000
     1.0000   1.0000   1.0000   1.0000   1.0000   1.0000   1.0000   1.0000
     1.0000   1.0000   1.0000   1.0000   1.0000   1.0000   1.0000   1.0000
     1.0000   1.0000   1.0000   1.0000   1.0000   1.0000   1.0000   1.0000
     1.0000   1.0000   1.0000   1.0000   1.0000   1.0000   1.0000   1.0000
     1.0000   1.0000   1.0000   1.0000   1.0000   1.0000   1.0000   0.0000
     0.0000   0.0000   0.0000   0.0000   0.0000   0.0000   0.0000   0.0000
     0.0000   0.0000   0.0000   0.0000

          k = 0.2494-0.2278 0.0581 ( 19119 PWs)   bands (ev):

  -101.4363 -91.5256 -64.6718 -64.6133 -59.4052 -58.7257 -58.6305 -52.0089
   -51.9605 -51.9275 -28.9817 -28.9198 -28.8949 -28.8332 -28.7985 -28.7340
    -8.0898  -7.4861  -7.1965  -7.0602  -6.5469  -6.3126  -6.1625  -6.1113
     2.6576   2.8137   3.1401   3.3300   3.8817   4.1781   4.3789   4.8526
     5.0721   5.2342   5.4484   5.6739   5.8140   5.9035   6.0545   6.3239
     6.6093   6.7958   7.1711   7.4831   7.7136   7.9284   8.1765   8.3183
     8.5589   8.6192   8.8222   9.1282   9.2343   9.7200   9.9778  12.4930
    12.6099  12.8956  13.0041  13.4415  13.9696  14.3323  15.0348  15.4933
    16.0288  16.3593  17.9921  18.6576

     occupation numbers 
     1.0000   1.0000   1.0000   1.0000   1.0000   1.0000   1.0000   1.0000
     1.0000   1.0000   1.0000   1.0000   1.0000   1.0000   1.0000   1.0000
     1.0000   1.0000   1.0000   1.0000   1.0000   1.0000   1.0000   1.0000
     1.0000   1.0000   1.0000   1.0000   1.0000   1.0000   1.0000   1.0000
     1.0000   1.0000   1.0000   1.0000   1.0000   1.0000   1.0000   1.0000
     1.0000   1.0000   1.0000   1.0000   1.0000   1.0000   1.0000   1.0000
     1.0000   1.0000   1.0000   1.0000   1.0000   1.0000   1.0000   0.0000
     0.0000   0.0000   0.0000   0.0000   0.0000   0.0000   0.0000   0.0000
     0.0000   0.0000   0.0000   0.0000

          k = 0.2480-0.2278 0.2005 ( 19110 PWs)   bands (ev):

  -101.4363 -91.5256 -64.6716 -64.6135 -59.4052 -58.7257 -58.6305 -52.0089
   -51.9605 -51.9275 -28.9804 -28.9253 -28.8893 -28.8420 -28.7870 -28.7381
    -8.0317  -7.4218  -7.2597  -7.0752  -6.5450  -6.4200  -6.1673  -6.0618
     2.6866   2.8088   3.1695   3.2671   3.9671   4.2187   4.3618   4.8927
     5.0094   5.2233   5.4290   5.5742   5.7548   5.8357   6.0683   6.3996
     6.7002   6.9288   7.2162   7.4399   7.7879   7.8423   8.0505   8.2690
     8.5314   8.6856   8.8255   9.1183   9.2189   9.8479   9.8946  12.4134
    12.5501  12.9060  13.0880  13.4311  13.9092  14.2679  15.0536  15.4767
    16.1697  16.5179  18.1762  18.6913

     occupation numbers 
     1.0000   1.0000   1.0000   1.0000   1.0000   1.0000   1.0000   1.0000
     1.0000   1.0000   1.0000   1.0000   1.0000   1.0000   1.0000   1.0000
     1.0000   1.0000   1.0000   1.0000   1.0000   1.0000   1.0000   1.0000
     1.0000   1.0000   1.0000   1.0000   1.0000   1.0000   1.0000   1.0000
     1.0000   1.0000   1.0000   1.0000   1.0000   1.0000   1.0000   1.0000
     1.0000   1.0000   1.0000   1.0000   1.0000   1.0000   1.0000   1.0000
     1.0000   1.0000   1.0000   1.0000   1.0000   1.0000   1.0000   0.0000
     0.0000   0.0000   0.0000   0.0000   0.0000   0.0000   0.0000   0.0000
     0.0000   0.0000   0.0000   0.0000

          k = 0.2466-0.2278 0.3430 ( 19097 PWs)   bands (ev):

  -101.4363 -91.5256 -64.6715 -64.6136 -59.4052 -58.7257 -58.6305 -52.0089
   -51.9605 -51.9274 -28.9782 -28.9319 -28.8841 -28.8492 -28.7745 -28.7445
    -7.8985  -7.4615  -7.3186  -7.1045  -6.6069  -6.3916  -6.1773  -6.0332
     2.7041   2.8024   3.1361   3.2553   3.9417   4.3027   4.4532   4.7596
     4.9543   5.1501   5.3185   5.6551   5.7559   5.9105   6.3284   6.4750
     6.7475   6.7741   7.2240   7.3511   7.6886   7.8030   7.9564   8.1922
     8.5269   8.7228   8.9465   9.2006   9.4159   9.7006  10.0252  12.2375
    12.6257  12.7597  13.2345  13.4629  13.8636  14.2765  15.1280  15.3478
    16.0788  16.3844  18.5218  18.8409

     occupation numbers 
     1.0000   1.0000   1.0000   1.0000   1.0000   1.0000   1.0000   1.0000
     1.0000   1.0000   1.0000   1.0000   1.0000   1.0000   1.0000   1.0000
     1.0000   1.0000   1.0000   1.0000   1.0000   1.0000   1.0000   1.0000
     1.0000   1.0000   1.0000   1.0000   1.0000   1.0000   1.0000   1.0000
     1.0000   1.0000   1.0000   1.0000   1.0000   1.0000   1.0000   1.0000
     1.0000   1.0000   1.0000   1.0000   1.0000   1.0000   1.0000   1.0000
     1.0000   1.0000   1.0000   1.0000   1.0000   1.0000   1.0000   0.0000
     0.0000   0.0000   0.0000   0.0000   0.0000   0.0000   0.0000   0.0000
     0.0000   0.0000   0.0000   0.0000

          k = 0.2535-0.2277-0.3692 ( 19132 PWs)   bands (ev):

  -101.4363 -91.5256 -64.6716 -64.6135 -59.4052 -58.7257 -58.6305 -52.0089
   -51.9605 -51.9274 -28.9777 -28.9332 -28.8844 -28.8486 -28.7740 -28.7444
    -7.7633  -7.6434  -7.3235  -7.0868  -6.6460  -6.2842  -6.1781  -6.0599
     2.6960   2.8047   3.1155   3.2417   3.8932   4.2723   4.5551   4.7215
     4.8871   5.1655   5.3462   5.6509   5.8205   5.9758   6.3166   6.4611
     6.5801   6.8852   7.1640   7.4471   7.6535   7.7439   8.0601   8.1794
     8.4892   8.6571   9.0381   9.2845   9.5071   9.6238  10.0259  12.2300
    12.6640  12.7593  13.1621  13.5919  13.8675  14.3501  15.1528  15.2397
    15.8857  16.1362  18.3079  19.2844

     occupation numbers 
     1.0000   1.0000   1.0000   1.0000   1.0000   1.0000   1.0000   1.0000
     1.0000   1.0000   1.0000   1.0000   1.0000   1.0000   1.0000   1.0000
     1.0000   1.0000   1.0000   1.0000   1.0000   1.0000   1.0000   1.0000
     1.0000   1.0000   1.0000   1.0000   1.0000   1.0000   1.0000   1.0000
     1.0000   1.0000   1.0000   1.0000   1.0000   1.0000   1.0000   1.0000
     1.0000   1.0000   1.0000   1.0000   1.0000   1.0000   1.0000   1.0000
     1.0000   1.0000   1.0000   1.0000   1.0000   1.0000   1.0000   0.0000
     0.0000   0.0000   0.0000   0.0000   0.0000   0.0000   0.0000   0.0000
     0.0000   0.0000   0.0000   0.0000

          k = 0.2522-0.2278-0.2268 ( 19115 PWs)   bands (ev):

  -101.4363 -91.5256 -64.6717 -64.6133 -59.4052 -58.7257 -58.6305 -52.0089
   -51.9605 -51.9275 -28.9795 -28.9279 -28.8900 -28.8408 -28.7864 -28.7377
    -7.8910  -7.6220  -7.2909  -7.0609  -6.5862  -6.2458  -6.1768  -6.0952
     2.6713   2.8168   3.1247   3.2304   3.8564   4.2252   4.6213   4.7805
     4.8134   5.2518   5.4053   5.5201   5.8119   5.9720   6.3183   6.3683
     6.4932   7.0000   7.1644   7.5137   7.6693   7.7902   8.1604   8.3175
     8.4713   8.5826   8.9762   9.2084   9.4831   9.5693   9.9921  12.3599
    12.6647  12.8686  13.0906  13.5370  13.9737  14.4264  15.0674  15.3304
    15.7999  15.9132  18.1019  19.0766

     occupation numbers 
     1.0000   1.0000   1.0000   1.0000   1.0000   1.0000   1.0000   1.0000
     1.0000   1.0000   1.0000   1.0000   1.0000   1.0000   1.0000   1.0000
     1.0000   1.0000   1.0000   1.0000   1.0000   1.0000   1.0000   1.0000
     1.0000   1.0000   1.0000   1.0000   1.0000   1.0000   1.0000   1.0000
     1.0000   1.0000   1.0000   1.0000   1.0000   1.0000   1.0000   1.0000
     1.0000   1.0000   1.0000   1.0000   1.0000   1.0000   1.0000   1.0000
     1.0000   1.0000   1.0000   1.0000   1.0000   1.0000   1.0000   0.0000
     0.0000   0.0000   0.0000   0.0000   0.0000   0.0000   0.0000   0.0000
     0.0000   0.0000   0.0000   0.0000

          k = 0.2508-0.2278-0.0843 ( 19118 PWs)   bands (ev):

  -101.4363 -91.5256 -64.6718 -64.6132 -59.4052 -58.7257 -58.6305 -52.0089
   -51.9605 -51.9275 -28.9813 -28.9211 -28.8951 -28.8324 -28.7985 -28.7337
    -8.0411  -7.5537  -7.2229  -7.0582  -6.5198  -6.2906  -6.1689  -6.1037
     2.6510   2.8186   3.1192   3.3018   3.8349   4.1992   4.4872   4.7683
     5.0108   5.2210   5.4553   5.6717   5.7952   5.9882   6.0943   6.3240
     6.4908   6.9240   7.2732   7.5068   7.6615   7.7918   8.2000   8.2900
     8.4880   8.7578   8.8080   9.2164   9.3433   9.5762  10.0183  12.4610
    12.6504  12.9100  13.0175  13.4662  14.0136  14.4138  15.0572  15.4258
    15.8158  16.0458  18.0357  18.7723

     occupation numbers 
     1.0000   1.0000   1.0000   1.0000   1.0000   1.0000   1.0000   1.0000
     1.0000   1.0000   1.0000   1.0000   1.0000   1.0000   1.0000   1.0000
     1.0000   1.0000   1.0000   1.0000   1.0000   1.0000   1.0000   1.0000
     1.0000   1.0000   1.0000   1.0000   1.0000   1.0000   1.0000   1.0000
     1.0000   1.0000   1.0000   1.0000   1.0000   1.0000   1.0000   1.0000
     1.0000   1.0000   1.0000   1.0000   1.0000   1.0000   1.0000   1.0000
     1.0000   1.0000   1.0000   1.0000   1.0000   1.0000   1.0000   0.0000
     0.0000   0.0000   0.0000   0.0000   0.0000   0.0000   0.0000   0.0000
     0.0000   0.0000   0.0000   0.0000

          k = 0.2495-0.0806 0.0546 ( 19115 PWs)   bands (ev):

  -101.4363 -91.5256 -64.6717 -64.6133 -59.4052 -58.7257 -58.6305 -52.0089
   -51.9605 -51.9275 -28.9821 -28.9208 -28.8954 -28.8319 -28.7982 -28.7334
    -8.2546  -7.3996  -7.1161  -7.0280  -6.4339  -6.3708  -6.2050  -6.1258
     2.6262   2.7762   3.1766   3.3313   3.7352   4.1510   4.2949   4.8295
     5.0295   5.2551   5.4741   5.6785   5.8076   5.9533   6.0735   6.2538
     6.5863   6.7641   7.1416   7.4860   7.6262   7.7699   8.1835   8.4317
     8.5533   8.6613   9.1350   9.2138   9.4810   9.9024  10.1476  12.3531
    12.7139  12.7344  13.0321  13.4829  13.8665  14.3593  15.0914  15.5020
    15.9700  16.2486  17.8284  18.8575

     occupation numbers 
     1.0000   1.0000   1.0000   1.0000   1.0000   1.0000   1.0000   1.0000
     1.0000   1.0000   1.0000   1.0000   1.0000   1.0000   1.0000   1.0000
     1.0000   1.0000   1.0000   1.0000   1.0000   1.0000   1.0000   1.0000
     1.0000   1.0000   1.0000   1.0000   1.0000   1.0000   1.0000   1.0000
     1.0000   1.0000   1.0000   1.0000   1.0000   1.0000   1.0000   1.0000
     1.0000   1.0000   1.0000   1.0000   1.0000   1.0000   1.0000   1.0000
     1.0000   1.0000   1.0000   1.0000   1.0000   1.0000   1.0000   0.0000
     0.0000   0.0000   0.0000   0.0000   0.0000   0.0000   0.0000   0.0000
     0.0000   0.0000   0.0000   0.0000

          k = 0.2481-0.0806 0.1971 ( 19106 PWs)   bands (ev):

  -101.4363 -91.5256 -64.6716 -64.6135 -59.4052 -58.7257 -58.6305 -52.0089
   -51.9605 -51.9275 -28.9802 -28.9256 -28.8899 -28.8412 -28.7870 -28.7382
    -8.1907  -7.3598  -7.1665  -6.9887  -6.5521  -6.4899  -6.1575  -6.0457
     2.6540   2.7745   3.1991   3.2757   3.8240   4.1409   4.3146   4.8595
     4.9545   5.3275   5.4551   5.5749   5.7452   5.9021   6.0672   6.2413
     6.7662   6.9039   7.1837   7.4833   7.5446   7.8012   7.9936   8.3582
     8.4681   8.6501   9.1187   9.3764   9.4725  10.0232  10.0416  12.2719
    12.6815  12.8742  13.0747  13.4418  13.8947  14.2165  15.0751  15.4856
    16.1447  16.4993  17.7943  19.0054

     occupation numbers 
     1.0000   1.0000   1.0000   1.0000   1.0000   1.0000   1.0000   1.0000
     1.0000   1.0000   1.0000   1.0000   1.0000   1.0000   1.0000   1.0000
     1.0000   1.0000   1.0000   1.0000   1.0000   1.0000   1.0000   1.0000
     1.0000   1.0000   1.0000   1.0000   1.0000   1.0000   1.0000   1.0000
     1.0000   1.0000   1.0000   1.0000   1.0000   1.0000   1.0000   1.0000
     1.0000   1.0000   1.0000   1.0000   1.0000   1.0000   1.0000   1.0000
     1.0000   1.0000   1.0000   1.0000   1.0000   1.0000   1.0000   0.0000
     0.0000   0.0000   0.0000   0.0000   0.0000   0.0000   0.0000   0.0000
     0.0000   0.0000   0.0000   0.0000

          k = 0.2467-0.0806 0.3395 ( 19113 PWs)   bands (ev):

  -101.4363 -91.5255 -64.6715 -64.6136 -59.4052 -58.7257 -58.6305 -52.0089
   -51.9605 -51.9275 -28.9777 -28.9309 -28.8842 -28.8492 -28.7752 -28.7450
    -8.0322  -7.4729  -7.2117  -7.0113  -6.6676  -6.4381  -6.1295  -5.9931
     2.6506   2.7694   3.1611   3.2616   3.8651   4.2358   4.3554   4.7160
     5.0291   5.1331   5.3656   5.6851   5.7948   5.9257   6.0983   6.3872
     6.6743   6.9695   7.1214   7.2786   7.5105   7.8639   7.9424   8.2531
     8.5744   8.7111   9.2307   9.4123   9.6652   9.8900  10.1144  12.1582
    12.6591  12.8856  13.1814  13.3928  13.9683  14.1659  15.0950  15.3576
    16.0313  16.3561  18.4290  19.0167

     occupation numbers 
     1.0000   1.0000   1.0000   1.0000   1.0000   1.0000   1.0000   1.0000
     1.0000   1.0000   1.0000   1.0000   1.0000   1.0000   1.0000   1.0000
     1.0000   1.0000   1.0000   1.0000   1.0000   1.0000   1.0000   1.0000
     1.0000   1.0000   1.0000   1.0000   1.0000   1.0000   1.0000   1.0000
     1.0000   1.0000   1.0000   1.0000   1.0000   1.0000   1.0000   1.0000
     1.0000   1.0000   1.0000   1.0000   1.0000   1.0000   1.0000   1.0000
     1.0000   1.0000   1.0000   1.0000   1.0000   1.0000   1.0000   0.0000
     0.0000   0.0000   0.0000   0.0000   0.0000   0.0000   0.0000   0.0000
     0.0000   0.0000   0.0000   0.0000

          k = 0.2536-0.0805-0.3727 ( 19122 PWs)   bands (ev):

  -101.4363 -91.5256 -64.6715 -64.6136 -59.4052 -58.7257 -58.6305 -52.0089
   -51.9605 -51.9274 -28.9773 -28.9317 -28.8845 -28.8487 -28.7750 -28.7450
    -7.8448  -7.7211  -7.2301  -7.0344  -6.6436  -6.3465  -6.1192  -6.0052
     2.6170   2.7667   3.1482   3.2592   3.8189   4.3381   4.4597   4.6357
     4.9742   5.0405   5.3982   5.6566   5.6999   5.9586   6.1713   6.3706
     6.6826   6.7585   7.2721   7.3609   7.6459   7.8097   8.0008   8.2056
     8.5243   8.7664   9.3558   9.4514   9.6821   9.8249  10.1153  12.1500
    12.6456  12.8694  13.2079  13.4587  13.9062  14.2962  15.1229  15.2133
    15.8170  16.0774  18.6444  19.2506

     occupation numbers 
     1.0000   1.0000   1.0000   1.0000   1.0000   1.0000   1.0000   1.0000
     1.0000   1.0000   1.0000   1.0000   1.0000   1.0000   1.0000   1.0000
     1.0000   1.0000   1.0000   1.0000   1.0000   1.0000   1.0000   1.0000
     1.0000   1.0000   1.0000   1.0000   1.0000   1.0000   1.0000   1.0000
     1.0000   1.0000   1.0000   1.0000   1.0000   1.0000   1.0000   1.0000
     1.0000   1.0000   1.0000   1.0000   1.0000   1.0000   1.0000   1.0000
     1.0000   1.0000   1.0000   1.0000   1.0000   1.0000   1.0000   0.0000
     0.0000   0.0000   0.0000   0.0000   0.0000   0.0000   0.0000   0.0000
     0.0000   0.0000   0.0000   0.0000

          k = 0.2522-0.0805-0.2302 ( 19109 PWs)   bands (ev):

  -101.4363 -91.5256 -64.6717 -64.6134 -59.4052 -58.7257 -58.6305 -52.0089
   -51.9605 -51.9275 -28.9797 -28.9270 -28.8904 -28.8403 -28.7868 -28.7379
    -8.0122  -7.6361  -7.2162  -7.0375  -6.5261  -6.2840  -6.1340  -6.0822
     2.5992   2.7787   3.1807   3.2204   3.7616   4.3334   4.5011   4.6869
     4.9002   5.1594   5.3198   5.4924   5.7746   5.8617   6.1617   6.4021
     6.5936   6.9704   7.2797   7.4234   7.6429   7.8954   8.1050   8.3033
     8.4506   8.7558   9.3189   9.3463   9.6004   9.7650  10.1324  12.2664
    12.7007  12.8273  13.1338  13.5216  13.8647  14.4272  15.0538  15.2758
    15.7555  15.8466  18.2385  19.1791

     occupation numbers 
     1.0000   1.0000   1.0000   1.0000   1.0000   1.0000   1.0000   1.0000
     1.0000   1.0000   1.0000   1.0000   1.0000   1.0000   1.0000   1.0000
     1.0000   1.0000   1.0000   1.0000   1.0000   1.0000   1.0000   1.0000
     1.0000   1.0000   1.0000   1.0000   1.0000   1.0000   1.0000   1.0000
     1.0000   1.0000   1.0000   1.0000   1.0000   1.0000   1.0000   1.0000
     1.0000   1.0000   1.0000   1.0000   1.0000   1.0000   1.0000   1.0000
     1.0000   1.0000   1.0000   1.0000   1.0000   1.0000   1.0000   0.0000
     0.0000   0.0000   0.0000   0.0000   0.0000   0.0000   0.0000   0.0000
     0.0000   0.0000   0.0000   0.0000

          k = 0.2508-0.0806-0.0878 ( 19128 PWs)   bands (ev):

  -101.4363 -91.5256 -64.6718 -64.6133 -59.4052 -58.7257 -58.6305 -52.0089
   -51.9605 -51.9275 -28.9819 -28.9215 -28.8956 -28.8313 -28.7983 -28.7333
    -8.1939  -7.4973  -7.1569  -7.0416  -6.3993  -6.2726  -6.2158  -6.1450
     2.6057   2.7817   3.1625   3.2849   3.7207   4.2552   4.3407   4.7675
     5.0009   5.2246   5.4004   5.5774   5.7671   6.0226   6.1096   6.2625
     6.4901   6.9829   7.1839   7.4423   7.5733   7.8262   8.2600   8.3267
     8.6255   8.7590   9.1429   9.2319   9.5564   9.7628  10.1806  12.3734
    12.6865  12.7662  13.0306  13.5158  13.8722  14.4584  15.0669  15.4565
    15.7145  15.9471  18.0691  18.8805

     occupation numbers 
     1.0000   1.0000   1.0000   1.0000   1.0000   1.0000   1.0000   1.0000
     1.0000   1.0000   1.0000   1.0000   1.0000   1.0000   1.0000   1.0000
     1.0000   1.0000   1.0000   1.0000   1.0000   1.0000   1.0000   1.0000
     1.0000   1.0000   1.0000   1.0000   1.0000   1.0000   1.0000   1.0000
     1.0000   1.0000   1.0000   1.0000   1.0000   1.0000   1.0000   1.0000
     1.0000   1.0000   1.0000   1.0000   1.0000   1.0000   1.0000   1.0000
     1.0000   1.0000   1.0000   1.0000   1.0000   1.0000   1.0000   0.0000
     0.0000   0.0000   0.0000   0.0000   0.0000   0.0000   0.0000   0.0000
     0.0000   0.0000   0.0000   0.0000

          k = 0.4163 0.0620 0.0389 ( 19125 PWs)   bands (ev):

  -101.4363 -91.5256 -64.6715 -64.6132 -59.4052 -58.7257 -58.6305 -52.0089
   -51.9605 -51.9275 -28.9823 -28.9218 -28.8960 -28.8315 -28.7988 -28.7335
    -7.9751  -7.4747  -7.3165  -7.0552  -6.4748  -6.3086  -6.2484  -6.1249
     2.6286   2.8381   3.2662   3.3541   3.9916   4.1792   4.2811   4.6900
     5.0372   5.1195   5.4293   5.6249   5.7662   5.8644   6.0732   6.1425
     6.4528   6.7486   7.2656   7.4789   7.6170   7.8699   8.1200   8.4743
     8.5293   8.7933   8.9611   9.3572   9.6461   9.9295  10.2632  12.2608
    12.5729  12.8950  13.1620  13.4204  13.7185  14.4358  15.2150  15.3505
    15.9682  16.5795  18.2688  18.6794

     occupation numbers 
     1.0000   1.0000   1.0000   1.0000   1.0000   1.0000   1.0000   1.0000
     1.0000   1.0000   1.0000   1.0000   1.0000   1.0000   1.0000   1.0000
     1.0000   1.0000   1.0000   1.0000   1.0000   1.0000   1.0000   1.0000
     1.0000   1.0000   1.0000   1.0000   1.0000   1.0000   1.0000   1.0000
     1.0000   1.0000   1.0000   1.0000   1.0000   1.0000   1.0000   1.0000
     1.0000   1.0000   1.0000   1.0000   1.0000   1.0000   1.0000   1.0000
     1.0000   1.0000   1.0000   1.0000   1.0000   1.0000   1.0000   0.0000
     0.0000   0.0000   0.0000   0.0000   0.0000   0.0000   0.0000   0.0000
     0.0000   0.0000   0.0000   0.0000

          k = 0.4149 0.0620 0.1813 ( 19137 PWs)   bands (ev):

  -101.4363 -91.5256 -64.6714 -64.6135 -59.4052 -58.7257 -58.6305 -52.0089
   -51.9605 -51.9275 -28.9801 -28.9271 -28.8906 -28.8410 -28.7870 -28.7382
    -7.9529  -7.4371  -7.2252  -7.0981  -6.5891  -6.4386  -6.1820  -6.0667
     2.6622   2.8383   3.2620   3.4024   4.0151   4.1689   4.2414   4.7717
     4.9445   5.1791   5.2738   5.4089   5.6605   5.8932   6.0924   6.3064
     6.5502   6.8128   7.3193   7.3733   7.6502   7.8713   8.0988   8.5125
     8.5888   8.8274   9.0699   9.2760   9.5763  10.0369  10.1551  12.2193
    12.5644  12.9012  13.1594  13.4766  13.8005  14.2896  15.2341  15.3694
    15.9527  16.4268  18.4494  18.8343

     occupation numbers 
     1.0000   1.0000   1.0000   1.0000   1.0000   1.0000   1.0000   1.0000
     1.0000   1.0000   1.0000   1.0000   1.0000   1.0000   1.0000   1.0000
     1.0000   1.0000   1.0000   1.0000   1.0000   1.0000   1.0000   1.0000
     1.0000   1.0000   1.0000   1.0000   1.0000   1.0000   1.0000   1.0000
     1.0000   1.0000   1.0000   1.0000   1.0000   1.0000   1.0000   1.0000
     1.0000   1.0000   1.0000   1.0000   1.0000   1.0000   1.0000   1.0000
     1.0000   1.0000   1.0000   1.0000   1.0000   1.0000   1.0000   0.0000
     0.0000   0.0000   0.0000   0.0000   0.0000   0.0000   0.0000   0.0000
     0.0000   0.0000   0.0000   0.0000

          k = 0.4136 0.0620 0.3238 ( 19120 PWs)   bands (ev):

  -101.4363 -91.5255 -64.6713 -64.6138 -59.4052 -58.7257 -58.6305 -52.0089
   -51.9605 -51.9275 -28.9777 -28.9316 -28.8847 -28.8495 -28.7752 -28.7452
    -7.8565  -7.4626  -7.2243  -7.0881  -6.6480  -6.5750  -6.1289  -6.0118
     2.6633   2.8492   3.2835   3.4447   4.0323   4.1526   4.2482   4.6209
     4.8167   5.1196   5.1777   5.4730   5.7441   5.8850   6.2699   6.4022
     6.6726   6.8763   7.0585   7.2940   7.5163   7.8971   8.1124   8.3969
     8.7354   8.8544   9.2387   9.3790   9.6272  10.0401  10.1228  12.1698
    12.6021  12.7935  13.1244  13.5840  13.9866  14.1132  15.2116  15.3632
    15.8570  16.1119  18.9482  19.0343

     occupation numbers 
     1.0000   1.0000   1.0000   1.0000   1.0000   1.0000   1.0000   1.0000
     1.0000   1.0000   1.0000   1.0000   1.0000   1.0000   1.0000   1.0000
     1.0000   1.0000   1.0000   1.0000   1.0000   1.0000   1.0000   1.0000
     1.0000   1.0000   1.0000   1.0000   1.0000   1.0000   1.0000   1.0000
     1.0000   1.0000   1.0000   1.0000   1.0000   1.0000   1.0000   1.0000
     1.0000   1.0000   1.0000   1.0000   1.0000   1.0000   1.0000   1.0000
     1.0000   1.0000   1.0000   1.0000   1.0000   1.0000   1.0000   0.0000
     0.0000   0.0000   0.0000   0.0000   0.0000   0.0000   0.0000   0.0000
     0.0000   0.0000   0.0000   0.0000

          k = 0.4205 0.0620-0.3884 ( 19116 PWs)   bands (ev):

  -101.4363 -91.5255 -64.6713 -64.6138 -59.4052 -58.7257 -58.6305 -52.0089
   -51.9605 -51.9275 -28.9779 -28.9310 -28.8847 -28.8497 -28.7755 -28.7452
    -7.7369  -7.5579  -7.3350  -7.0453  -6.7041  -6.4853  -6.1203  -6.0041
     2.6302   2.8582   3.2894   3.4351   3.9726   4.2172   4.4125   4.5260
     4.7602   4.9806   5.2210   5.4713   5.7618   5.8754   6.2741   6.4673
     6.6469   6.8364   7.1881   7.3281   7.4996   7.8919   8.1541   8.2752
     8.6688   8.9245   9.2454   9.3744   9.6966   9.9975  10.1692  12.2023
    12.5526  12.8698  13.0912  13.6327  13.9213  14.2020  15.1980  15.2986
    15.8059  15.9355  18.8187  19.2346

     occupation numbers 
     1.0000   1.0000   1.0000   1.0000   1.0000   1.0000   1.0000   1.0000
     1.0000   1.0000   1.0000   1.0000   1.0000   1.0000   1.0000   1.0000
     1.0000   1.0000   1.0000   1.0000   1.0000   1.0000   1.0000   1.0000
     1.0000   1.0000   1.0000   1.0000   1.0000   1.0000   1.0000   1.0000
     1.0000   1.0000   1.0000   1.0000   1.0000   1.0000   1.0000   1.0000
     1.0000   1.0000   1.0000   1.0000   1.0000   1.0000   1.0000   1.0000
     1.0000   1.0000   1.0000   1.0000   1.0000   1.0000   1.0000   0.0000
     0.0000   0.0000   0.0000   0.0000   0.0000   0.0000   0.0000   0.0000
     0.0000   0.0000   0.0000   0.0000

          k = 0.4191 0.0620-0.2460 ( 19107 PWs)   bands (ev):

  -101.4363 -91.5256 -64.6714 -64.6135 -59.4052 -58.7257 -58.6305 -52.0089
   -51.9605 -51.9275 -28.9805 -28.9258 -28.8906 -28.8413 -28.7875 -28.7383
    -7.7469  -7.6213  -7.3860  -7.0367  -6.6273  -6.3479  -6.1669  -6.0449
     2.6019   2.8552   3.2807   3.3759   3.9399   4.2454   4.5141   4.6781
     4.8308   4.8935   5.3110   5.4189   5.6430   5.8431   6.0887   6.4467
     6.6737   6.8674   7.2704   7.4362   7.7286   7.8953   8.1466   8.3941
     8.4938   8.6855   9.1468   9.2905   9.7434   9.9392  10.2383  12.2948
    12.5997  12.8910  13.0830  13.5820  13.7907  14.3770  15.1382  15.3947
    15.6746  16.1192  18.5810  19.0179

     occupation numbers 
     1.0000   1.0000   1.0000   1.0000   1.0000   1.0000   1.0000   1.0000
     1.0000   1.0000   1.0000   1.0000   1.0000   1.0000   1.0000   1.0000
     1.0000   1.0000   1.0000   1.0000   1.0000   1.0000   1.0000   1.0000
     1.0000   1.0000   1.0000   1.0000   1.0000   1.0000   1.0000   1.0000
     1.0000   1.0000   1.0000   1.0000   1.0000   1.0000   1.0000   1.0000
     1.0000   1.0000   1.0000   1.0000   1.0000   1.0000   1.0000   1.0000
     1.0000   1.0000   1.0000   1.0000   1.0000   1.0000   1.0000   0.0000
     0.0000   0.0000   0.0000   0.0000   0.0000   0.0000   0.0000   0.0000
     0.0000   0.0000   0.0000   0.0000

          k = 0.4177 0.0620-0.1035 ( 19129 PWs)   bands (ev):

  -101.4363 -91.5256 -64.6715 -64.6132 -59.4052 -58.7257 -58.6305 -52.0089
   -51.9605 -51.9275 -28.9824 -28.9211 -28.8961 -28.8316 -28.7991 -28.7336
    -7.9001  -7.5503  -7.3678  -7.0382  -6.4857  -6.2915  -6.2314  -6.1073
     2.6020   2.8450   3.2830   3.3365   3.9512   4.1873   4.4258   4.6362
     4.9789   5.0703   5.4143   5.5540   5.7476   5.8273   6.0830   6.2162
     6.5291   6.7644   7.3604   7.4812   7.6638   7.9419   8.0694   8.3599
     8.4862   8.7274   8.9829   9.3963   9.7249   9.8821  10.2960  12.3199
    12.6325  12.8208  13.1066  13.4845  13.7344  14.4755  15.1520  15.3933
    15.8036  16.4013  18.4571  18.7305

     occupation numbers 
     1.0000   1.0000   1.0000   1.0000   1.0000   1.0000   1.0000   1.0000
     1.0000   1.0000   1.0000   1.0000   1.0000   1.0000   1.0000   1.0000
     1.0000   1.0000   1.0000   1.0000   1.0000   1.0000   1.0000   1.0000
     1.0000   1.0000   1.0000   1.0000   1.0000   1.0000   1.0000   1.0000
     1.0000   1.0000   1.0000   1.0000   1.0000   1.0000   1.0000   1.0000
     1.0000   1.0000   1.0000   1.0000   1.0000   1.0000   1.0000   1.0000
     1.0000   1.0000   1.0000   1.0000   1.0000   1.0000   1.0000   0.0000
     0.0000   0.0000   0.0000   0.0000   0.0000   0.0000   0.0000   0.0000
     0.0000   0.0000   0.0000   0.0000

          k = 0.4164 0.2092 0.0354 ( 19145 PWs)   bands (ev):

  -101.4363 -91.5256 -64.6715 -64.6131 -59.4052 -58.7257 -58.6305 -52.0089
   -51.9605 -51.9275 -28.9820 -28.9213 -28.8955 -28.8325 -28.7989 -28.7339
    -7.9151  -7.4243  -7.3463  -7.0897  -6.4774  -6.3483  -6.2731  -6.1333
     2.5829   2.8580   3.2054   3.3272   3.8521   4.1742   4.5397   4.9737
     5.0638   5.2784   5.5067   5.6283   5.7753   5.8639   6.0946   6.2633
     6.4420   6.8399   7.1189   7.3807   7.5073   7.9202   8.1772   8.4139
     8.5297   8.6752   8.9280   9.2351   9.4296   9.6561  10.1678  12.0247
    12.5772  12.9019  13.0587  13.5509  13.8289  14.4721  15.1468  15.3587
    16.1604  16.6104  17.9333  18.6864

     occupation numbers 
     1.0000   1.0000   1.0000   1.0000   1.0000   1.0000   1.0000   1.0000
     1.0000   1.0000   1.0000   1.0000   1.0000   1.0000   1.0000   1.0000
     1.0000   1.0000   1.0000   1.0000   1.0000   1.0000   1.0000   1.0000
     1.0000   1.0000   1.0000   1.0000   1.0000   1.0000   1.0000   1.0000
     1.0000   1.0000   1.0000   1.0000   1.0000   1.0000   1.0000   1.0000
     1.0000   1.0000   1.0000   1.0000   1.0000   1.0000   1.0000   1.0000
     1.0000   1.0000   1.0000   1.0000   1.0000   1.0000   1.0000   0.0000
     0.0000   0.0000   0.0000   0.0000   0.0000   0.0000   0.0000   0.0000
     0.0000   0.0000   0.0000   0.0000

          k = 0.4150 0.2092 0.1779 ( 19157 PWs)   bands (ev):

  -101.4363 -91.5256 -64.6714 -64.6134 -59.4052 -58.7257 -58.6305 -52.0089
   -51.9605 -51.9275 -28.9801 -28.9279 -28.8903 -28.8413 -28.7865 -28.7380
    -7.8885  -7.3500  -7.3207  -7.1854  -6.5061  -6.3363  -6.2564  -6.1719
     2.6081   2.8620   3.2066   3.3638   3.9244   4.2450   4.3968   4.8430
     5.1004   5.2366   5.2817   5.4692   5.7047   5.9184   6.1260   6.3764
     6.6404   6.7819   7.2183   7.5096   7.7098   7.9823   8.2079   8.2750
     8.4340   8.8512   8.9869   9.0233   9.3643   9.7950  10.0480  12.0302
    12.5005  12.7862  13.1246  13.6136  13.8626  14.3042  15.1719  15.4148
    16.1136  16.4241  18.3344  18.8147

     occupation numbers 
     1.0000   1.0000   1.0000   1.0000   1.0000   1.0000   1.0000   1.0000
     1.0000   1.0000   1.0000   1.0000   1.0000   1.0000   1.0000   1.0000
     1.0000   1.0000   1.0000   1.0000   1.0000   1.0000   1.0000   1.0000
     1.0000   1.0000   1.0000   1.0000   1.0000   1.0000   1.0000   1.0000
     1.0000   1.0000   1.0000   1.0000   1.0000   1.0000   1.0000   1.0000
     1.0000   1.0000   1.0000   1.0000   1.0000   1.0000   1.0000   1.0000
     1.0000   1.0000   1.0000   1.0000   1.0000   1.0000   1.0000   0.0000
     0.0000   0.0000   0.0000   0.0000   0.0000   0.0000   0.0000   0.0000
     0.0000   0.0000   0.0000   0.0000

          k = 0.4136 0.2092 0.3203 ( 19148 PWs)   bands (ev):

  -101.4363 -91.5256 -64.6713 -64.6137 -59.4052 -58.7257 -58.6305 -52.0089
   -51.9605 -51.9274 -28.9782 -28.9331 -28.8849 -28.8492 -28.7741 -28.7447
    -7.7936  -7.3890  -7.3315  -7.2067  -6.5003  -6.4296  -6.2103  -6.1585
     2.5914   2.8847   3.2497   3.3832   3.9814   4.2168   4.4216   4.6522
     4.9294   5.1046   5.2147   5.4632   5.6946   6.0020   6.4191   6.4822
     6.7270   6.8986   7.0936   7.4417   7.7027   7.8779   8.1119   8.2546
     8.6289   8.8807   9.0181   9.0743   9.3954   9.8936   9.9654  12.0395
    12.5345  12.6049  13.0848  13.7106  13.9931  14.1275  15.1799  15.4135
    16.0012  16.1278  18.7974  19.0035

     occupation numbers 
     1.0000   1.0000   1.0000   1.0000   1.0000   1.0000   1.0000   1.0000
     1.0000   1.0000   1.0000   1.0000   1.0000   1.0000   1.0000   1.0000
     1.0000   1.0000   1.0000   1.0000   1.0000   1.0000   1.0000   1.0000
     1.0000   1.0000   1.0000   1.0000   1.0000   1.0000   1.0000   1.0000
     1.0000   1.0000   1.0000   1.0000   1.0000   1.0000   1.0000   1.0000
     1.0000   1.0000   1.0000   1.0000   1.0000   1.0000   1.0000   1.0000
     1.0000   1.0000   1.0000   1.0000   1.0000   1.0000   1.0000   0.0000
     0.0000   0.0000   0.0000   0.0000   0.0000   0.0000   0.0000   0.0000
     0.0000   0.0000   0.0000   0.0000

          k = 0.4205 0.2092-0.3919 ( 19143 PWs)   bands (ev):

  -101.4363 -91.5256 -64.6713 -64.6137 -59.4052 -58.7257 -58.6305 -52.0089
   -51.9605 -51.9275 -28.9786 -28.9318 -28.8846 -28.8498 -28.7747 -28.7446
    -7.6895  -7.5068  -7.4027  -7.1235  -6.5890  -6.3591  -6.2041  -6.1413
     2.5540   2.9034   3.2678   3.3628   3.9354   4.2317   4.5092   4.6599
     4.8473   5.0702   5.2440   5.4195   5.7897   6.0329   6.3796   6.5539
     6.6779   6.7737   7.3470   7.4180   7.6284   7.8209   8.0654   8.2309
     8.6204   8.9035   8.9654   9.1120   9.4766   9.8240  10.0444  12.0851
    12.5028  12.6903  13.0203  13.7799  13.9329  14.2274  15.2125  15.3189
    15.9049  16.0062  18.5319  19.3226

     occupation numbers 
     1.0000   1.0000   1.0000   1.0000   1.0000   1.0000   1.0000   1.0000
     1.0000   1.0000   1.0000   1.0000   1.0000   1.0000   1.0000   1.0000
     1.0000   1.0000   1.0000   1.0000   1.0000   1.0000   1.0000   1.0000
     1.0000   1.0000   1.0000   1.0000   1.0000   1.0000   1.0000   1.0000
     1.0000   1.0000   1.0000   1.0000   1.0000   1.0000   1.0000   1.0000
     1.0000   1.0000   1.0000   1.0000   1.0000   1.0000   1.0000   1.0000
     1.0000   1.0000   1.0000   1.0000   1.0000   1.0000   1.0000   0.0000
     0.0000   0.0000   0.0000   0.0000   0.0000   0.0000   0.0000   0.0000
     0.0000   0.0000   0.0000   0.0000

          k = 0.4191 0.2092-0.2494 ( 19114 PWs)   bands (ev):

  -101.4363 -91.5256 -64.6714 -64.6134 -59.4052 -58.7257 -58.6305 -52.0089
   -51.9605 -51.9275 -28.9808 -28.9253 -28.8901 -28.8422 -28.7874 -28.7382
    -7.7347  -7.5381  -7.4168  -7.0617  -6.5979  -6.2921  -6.2413  -6.1258
     2.5364   2.9006   3.2423   3.3216   3.8707   4.2113   4.6201   4.8402
     4.9571   5.0602   5.3436   5.5017   5.7088   5.9356   6.2314   6.4672
     6.6818   6.8283   7.1856   7.3975   7.7136   7.8085   8.1818   8.3817
     8.4380   8.8177   8.9082   9.0359   9.5377   9.7140  10.1320  12.1157
    12.5973  12.8103  12.9965  13.6506  13.9386  14.4084  15.1369  15.3951
    15.8243  16.1574  18.1797  19.1295

     occupation numbers 
     1.0000   1.0000   1.0000   1.0000   1.0000   1.0000   1.0000   1.0000
     1.0000   1.0000   1.0000   1.0000   1.0000   1.0000   1.0000   1.0000
     1.0000   1.0000   1.0000   1.0000   1.0000   1.0000   1.0000   1.0000
     1.0000   1.0000   1.0000   1.0000   1.0000   1.0000   1.0000   1.0000
     1.0000   1.0000   1.0000   1.0000   1.0000   1.0000   1.0000   1.0000
     1.0000   1.0000   1.0000   1.0000   1.0000   1.0000   1.0000   1.0000
     1.0000   1.0000   1.0000   1.0000   1.0000   1.0000   1.0000   0.0000
     0.0000   0.0000   0.0000   0.0000   0.0000   0.0000   0.0000   0.0000
     0.0000   0.0000   0.0000   0.0000

          k = 0.4178 0.2092-0.1070 ( 19114 PWs)   bands (ev):

  -101.4363 -91.5256 -64.6715 -64.6131 -59.4052 -58.7257 -58.6305 -52.0089
   -51.9605 -51.9275 -28.9822 -28.9199 -28.8956 -28.8330 -28.7993 -28.7341
    -7.8560  -7.4977  -7.3791  -7.0485  -6.5155  -6.3367  -6.2626  -6.1081
     2.5496   2.8770   3.2277   3.3009   3.8340   4.1540   4.6756   4.8956
     5.0413   5.2261   5.4907   5.5998   5.7331   5.9281   6.2003   6.2387
     6.5098   6.9580   7.1027   7.2628   7.5025   7.7964   8.1450   8.4941
     8.5845   8.6936   8.8626   9.2020   9.4879   9.6376  10.2014  12.0733
    12.6715  12.8767  12.9827  13.5418  13.9057  14.5160  15.1287  15.3441
    16.0189  16.4349  17.9403  18.8243

     occupation numbers 
     1.0000   1.0000   1.0000   1.0000   1.0000   1.0000   1.0000   1.0000
     1.0000   1.0000   1.0000   1.0000   1.0000   1.0000   1.0000   1.0000
     1.0000   1.0000   1.0000   1.0000   1.0000   1.0000   1.0000   1.0000
     1.0000   1.0000   1.0000   1.0000   1.0000   1.0000   1.0000   1.0000
     1.0000   1.0000   1.0000   1.0000   1.0000   1.0000   1.0000   1.0000
     1.0000   1.0000   1.0000   1.0000   1.0000   1.0000   1.0000   1.0000
     1.0000   1.0000   1.0000   1.0000   1.0000   1.0000   1.0000   0.0000
     0.0000   0.0000   0.0000   0.0000   0.0000   0.0000   0.0000   0.0000
     0.0000   0.0000   0.0000   0.0000

          k = 0.4165 0.3564 0.0319 ( 19142 PWs)   bands (ev):

  -101.4363 -91.5256 -64.6716 -64.6131 -59.4052 -58.7257 -58.6305 -52.0089
   -51.9605 -51.9275 -28.9816 -28.9201 -28.8950 -28.8339 -28.7992 -28.7345
    -7.8290  -7.4356  -7.3027  -7.1369  -6.5836  -6.4249  -6.2609  -6.0577
     2.5402   2.8660   3.1786   3.2447   3.7760   4.2176   4.7561   5.0631
     5.3003   5.4051   5.5348   5.6916   5.8309   5.9953   6.1257   6.3163
     6.3899   6.8169   6.9435   7.4684   7.5842   7.7725   8.0347   8.3307
     8.4187   8.7093   8.8194   9.1378   9.2419   9.4268  10.0445  11.9102
    12.6385  12.8479  12.9849  13.6175  13.9928  14.4582  15.0865  15.3815
    16.2850  16.6331  17.6474  18.7493

     occupation numbers 
     1.0000   1.0000   1.0000   1.0000   1.0000   1.0000   1.0000   1.0000
     1.0000   1.0000   1.0000   1.0000   1.0000   1.0000   1.0000   1.0000
     1.0000   1.0000   1.0000   1.0000   1.0000   1.0000   1.0000   1.0000
     1.0000   1.0000   1.0000   1.0000   1.0000   1.0000   1.0000   1.0000
     1.0000   1.0000   1.0000   1.0000   1.0000   1.0000   1.0000   1.0000
     1.0000   1.0000   1.0000   1.0000   1.0000   1.0000   1.0000   1.0000
     1.0000   1.0000   1.0000   1.0000   1.0000   1.0000   1.0000   0.0001
     0.0000   0.0000   0.0000   0.0000   0.0000   0.0000   0.0000   0.0000
     0.0000   0.0000   0.0000   0.0000

          k = 0.4151 0.3564 0.1744 ( 19148 PWs)   bands (ev):

  -101.4363 -91.5256 -64.6715 -64.6134 -59.4052 -58.7257 -58.6305 -52.0089
   -51.9605 -51.9275 -28.9804 -28.9275 -28.8898 -28.8421 -28.7864 -28.7380
    -7.7829  -7.3943  -7.3249  -7.2210  -6.5075  -6.4056  -6.2477  -6.1514
     2.5522   2.8762   3.1963   3.2654   3.8623   4.2399   4.5821   4.9835
     5.1569   5.2707   5.4297   5.6690   5.8045   5.9577   6.1499   6.3430
     6.4928   6.9217   7.1104   7.6661   7.8138   7.9759   8.1734   8.2237
     8.3244   8.6254   8.8272   9.0245   9.1196   9.5677   9.8921  11.9314
    12.4883  12.6934  13.0589  13.7084  13.9624  14.2817  15.1400  15.4350
    16.2159  16.4235  18.1893  18.8216

     occupation numbers 
     1.0000   1.0000   1.0000   1.0000   1.0000   1.0000   1.0000   1.0000
     1.0000   1.0000   1.0000   1.0000   1.0000   1.0000   1.0000   1.0000
     1.0000   1.0000   1.0000   1.0000   1.0000   1.0000   1.0000   1.0000
     1.0000   1.0000   1.0000   1.0000   1.0000   1.0000   1.0000   1.0000
     1.0000   1.0000   1.0000   1.0000   1.0000   1.0000   1.0000   1.0000
     1.0000   1.0000   1.0000   1.0000   1.0000   1.0000   1.0000   1.0000
     1.0000   1.0000   1.0000   1.0000   1.0000   1.0000   1.0000   0.0000
     0.0000   0.0000   0.0000   0.0000   0.0000   0.0000   0.0000   0.0000
     0.0000   0.0000   0.0000   0.0000

          k = 0.4137 0.3564 0.3168 ( 19168 PWs)   bands (ev):

  -101.4363 -91.5256 -64.6714 -64.6136 -59.4052 -58.7257 -58.6305 -52.0089
   -51.9605 -51.9274 -28.9788 -28.9339 -28.8848 -28.8492 -28.7733 -28.7441
    -7.6913  -7.4546  -7.3078  -7.2733  -6.4291  -6.3486  -6.2891  -6.2446
     2.5454   2.8994   3.2186   3.2804   3.9141   4.2503   4.4524   4.8999
     5.0443   5.1545   5.3372   5.5294   5.7517   6.0498   6.3781   6.4890
     6.7249   6.9188   7.1258   7.6331   7.8164   7.9314   8.1301   8.3118
     8.5038   8.6783   8.8100   8.8956   9.1113   9.6943   9.8033  11.9531
    12.4242  12.5335  13.0354  13.7863  13.9827  14.1683  15.1745  15.4392
    16.0660  16.1800  18.7022  18.9401

     occupation numbers 
     1.0000   1.0000   1.0000   1.0000   1.0000   1.0000   1.0000   1.0000
     1.0000   1.0000   1.0000   1.0000   1.0000   1.0000   1.0000   1.0000
     1.0000   1.0000   1.0000   1.0000   1.0000   1.0000   1.0000   1.0000
     1.0000   1.0000   1.0000   1.0000   1.0000   1.0000   1.0000   1.0000
     1.0000   1.0000   1.0000   1.0000   1.0000   1.0000   1.0000   1.0000
     1.0000   1.0000   1.0000   1.0000   1.0000   1.0000   1.0000   1.0000
     1.0000   1.0000   1.0000   1.0000   1.0000   1.0000   1.0000   0.0000
     0.0000   0.0000   0.0000   0.0000   0.0000   0.0000   0.0000   0.0000
     0.0000   0.0000   0.0000   0.0000

          k = 0.4206 0.3565-0.3954 ( 19169 PWs)   bands (ev):

  -101.4363 -91.5256 -64.6714 -64.6136 -59.4052 -58.7257 -58.6305 -52.0089
   -51.9605 -51.9274 -28.9790 -28.9332 -28.8847 -28.8495 -28.7736 -28.7441
    -7.6676  -7.4837  -7.3441  -7.2127  -6.5237  -6.2999  -6.2791  -6.2261
     2.5278   2.9186   3.2113   3.2629   3.8624   4.2704   4.4630   4.8885
     5.0291   5.1791   5.3891   5.4868   5.8977   6.1413   6.3078   6.4605
     6.6713   6.8157   7.3401   7.5892   7.7018   7.8854   8.0900   8.2197
     8.5629   8.7088   8.7282   8.9413   9.2220   9.6127   9.9039  11.9955
    12.4342  12.5563  13.0004  13.8168  13.9567  14.2732  15.2057  15.3811
    15.9693  16.0602  18.3599  19.3260

     occupation numbers 
     1.0000   1.0000   1.0000   1.0000   1.0000   1.0000   1.0000   1.0000
     1.0000   1.0000   1.0000   1.0000   1.0000   1.0000   1.0000   1.0000
     1.0000   1.0000   1.0000   1.0000   1.0000   1.0000   1.0000   1.0000
     1.0000   1.0000   1.0000   1.0000   1.0000   1.0000   1.0000   1.0000
     1.0000   1.0000   1.0000   1.0000   1.0000   1.0000   1.0000   1.0000
     1.0000   1.0000   1.0000   1.0000   1.0000   1.0000   1.0000   1.0000
     1.0000   1.0000   1.0000   1.0000   1.0000   1.0000   1.0000   0.0000
     0.0000   0.0000   0.0000   0.0000   0.0000   0.0000   0.0000   0.0000
     0.0000   0.0000   0.0000   0.0000

          k = 0.4192 0.3564-0.2529 ( 19142 PWs)   bands (ev):

  -101.4363 -91.5256 -64.6715 -64.6133 -59.4052 -58.7257 -58.6305 -52.0089
   -51.9605 -51.9275 -28.9808 -28.9261 -28.8898 -28.8426 -28.7869 -28.7381
    -7.7517  -7.4178  -7.3890  -7.1224  -6.6310  -6.3521  -6.2502  -6.1188
     2.5200   2.9134   3.1856   3.2247   3.7905   4.2652   4.6154   4.9537
     5.1457   5.2359   5.5314   5.6040   5.9231   6.0854   6.3013   6.3735
     6.5446   6.6836   7.1826   7.4757   7.6550   7.8545   8.0841   8.3240
     8.4091   8.6162   8.8108   9.0125   9.2888   9.4951  10.0020  12.0072
    12.5887  12.6373  13.0255  13.7314  13.9995  14.4440  15.1352  15.4240
    15.9576  16.1565  17.9130  19.2046

     occupation numbers 
     1.0000   1.0000   1.0000   1.0000   1.0000   1.0000   1.0000   1.0000
     1.0000   1.0000   1.0000   1.0000   1.0000   1.0000   1.0000   1.0000
     1.0000   1.0000   1.0000   1.0000   1.0000   1.0000   1.0000   1.0000
     1.0000   1.0000   1.0000   1.0000   1.0000   1.0000   1.0000   1.0000
     1.0000   1.0000   1.0000   1.0000   1.0000   1.0000   1.0000   1.0000
     1.0000   1.0000   1.0000   1.0000   1.0000   1.0000   1.0000   1.0000
     1.0000   1.0000   1.0000   1.0000   1.0000   1.0000   1.0000   0.0000
     0.0000   0.0000   0.0000   0.0000   0.0000   0.0000   0.0000   0.0000
     0.0000   0.0000   0.0000   0.0000

          k = 0.4178 0.3564-0.1105 ( 19125 PWs)   bands (ev):

  -101.4363 -91.5256 -64.6716 -64.6131 -59.4052 -58.7257 -58.6305 -52.0089
   -51.9605 -51.9275 -28.9818 -28.9193 -28.8951 -28.8342 -28.7994 -28.7345
    -7.8148  -7.4448  -7.3349  -7.0862  -6.6402  -6.4006  -6.2597  -6.0490
     2.5256   2.8844   3.1754   3.2189   3.7543   4.2233   4.7939   5.0665
     5.1983   5.3768   5.5919   5.7165   5.8513   6.0146   6.2420   6.3219
     6.4871   6.7538   6.9947   7.3114   7.4908   7.7356   7.9224   8.3440
     8.6132   8.6749   8.8196   9.0824   9.3025   9.4114  10.0863  11.9461
    12.6991  12.7967  12.9826  13.6165  14.0417  14.5292  15.0959  15.3440
    16.1579  16.4714  17.5883  18.9074

     occupation numbers 
     1.0000   1.0000   1.0000   1.0000   1.0000   1.0000   1.0000   1.0000
     1.0000   1.0000   1.0000   1.0000   1.0000   1.0000   1.0000   1.0000
     1.0000   1.0000   1.0000   1.0000   1.0000   1.0000   1.0000   1.0000
     1.0000   1.0000   1.0000   1.0000   1.0000   1.0000   1.0000   1.0000
     1.0000   1.0000   1.0000   1.0000   1.0000   1.0000   1.0000   1.0000
     1.0000   1.0000   1.0000   1.0000   1.0000   1.0000   1.0000   1.0000
     1.0000   1.0000   1.0000   1.0000   1.0000   1.0000   1.0000   0.0000
     0.0000   0.0000   0.0000   0.0000   0.0000   0.0000   0.0000   0.0000
     0.0000   0.0000   0.0000   0.0000

          k = 0.4161-0.3796 0.0494 ( 19145 PWs)   bands (ev):

  -101.4363 -91.5256 -64.6717 -64.6131 -59.4052 -58.7257 -58.6305 -52.0089
   -51.9605 -51.9275 -28.9816 -28.9194 -28.8949 -28.8343 -28.7993 -28.7346
    -7.7559  -7.5531  -7.2987  -7.1161  -6.5795  -6.4229  -6.2547  -6.0464
     2.5410   2.8770   3.1685   3.2412   3.7700   4.2042   4.8061   5.0168
     5.2443   5.3831   5.5153   5.7313   5.8814   5.9322   6.1169   6.3406
     6.5634   6.7845   6.9258   7.4973   7.6324   7.7246   7.9713   8.3253
     8.4491   8.6900   8.8236   9.0718   9.2124   9.4215  10.0390  12.0200
    12.6554  12.8344  12.9985  13.5658  14.0293  14.4384  15.0841  15.3779
    16.2705  16.6284  17.6540  18.7558

     occupation numbers 
     1.0000   1.0000   1.0000   1.0000   1.0000   1.0000   1.0000   1.0000
     1.0000   1.0000   1.0000   1.0000   1.0000   1.0000   1.0000   1.0000
     1.0000   1.0000   1.0000   1.0000   1.0000   1.0000   1.0000   1.0000
     1.0000   1.0000   1.0000   1.0000   1.0000   1.0000   1.0000   1.0000
     1.0000   1.0000   1.0000   1.0000   1.0000   1.0000   1.0000   1.0000
     1.0000   1.0000   1.0000   1.0000   1.0000   1.0000   1.0000   1.0000
     1.0000   1.0000   1.0000   1.0000   1.0000   1.0000   1.0000   0.0000
     0.0000   0.0000   0.0000   0.0000   0.0000   0.0000   0.0000   0.0000
     0.0000   0.0000   0.0000   0.0000

          k = 0.4147-0.3796 0.1918 ( 19123 PWs)   bands (ev):

  -101.4363 -91.5256 -64.6715 -64.6134 -59.4052 -58.7257 -58.6305 -52.0089
   -51.9605 -51.9275 -28.9807 -28.9262 -28.8896 -28.8426 -28.7869 -28.7382
    -7.7042  -7.5106  -7.3429  -7.1828  -6.5241  -6.3990  -6.2349  -6.1330
     2.5534   2.8845   3.1945   3.2478   3.8618   4.2261   4.6353   4.9362
     5.1447   5.2403   5.3855   5.6723   5.8468   6.0236   6.1348   6.4234
     6.4670   6.8957   7.1691   7.6067   7.8416   7.9596   8.1629   8.2394
     8.3777   8.6024   8.7915   8.9200   9.0880   9.5999   9.8808  12.0439
    12.4830  12.7130  13.0576  13.6722  14.0046  14.2607  15.1492  15.4219
    16.1701  16.4347  18.1955  18.8243

     occupation numbers 
     1.0000   1.0000   1.0000   1.0000   1.0000   1.0000   1.0000   1.0000
     1.0000   1.0000   1.0000   1.0000   1.0000   1.0000   1.0000   1.0000
     1.0000   1.0000   1.0000   1.0000   1.0000   1.0000   1.0000   1.0000
     1.0000   1.0000   1.0000   1.0000   1.0000   1.0000   1.0000   1.0000
     1.0000   1.0000   1.0000   1.0000   1.0000   1.0000   1.0000   1.0000
     1.0000   1.0000   1.0000   1.0000   1.0000   1.0000   1.0000   1.0000
     1.0000   1.0000   1.0000   1.0000   1.0000   1.0000   1.0000   0.0000
     0.0000   0.0000   0.0000   0.0000   0.0000   0.0000   0.0000   0.0000
     0.0000   0.0000   0.0000   0.0000

          k = 0.4134-0.3796 0.3342 ( 19154 PWs)   bands (ev):

  -101.4363 -91.5256 -64.6714 -64.6137 -59.4052 -58.7257 -58.6305 -52.0089
   -51.9605 -51.9274 -28.9790 -28.9333 -28.8846 -28.8494 -28.7736 -28.7441
    -7.6388  -7.4607  -7.3916  -7.2527  -6.4513  -6.3703  -6.2581  -6.2107
     2.5722   2.8880   3.1912   3.2605   3.9345   4.2309   4.4563   4.9300
     4.9973   5.1794   5.3691   5.5425   5.7015   6.0793   6.3641   6.5305
     6.6914   6.8611   7.2071   7.6438   7.8054   7.9577   8.1489   8.3483
     8.4779   8.6754   8.7575   8.8679   9.0359   9.7027   9.8124  12.0352
    12.3636  12.5930  13.0482  13.7790  13.9643  14.1828  15.1934  15.4204
    16.0050  16.2192  18.7193  18.9198

     occupation numbers 
     1.0000   1.0000   1.0000   1.0000   1.0000   1.0000   1.0000   1.0000
     1.0000   1.0000   1.0000   1.0000   1.0000   1.0000   1.0000   1.0000
     1.0000   1.0000   1.0000   1.0000   1.0000   1.0000   1.0000   1.0000
     1.0000   1.0000   1.0000   1.0000   1.0000   1.0000   1.0000   1.0000
     1.0000   1.0000   1.0000   1.0000   1.0000   1.0000   1.0000   1.0000
     1.0000   1.0000   1.0000   1.0000   1.0000   1.0000   1.0000   1.0000
     1.0000   1.0000   1.0000   1.0000   1.0000   1.0000   1.0000   0.0000
     0.0000   0.0000   0.0000   0.0000   0.0000   0.0000   0.0000   0.0000
     0.0000   0.0000   0.0000   0.0000

          k = 0.4203-0.3796-0.3779 ( 19153 PWs)   bands (ev):

  -101.4363 -91.5256 -64.6714 -64.6136 -59.4052 -58.7257 -58.6305 -52.0089
   -51.9605 -51.9274 -28.9787 -28.9339 -28.8848 -28.8492 -28.7733 -28.7441
    -7.6643  -7.4454  -7.3532  -7.2630  -6.5353  -6.3010  -6.2546  -6.2159
     2.5805   2.8848   3.1690   3.2481   3.8875   4.2643   4.3980   4.8987
     5.0787   5.2101   5.4094   5.5921   5.8047   6.0525   6.2819   6.4783
     6.6551   6.9028   7.3559   7.4525   7.8272   7.8824   8.1044   8.2637
     8.5420   8.7333   8.7680   8.8837   9.1274   9.5985   9.9178  12.0368
    12.4102  12.5664  13.0327  13.8158  13.9117  14.2942  15.1927  15.3975
    15.9660  16.0652  18.3744  19.3040

     occupation numbers 
     1.0000   1.0000   1.0000   1.0000   1.0000   1.0000   1.0000   1.0000
     1.0000   1.0000   1.0000   1.0000   1.0000   1.0000   1.0000   1.0000
     1.0000   1.0000   1.0000   1.0000   1.0000   1.0000   1.0000   1.0000
     1.0000   1.0000   1.0000   1.0000   1.0000   1.0000   1.0000   1.0000
     1.0000   1.0000   1.0000   1.0000   1.0000   1.0000   1.0000   1.0000
     1.0000   1.0000   1.0000   1.0000   1.0000   1.0000   1.0000   1.0000
     1.0000   1.0000   1.0000   1.0000   1.0000   1.0000   1.0000   0.0000
     0.0000   0.0000   0.0000   0.0000   0.0000   0.0000   0.0000   0.0000
     0.0000   0.0000   0.0000   0.0000

          k = 0.4189-0.3796-0.2355 ( 19143 PWs)   bands (ev):

  -101.4363 -91.5256 -64.6716 -64.6133 -59.4052 -58.7257 -58.6305 -52.0089
   -51.9605 -51.9275 -28.9803 -28.9274 -28.8898 -28.8420 -28.7865 -28.7379
    -7.7318  -7.4891  -7.3215  -7.1566  -6.6377  -6.3276  -6.2449  -6.1194
     2.5704   2.8804   3.1451   3.2211   3.8025   4.2538   4.5373   4.9902
     5.1642   5.3385   5.4486   5.8070   5.8659   5.9813   6.2090   6.3588
     6.4989   6.7785   7.1822   7.5227   7.7563   7.8486   8.0744   8.3057
     8.3992   8.6091   8.8015   8.9893   9.2511   9.4804  10.0060  12.0565
    12.5581  12.6298  13.0587  13.7568  13.9265  14.4615  15.1274  15.4243
    15.9978  16.1463  17.9171  19.1928

     occupation numbers 
     1.0000   1.0000   1.0000   1.0000   1.0000   1.0000   1.0000   1.0000
     1.0000   1.0000   1.0000   1.0000   1.0000   1.0000   1.0000   1.0000
     1.0000   1.0000   1.0000   1.0000   1.0000   1.0000   1.0000   1.0000
     1.0000   1.0000   1.0000   1.0000   1.0000   1.0000   1.0000   1.0000
     1.0000   1.0000   1.0000   1.0000   1.0000   1.0000   1.0000   1.0000
     1.0000   1.0000   1.0000   1.0000   1.0000   1.0000   1.0000   1.0000
     1.0000   1.0000   1.0000   1.0000   1.0000   1.0000   1.0000   0.0000
     0.0000   0.0000   0.0000   0.0000   0.0000   0.0000   0.0000   0.0000
     0.0000   0.0000   0.0000   0.0000

          k = 0.4175-0.3796-0.0931 ( 19133 PWs)   bands (ev):

  -101.4363 -91.5256 -64.6717 -64.6131 -59.4052 -58.7257 -58.6305 -52.0089
   -51.9605 -51.9275 -28.9815 -28.9200 -28.8950 -28.8339 -28.7992 -28.7344
    -7.7658  -7.5435  -7.2986  -7.0921  -6.6375  -6.3911  -6.2543  -6.0430
     2.5494   2.8764   3.1458   3.2215   3.7514   4.2140   4.7539   5.0842
     5.2288   5.3797   5.5643   5.7519   5.8621   6.0013   6.1947   6.3438
     6.4483   6.7458   7.0573   7.3561   7.5941   7.7575   7.8964   8.2876
     8.5580   8.6574   8.7819   9.1125   9.2757   9.3999  10.0846  12.0283
    12.6457  12.8116  13.0167  13.5987  14.0245  14.5289  15.0911  15.3433
    16.1613  16.4871  17.5819  18.9067

     occupation numbers 
     1.0000   1.0000   1.0000   1.0000   1.0000   1.0000   1.0000   1.0000
     1.0000   1.0000   1.0000   1.0000   1.0000   1.0000   1.0000   1.0000
     1.0000   1.0000   1.0000   1.0000   1.0000   1.0000   1.0000   1.0000
     1.0000   1.0000   1.0000   1.0000   1.0000   1.0000   1.0000   1.0000
     1.0000   1.0000   1.0000   1.0000   1.0000   1.0000   1.0000   1.0000
     1.0000   1.0000   1.0000   1.0000   1.0000   1.0000   1.0000   1.0000
     1.0000   1.0000   1.0000   1.0000   1.0000   1.0000   1.0000   0.0000
     0.0000   0.0000   0.0000   0.0000   0.0000   0.0000   0.0000   0.0000
     0.0000   0.0000   0.0000   0.0000

          k = 0.4162-0.2324 0.0459 ( 19139 PWs)   bands (ev):

  -101.4363 -91.5256 -64.6717 -64.6132 -59.4052 -58.7257 -58.6305 -52.0089
   -51.9605 -51.9275 -28.9820 -28.9199 -28.8955 -28.8332 -28.7992 -28.7342
    -7.8040  -7.6131  -7.3179  -7.0769  -6.4732  -6.3365  -6.2811  -6.0970
     2.5991   2.8564   3.2020   3.3068   3.8636   4.1406   4.5516   4.9228
     5.0074   5.3029   5.3945   5.7488   5.7802   5.9134   6.0790   6.2680
     6.5765   6.8694   7.1291   7.3271   7.6311   7.8097   8.1258   8.4228
     8.5268   8.6652   8.9374   9.1381   9.3707   9.6283  10.1594  12.2702
    12.6291  12.8449  13.0649  13.4401  13.9109  14.4388  15.1422  15.3486
    16.1230  16.6101  17.9331  18.7038

     occupation numbers 
     1.0000   1.0000   1.0000   1.0000   1.0000   1.0000   1.0000   1.0000
     1.0000   1.0000   1.0000   1.0000   1.0000   1.0000   1.0000   1.0000
     1.0000   1.0000   1.0000   1.0000   1.0000   1.0000   1.0000   1.0000
     1.0000   1.0000   1.0000   1.0000   1.0000   1.0000   1.0000   1.0000
     1.0000   1.0000   1.0000   1.0000   1.0000   1.0000   1.0000   1.0000
     1.0000   1.0000   1.0000   1.0000   1.0000   1.0000   1.0000   1.0000
     1.0000   1.0000   1.0000   1.0000   1.0000   1.0000   1.0000   0.0000
     0.0000   0.0000   0.0000   0.0000   0.0000   0.0000   0.0000   0.0000
     0.0000   0.0000   0.0000   0.0000

          k = 0.4148-0.2324 0.1883 ( 19144 PWs)   bands (ev):

  -101.4363 -91.5256 -64.6715 -64.6135 -59.4052 -58.7257 -58.6305 -52.0089
   -51.9605 -51.9275 -28.9807 -28.9253 -28.8899 -28.8423 -28.7873 -28.7383
    -7.7844  -7.5411  -7.3165  -7.1266  -6.5236  -6.3637  -6.2540  -6.0978
     2.6175   2.8642   3.2153   3.3168   3.9447   4.2161   4.4071   4.8753
     5.0595   5.1486   5.2577   5.4762   5.7854   5.9646   6.1399   6.3592
     6.7536   6.7894   7.2489   7.4721   7.7355   7.9026   8.1558   8.3622
     8.5295   8.6911   8.8327   9.0859   9.2775   9.8088  10.0313  12.2836
    12.4994  12.8154  13.0786  13.5636  13.9358  14.2712  15.1933  15.3860
    16.0195  16.4408  18.3398  18.8200

     occupation numbers 
     1.0000   1.0000   1.0000   1.0000   1.0000   1.0000   1.0000   1.0000
     1.0000   1.0000   1.0000   1.0000   1.0000   1.0000   1.0000   1.0000
     1.0000   1.0000   1.0000   1.0000   1.0000   1.0000   1.0000   1.0000
     1.0000   1.0000   1.0000   1.0000   1.0000   1.0000   1.0000   1.0000
     1.0000   1.0000   1.0000   1.0000   1.0000   1.0000   1.0000   1.0000
     1.0000   1.0000   1.0000   1.0000   1.0000   1.0000   1.0000   1.0000
     1.0000   1.0000   1.0000   1.0000   1.0000   1.0000   1.0000   0.0000
     0.0000   0.0000   0.0000   0.0000   0.0000   0.0000   0.0000   0.0000
     0.0000   0.0000   0.0000   0.0000

          k = 0.4134-0.2324 0.3308 ( 19126 PWs)   bands (ev):

  -101.4363 -91.5256 -64.6714 -64.6138 -59.4052 -58.7257 -58.6305 -52.0089
   -51.9605 -51.9274 -28.9785 -28.9318 -28.8845 -28.8497 -28.7747 -28.7447
    -7.7145  -7.4917  -7.3409  -7.1975  -6.5108  -6.4521  -6.2306  -6.0738
     2.6487   2.8644   3.1995   3.3250   4.0080   4.2190   4.3887   4.7525
     4.9115   5.1129   5.1781   5.4475   5.6797   6.0817   6.3913   6.4990
     6.7093   6.8158   7.2402   7.5047   7.6729   7.8086   8.0761   8.3788
     8.6506   8.7679   8.9551   9.0847   9.2983   9.8852   9.9732  12.2006
    12.4355  12.7128  13.1250  13.6623  13.9694  14.1610  15.2252  15.3726
    15.8795  16.1953  18.8351  18.9552

     occupation numbers 
     1.0000   1.0000   1.0000   1.0000   1.0000   1.0000   1.0000   1.0000
     1.0000   1.0000   1.0000   1.0000   1.0000   1.0000   1.0000   1.0000
     1.0000   1.0000   1.0000   1.0000   1.0000   1.0000   1.0000   1.0000
     1.0000   1.0000   1.0000   1.0000   1.0000   1.0000   1.0000   1.0000
     1.0000   1.0000   1.0000   1.0000   1.0000   1.0000   1.0000   1.0000
     1.0000   1.0000   1.0000   1.0000   1.0000   1.0000   1.0000   1.0000
     1.0000   1.0000   1.0000   1.0000   1.0000   1.0000   1.0000   0.0000
     0.0000   0.0000   0.0000   0.0000   0.0000   0.0000   0.0000   0.0000
     0.0000   0.0000   0.0000   0.0000

          k = 0.4203-0.2324-0.3814 ( 19122 PWs)   bands (ev):

  -101.4363 -91.5256 -64.6714 -64.6137 -59.4052 -58.7257 -58.6305 -52.0089
   -51.9605 -51.9274 -28.9780 -28.9332 -28.8848 -28.8491 -28.7741 -28.7446
    -7.6681  -7.4874  -7.4169  -7.1840  -6.5977  -6.3319  -6.2338  -6.0879
     2.6660   2.8511   3.1666   3.3247   3.9390   4.2688   4.3900   4.7301
     4.8975   5.1075   5.2633   5.5044   5.6901   5.9825   6.4608   6.5726
     6.6255   6.7903   7.1544   7.4940   7.6750   7.8527   8.1133   8.3376
     8.6046   8.8549   8.9848   9.1187   9.3301   9.7864  10.0573  12.1596
    12.4641  12.6997  13.1369  13.7164  13.8596  14.2733  15.1831  15.3514
    15.9248  15.9947  18.5744  19.2717

     occupation numbers 
     1.0000   1.0000   1.0000   1.0000   1.0000   1.0000   1.0000   1.0000
     1.0000   1.0000   1.0000   1.0000   1.0000   1.0000   1.0000   1.0000
     1.0000   1.0000   1.0000   1.0000   1.0000   1.0000   1.0000   1.0000
     1.0000   1.0000   1.0000   1.0000   1.0000   1.0000   1.0000   1.0000
     1.0000   1.0000   1.0000   1.0000   1.0000   1.0000   1.0000   1.0000
     1.0000   1.0000   1.0000   1.0000   1.0000   1.0000   1.0000   1.0000
     1.0000   1.0000   1.0000   1.0000   1.0000   1.0000   1.0000   0.0000
     0.0000   0.0000   0.0000   0.0000   0.0000   0.0000   0.0000   0.0000
     0.0000   0.0000   0.0000   0.0000

          k = 0.4189-0.2324-0.2390 ( 19141 PWs)   bands (ev):

  -101.4363 -91.5256 -64.6716 -64.6134 -59.4052 -58.7257 -58.6305 -52.0089
   -51.9605 -51.9275 -28.9799 -28.9280 -28.8903 -28.8411 -28.7866 -28.7379
    -7.6865  -7.5931  -7.4056  -7.1059  -6.6007  -6.2559  -6.1995  -6.1525
     2.6476   2.8452   3.1583   3.2889   3.8811   4.2089   4.5070   4.8612
     5.0009   5.1564   5.3633   5.4693   5.7245   5.9680   6.2966   6.4117
     6.5847   6.7454   7.2229   7.5461   7.6671   7.9309   8.1982   8.2699
     8.5037   8.7648   8.9366   9.0652   9.4285   9.6690  10.1303  12.1963
    12.5340  12.7939  13.1333  13.6282  13.8235  14.4351  15.1175  15.3957
    15.9123  16.1332  18.1980  19.1085

     occupation numbers 
     1.0000   1.0000   1.0000   1.0000   1.0000   1.0000   1.0000   1.0000
     1.0000   1.0000   1.0000   1.0000   1.0000   1.0000   1.0000   1.0000
     1.0000   1.0000   1.0000   1.0000   1.0000   1.0000   1.0000   1.0000
     1.0000   1.0000   1.0000   1.0000   1.0000   1.0000   1.0000   1.0000
     1.0000   1.0000   1.0000   1.0000   1.0000   1.0000   1.0000   1.0000
     1.0000   1.0000   1.0000   1.0000   1.0000   1.0000   1.0000   1.0000
     1.0000   1.0000   1.0000   1.0000   1.0000   1.0000   1.0000   0.0000
     0.0000   0.0000   0.0000   0.0000   0.0000   0.0000   0.0000   0.0000
     0.0000   0.0000   0.0000   0.0000

          k = 0.4176-0.2324-0.0965 ( 19129 PWs)   bands (ev):

  -101.4363 -91.5256 -64.6717 -64.6131 -59.4052 -58.7257 -58.6305 -52.0089
   -51.9605 -51.9275 -28.9817 -28.9213 -28.8955 -28.8324 -28.7990 -28.7339
    -7.7500  -7.6541  -7.3527  -7.0652  -6.5111  -6.3143  -6.2401  -6.1081
     2.6120   2.8503   3.1892   3.2675   3.8536   4.1328   4.6834   4.7740
     5.0446   5.3302   5.4561   5.5629   5.8691   5.9650   6.1297   6.2325
     6.4276   7.0099   7.1760   7.3883   7.5183   7.7996   8.0939   8.4146
     8.5148   8.7439   8.8608   9.1979   9.4665   9.5602  10.1933  12.2308
    12.6112  12.8639  13.0898  13.4551  13.8901  14.5113  15.1200  15.3397
    16.0349  16.4509  17.9314  18.8229

     occupation numbers 
     1.0000   1.0000   1.0000   1.0000   1.0000   1.0000   1.0000   1.0000
     1.0000   1.0000   1.0000   1.0000   1.0000   1.0000   1.0000   1.0000
     1.0000   1.0000   1.0000   1.0000   1.0000   1.0000   1.0000   1.0000
     1.0000   1.0000   1.0000   1.0000   1.0000   1.0000   1.0000   1.0000
     1.0000   1.0000   1.0000   1.0000   1.0000   1.0000   1.0000   1.0000
     1.0000   1.0000   1.0000   1.0000   1.0000   1.0000   1.0000   1.0000
     1.0000   1.0000   1.0000   1.0000   1.0000   1.0000   1.0000   0.0000
     0.0000   0.0000   0.0000   0.0000   0.0000   0.0000   0.0000   0.0000
     0.0000   0.0000   0.0000   0.0000

          k = 0.4163-0.0852 0.0424 ( 19111 PWs)   bands (ev):

  -101.4363 -91.5256 -64.6716 -64.6132 -59.4052 -58.7257 -58.6305 -52.0089
   -51.9605 -51.9275 -28.9823 -28.9211 -28.8960 -28.8318 -28.7989 -28.7336
    -7.9409  -7.5348  -7.3106  -7.0544  -6.4629  -6.3044  -6.2670  -6.0993
     2.6480   2.8234   3.2748   3.3350   4.0358   4.1188   4.2887   4.6668
     4.9779   5.1719   5.3815   5.6656   5.7744   5.9087   6.0437   6.1779
     6.4784   6.7722   7.1875   7.5687   7.7091   7.7874   8.0425   8.4576
     8.5542   8.7956   8.9509   9.3074   9.6548   9.9002  10.2576  12.3993
    12.6229  12.8387  13.1425  13.3654  13.7706  14.4194  15.2132  15.3455
    15.9441  16.5823  18.2479  18.6919

     occupation numbers 
     1.0000   1.0000   1.0000   1.0000   1.0000   1.0000   1.0000   1.0000
     1.0000   1.0000   1.0000   1.0000   1.0000   1.0000   1.0000   1.0000
     1.0000   1.0000   1.0000   1.0000   1.0000   1.0000   1.0000   1.0000
     1.0000   1.0000   1.0000   1.0000   1.0000   1.0000   1.0000   1.0000
     1.0000   1.0000   1.0000   1.0000   1.0000   1.0000   1.0000   1.0000
     1.0000   1.0000   1.0000   1.0000   1.0000   1.0000   1.0000   1.0000
     1.0000   1.0000   1.0000   1.0000   1.0000   1.0000   1.0000   0.0000
     0.0000   0.0000   0.0000   0.0000   0.0000   0.0000   0.0000   0.0000
     0.0000   0.0000   0.0000   0.0000

          k = 0.4149-0.0852 0.1848 ( 19125 PWs)   bands (ev):

  -101.4363 -91.5256 -64.6715 -64.6136 -59.4052 -58.7257 -58.6305 -52.0089
   -51.9605 -51.9275 -28.9804 -28.9258 -28.8904 -28.8415 -28.7874 -28.7383
    -7.9182  -7.4941  -7.2376  -7.0743  -6.5822  -6.4557  -6.1944  -6.0297
     2.6725   2.8313   3.2747   3.3702   4.0598   4.1142   4.2609   4.7361
     4.9722   5.1567   5.2576   5.4016   5.7052   5.8916   6.1419   6.2596
     6.5566   6.9068   7.2190   7.4285   7.6872   7.8626   8.0289   8.5596
     8.6081   8.7592   9.0453   9.2344   9.5810  10.0255  10.1483  12.3365
    12.5972  12.9356  13.0719  13.4778  13.8321  14.2759  15.2502  15.3527
    15.8989  16.4340  18.4479  18.8281

     occupation numbers 
     1.0000   1.0000   1.0000   1.0000   1.0000   1.0000   1.0000   1.0000
     1.0000   1.0000   1.0000   1.0000   1.0000   1.0000   1.0000   1.0000
     1.0000   1.0000   1.0000   1.0000   1.0000   1.0000   1.0000   1.0000
     1.0000   1.0000   1.0000   1.0000   1.0000   1.0000   1.0000   1.0000
     1.0000   1.0000   1.0000   1.0000   1.0000   1.0000   1.0000   1.0000
     1.0000   1.0000   1.0000   1.0000   1.0000   1.0000   1.0000   1.0000
     1.0000   1.0000   1.0000   1.0000   1.0000   1.0000   1.0000   0.0000
     0.0000   0.0000   0.0000   0.0000   0.0000   0.0000   0.0000   0.0000
     0.0000   0.0000   0.0000   0.0000

          k = 0.4135-0.0852 0.3273 ( 19116 PWs)   bands (ev):

  -101.4363 -91.5255 -64.6713 -64.6139 -59.4052 -58.7257 -58.6305 -52.0089
   -51.9605 -51.9275 -28.9779 -28.9310 -28.8845 -28.8497 -28.7755 -28.7453
    -7.8269  -7.5037  -7.2206  -7.0898  -6.6501  -6.5790  -6.1460  -5.9751
     2.6938   2.8389   3.2569   3.4097   4.0283   4.1472   4.3048   4.6206
     4.8102   5.1232   5.1519   5.4606   5.7341   5.9808   6.2478   6.3442
     6.6468   6.9542   7.1098   7.2920   7.4491   7.8963   8.1010   8.4490
     8.7315   8.8298   9.2153   9.3657   9.5939  10.0322  10.1209  12.2385
    12.5731  12.8503  13.1603  13.5295  13.9816  14.1308  15.2406  15.3402
    15.7933  16.1407  18.9261  19.0612

     occupation numbers 
     1.0000   1.0000   1.0000   1.0000   1.0000   1.0000   1.0000   1.0000
     1.0000   1.0000   1.0000   1.0000   1.0000   1.0000   1.0000   1.0000
     1.0000   1.0000   1.0000   1.0000   1.0000   1.0000   1.0000   1.0000
     1.0000   1.0000   1.0000   1.0000   1.0000   1.0000   1.0000   1.0000
     1.0000   1.0000   1.0000   1.0000   1.0000   1.0000   1.0000   1.0000
     1.0000   1.0000   1.0000   1.0000   1.0000   1.0000   1.0000   1.0000
     1.0000   1.0000   1.0000   1.0000   1.0000   1.0000   1.0000   0.0000
     0.0000   0.0000   0.0000   0.0000   0.0000   0.0000   0.0000   0.0000
     0.0000   0.0000   0.0000   0.0000

          k = 0.4204-0.0852-0.3849 ( 19112 PWs)   bands (ev):

  -101.4363 -91.5255 -64.6713 -64.6138 -59.4052 -58.7257 -58.6305 -52.0089
   -51.9605 -51.9274 -28.9776 -28.9317 -28.8847 -28.8493 -28.7752 -28.7452
    -7.7232  -7.5675  -7.3267  -7.0789  -6.7058  -6.4672  -6.1364  -5.9793
     2.6897   2.8348   3.2289   3.4182   3.9460   4.2579   4.4203   4.5292
     4.7544   4.9773   5.2237   5.5167   5.6993   5.9395   6.2887   6.4373
     6.6800   6.8062   7.0844   7.3360   7.5763   7.8949   8.1165   8.3906
     8.6536   8.8721   9.3034   9.3603   9.6301   9.9710  10.1724  12.2350
    12.5348  12.8620  13.2211  13.5397  13.8896  14.2272  15.1827  15.3101
    15.8345  15.9165  18.8670  19.2065

     occupation numbers 
     1.0000   1.0000   1.0000   1.0000   1.0000   1.0000   1.0000   1.0000
     1.0000   1.0000   1.0000   1.0000   1.0000   1.0000   1.0000   1.0000
     1.0000   1.0000   1.0000   1.0000   1.0000   1.0000   1.0000   1.0000
     1.0000   1.0000   1.0000   1.0000   1.0000   1.0000   1.0000   1.0000
     1.0000   1.0000   1.0000   1.0000   1.0000   1.0000   1.0000   1.0000
     1.0000   1.0000   1.0000   1.0000   1.0000   1.0000   1.0000   1.0000
     1.0000   1.0000   1.0000   1.0000   1.0000   1.0000   1.0000   0.0000
     0.0000   0.0000   0.0000   0.0000   0.0000   0.0000   0.0000   0.0000
     0.0000   0.0000   0.0000   0.0000

          k = 0.4190-0.0852-0.2425 ( 19126 PWs)   bands (ev):

  -101.4363 -91.5256 -64.6715 -64.6135 -59.4052 -58.7257 -58.6305 -52.0089
   -51.9605 -51.9275 -28.9800 -28.9272 -28.8907 -28.8407 -28.7871 -28.7381
    -7.7400  -7.6133  -7.4027  -7.0571  -6.6269  -6.3221  -6.1676  -6.0439
     2.6655   2.8251   3.2264   3.3647   3.9300   4.2769   4.4833   4.6371
     4.8437   4.9316   5.3424   5.3891   5.6257   5.8900   6.1656   6.4086
     6.6686   6.7665   7.3275   7.4395   7.7084   7.9812   8.1469   8.3009
     8.5505   8.6849   9.1854   9.2902   9.6846   9.9132  10.2329  12.3230
    12.5527  12.9366  13.1690  13.5157  13.7490  14.3859  15.1233  15.3871
    15.7335  16.1053  18.5970  19.0312

     occupation numbers 
     1.0000   1.0000   1.0000   1.0000   1.0000   1.0000   1.0000   1.0000
     1.0000   1.0000   1.0000   1.0000   1.0000   1.0000   1.0000   1.0000
     1.0000   1.0000   1.0000   1.0000   1.0000   1.0000   1.0000   1.0000
     1.0000   1.0000   1.0000   1.0000   1.0000   1.0000   1.0000   1.0000
     1.0000   1.0000   1.0000   1.0000   1.0000   1.0000   1.0000   1.0000
     1.0000   1.0000   1.0000   1.0000   1.0000   1.0000   1.0000   1.0000
     1.0000   1.0000   1.0000   1.0000   1.0000   1.0000   1.0000   0.0000
     0.0000   0.0000   0.0000   0.0000   0.0000   0.0000   0.0000   0.0000
     0.0000   0.0000   0.0000   0.0000

          k = 0.4176-0.0852-0.1000 ( 19137 PWs)   bands (ev):

  -101.4363 -91.5256 -64.6716 -64.6132 -59.4052 -58.7257 -58.6305 -52.0089
   -51.9605 -51.9275 -28.9822 -28.9218 -28.8960 -28.8313 -28.7989 -28.7335
    -7.8723  -7.5854  -7.3734  -7.0468  -6.4833  -6.2751  -6.2153  -6.1167
     2.6451   2.8211   3.2653   3.3119   3.9821   4.1717   4.4221   4.5917
     4.9120   5.1579   5.4209   5.5343   5.7801   5.8417   6.0981   6.1948
     6.5101   6.7997   7.4011   7.5742   7.6347   7.8356   8.0551   8.3781
     8.4575   8.7549   9.0012   9.3776   9.7174   9.8430  10.2875  12.3997
    12.5810  12.8917  13.1266  13.3961  13.7505  14.4712  15.1478  15.3854
    15.8186  16.4046  18.4395  18.7293

     occupation numbers 
     1.0000   1.0000   1.0000   1.0000   1.0000   1.0000   1.0000   1.0000
     1.0000   1.0000   1.0000   1.0000   1.0000   1.0000   1.0000   1.0000
     1.0000   1.0000   1.0000   1.0000   1.0000   1.0000   1.0000   1.0000
     1.0000   1.0000   1.0000   1.0000   1.0000   1.0000   1.0000   1.0000
     1.0000   1.0000   1.0000   1.0000   1.0000   1.0000   1.0000   1.0000
     1.0000   1.0000   1.0000   1.0000   1.0000   1.0000   1.0000   1.0000
     1.0000   1.0000   1.0000   1.0000   1.0000   1.0000   1.0000   0.0000
     0.0000   0.0000   0.0000   0.0000   0.0000   0.0000   0.0000   0.0000
     0.0000   0.0000   0.0000   0.0000

     the Fermi energy is    11.2949 ev

!    total energy              =   -1281.06828653 Ry
     estimated scf accuracy    <          9.6E-10 Ry
     smearing contrib. (-TS)   =       0.00000007 Ry
     internal energy E=F+TS    =   -1281.06828660 Ry

     The total energy is F=E-TS. E is the sum of the following terms:
     one-electron contribution =    -651.12059042 Ry
     hartree contribution      =     383.35692433 Ry
     xc contribution           =    -219.83536790 Ry
     ewald contribution        =    -793.62184210 Ry
     Hubbard energy            =       0.15258948 Ry

     total magnetization       =     3.00 Bohr mag/cell
     absolute magnetization    =     3.05 Bohr mag/cell

     convergence has been achieved in  22 iterations

     Writing all to output data dir ./tmp/NiCuWO4_FM/NiCuWO4_FM.save/ :
     XML data file, charge density, pseudopotentials, collected wavefunctions
 
     init_run     :     11.30s CPU     11.55s WALL (       1 calls)
     electrons    :    643.75s CPU    651.15s WALL (       1 calls)

     Called by init_run:
     wfcinit      :     11.23s CPU     11.46s WALL (       1 calls)
     wfcinit:atom :      0.07s CPU      0.08s WALL (     216 calls)
     wfcinit:wfcr :      8.52s CPU      8.71s WALL (     216 calls)
     potinit      :      0.02s CPU      0.02s WALL (       1 calls)
     hinit0       :      0.02s CPU      0.02s WALL (       1 calls)

     Called by electrons:
     c_bands      :    574.93s CPU    581.26s WALL (      22 calls)
     sum_band     :     68.04s CPU     69.02s WALL (      22 calls)
     v_of_rho     :      0.34s CPU      0.35s WALL (      23 calls)
     v_h          :      0.01s CPU      0.01s WALL (      23 calls)
     v_xc         :      0.33s CPU      0.34s WALL (      23 calls)
     mix_rho      :      0.42s CPU      0.44s WALL (      22 calls)

     Called by c_bands:
     init_us_2    :     13.47s CPU     13.70s WALL (    9936 calls)
     cegterg      :    526.88s CPU    532.41s WALL (    4752 calls)

     Called by sum_band:
     sum_band:wei :      0.48s CPU      0.48s WALL (      22 calls)
     sum_band:loo :     63.89s CPU     64.59s WALL (      22 calls)
     sum_band:buf :      1.38s CPU      1.39s WALL (    4752 calls)
     sum_band:ini :      5.27s CPU      5.31s WALL (    4752 calls)

     Called by *egterg:
     cdiaghg      :     61.71s CPU     62.05s WALL (   19143 calls)
     cegterg:over :     28.24s CPU     28.44s WALL (   14391 calls)
     cegterg:upda :     17.41s CPU     17.65s WALL (   14391 calls)
     cegterg:last :     33.46s CPU     33.68s WALL (    9481 calls)
     h_psi        :    374.89s CPU    379.26s WALL (   19359 calls)
     g_psi        :      1.26s CPU      1.27s WALL (   14391 calls)

     Called by h_psi:
     h_psi:calbec :     43.43s CPU     43.75s WALL (   19359 calls)
     vloc_psi     :    269.54s CPU    273.04s WALL (   19359 calls)
     add_vuspsi   :     41.31s CPU     41.62s WALL (   19359 calls)
     vhpsi        :     18.36s CPU     18.48s WALL (   19359 calls)

     General routines
     calbec       :     62.27s CPU     62.86s WALL (   43686 calls)
     fft          :      0.14s CPU      0.15s WALL (     435 calls)
     ffts         :      0.22s CPU      0.23s WALL (     727 calls)
     fftw         :    302.36s CPU    306.13s WALL ( 1914544 calls)
 
     Parallel routines

     Hubbard U routines
     new_ns       :      3.64s CPU      3.91s WALL (      22 calls)
     vhpsi        :     18.36s CPU     18.48s WALL (   19359 calls)
 
     PWSCF        :  10m56.51s CPU  11m12.57s WALL

 
   This run was terminated on:   6:33:39  19Nov2025            

=------------------------------------------------------------------------------=
   JOB DONE.
=------------------------------------------------------------------------------=
