
     Program PWSCF v.7.4.1 starts on 19Nov2025 at  6:37:27 
        Git branch: heads/qe-7.4.1
        Last git commit: 500de340b820e1cb8c05f2d8bb8fced102f377c1-dirty
        Last git commit date: Fri Feb 7 14:59:05 2025 +0000
        Last git commit subject: Merge branch 'qe-7.4.1' into 'master'

     This program is part of the open-source Quantum ESPRESSO suite
     for quantum simulation of materials; please cite
         "P. Giannozzi et al., J. Phys.:Condens. Matter 21 395502 (2009);
         "P. Giannozzi et al., J. Phys.:Condens. Matter 29 465901 (2017);
         "P. Giannozzi et al., J. Chem. Phys. 152 154105 (2020);
          URL http://www.quantum-espresso.org", 
     in publications or presentations arising from this work. More details at
     http://www.quantum-espresso.org/quote

     Parallel version (MPI), running on    16 processors

     MPI processes distributed on     1 nodes
     650966 MiB available memory on the printing compute node when the environment starts
 
     Reading input from inputs_AFM/NiCuWO4_AFM.in

     Current dimensions of program PWSCF are:
     Max number of different atomic species (ntypx) = 10
     Max number of k-points (npk) =  40000
     Max angular momentum in pseudopotentials (lmaxx) =  4
 
     R & G space division:  proc/nbgrp/npool/nimage =      16
     Subspace diagonalization in iterative solution of the eigenvalue problem:
     a serial algorithm will be used

 
     Parallelization info
     --------------------
     sticks:   dense  smooth     PW     G-vecs:    dense   smooth      PW
     Min         203     203     55                 9565     9565    1365
     Max         204     204     56                 9567     9567    1367
     Sum        3251    3251    883               153055   153055   21853
 
     Using Slab Decomposition
 


     bravais-lattice index     =            0
     lattice parameter (alat)  =       8.6642  a.u.
     unit-cell volume          =     861.6254 (a.u.)^3
     number of atoms/cell      =           12
     number of atomic types    =            4
     number of electrons       =       113.00
     number of Kohn-Sham states=           68
     kinetic-energy cutoff     =     120.0000  Ry
     charge density cutoff     =     480.0000  Ry
     scf convergence threshold =      1.0E-09
     mixing beta               =       0.7000
     number of iterations used =            8  local-TF  mixing
     Exchange-correlation= PBESOL
                           (   1   4  10   8   0   0   0)
     Hubbard projectors: ortho-atomic
     Hubbard parameters of DFT+U (Dudarev formulation) in eV:
     U(Ni-3d) =  8.5500
     U(Cu-3d) = 10.0000

     Internal variables: lda_plus_u = T, lda_plus_u_kind = 0

     celldm(1)=   8.664233  celldm(2)=   0.000000  celldm(3)=   0.000000
     celldm(4)=   0.000000  celldm(5)=   0.000000  celldm(6)=   0.000000

     crystal axes: (cart. coord. in units of alat)
               a(1) = (   0.999953  -0.000227   0.009680 )  
               a(2) = (   0.031501   1.132169   0.000377 )  
               a(3) = (   0.086593   0.027696   1.170971 )  

     reciprocal axes: (cart. coord. in units 2 pi/alat)
               b(1) = (  1.000751 -0.027820 -0.073348 )  
               b(2) = (  0.000403  0.883256 -0.020920 )  
               b(3) = ( -0.008273 -0.000054  0.854605 )  


     PseudoPot. # 1 for Ni read from file:
     pseudo_dojo_pbesol/Ni.upf
     MD5 check sum: 3ec56ad6bf78c9cc1bbec815420e1c7d
     Pseudo is Norm-conserving + core correction, Zval = 18.0
     Generated using ONCVPSP code by D. R. Hamann
     Using radial grid of 1356 points,  6 beta functions with: 
                l(1) =   0
                l(2) =   0
                l(3) =   1
                l(4) =   1
                l(5) =   2
                l(6) =   2

     PseudoPot. # 2 for Cu read from file:
     pseudo_dojo_pbesol/Cu.upf
     MD5 check sum: 5521c194e1bf37484dee827cb890bc02
     Pseudo is Norm-conserving + core correction, Zval = 19.0
     Generated using ONCVPSP code by D. R. Hamann
     Using radial grid of 1492 points,  6 beta functions with: 
                l(1) =   0
                l(2) =   0
                l(3) =   1
                l(4) =   1
                l(5) =   2
                l(6) =   2

     PseudoPot. # 3 for W  read from file:
     pseudo_dojo_pbesol/W.upf
     MD5 check sum: b5ac44390825a9169ccdba7091ec60d0
     Pseudo is Norm-conserving + core correction, Zval = 14.0
     Generated using ONCVPSP code by D. R. Hamann
     Using radial grid of 1396 points,  8 beta functions with: 
                l(1) =   0
                l(2) =   0
                l(3) =   1
                l(4) =   1
                l(5) =   2
                l(6) =   2
                l(7) =   3
                l(8) =   3

     PseudoPot. # 4 for O  read from file:
     pseudo_dojo_pbesol/O.upf
     MD5 check sum: f226cbcd508cec715ff87a8f75a1dfba
     Pseudo is Norm-conserving + core correction, Zval =  6.0
     Generated using ONCVPSP code by D. R. Hamann
     Using radial grid of  936 points,  5 beta functions with: 
                l(1) =   0
                l(2) =   0
                l(3) =   1
                l(4) =   1
                l(5) =   2

     atomic species   valence    mass     pseudopotential
     Ni               18.00    58.69340     Ni( 1.00)
     Cu               19.00    63.54600     Cu( 1.00)
     W                14.00   183.84000     W ( 1.00)
     O                 6.00    15.99940     O ( 1.00)

     Starting magnetic structure 
     atomic species   magnetization
     Ni              0.200
     Cu             -0.200
     W               0.000
     O               0.000

     No symmetry found


                                    s                        frac. trans.

      isym =  1     identity                                     

 cryst.   s( 1) = (     1          0          0      )
                  (     0          1          0      )
                  (     0          0          1      )

 cart.    s( 1) = (  1.0000000  0.0000000 -0.0000000 )
                  (  0.0000000  1.0000000 -0.0000000 )
                  (  0.0000000  0.0000000  1.0000000 )


   Cartesian axes

     site n.     atom                  positions (alat units)
         1        Ni     tau(   1) = (   0.5420502   0.7409122   0.2978268  )
         2        Cu     tau(   2) = (   0.5759973   0.4187256   0.8832006  )
         3        W      tau(   3) = (   0.0910159   0.9577753   0.8785401  )
         4        W      tau(   4) = (   0.0270786   0.2020892   0.2928077  )
         5        O      tau(   5) = (   0.8325833   0.7264481   1.0729623  )
         6        O      tau(   6) = (   0.3362915   0.7176899   0.6936409  )
         7        O      tau(   7) = (   0.2854643   0.4331898   0.1080652  )
         8        O      tau(   8) = (   0.7817560   0.4419479   0.4873866  )
         9        O      tau(   9) = (   0.8545669   0.1543708   1.0897123  )
        10        O      tau(  10) = (   0.2824521   0.1448448   0.6765098  )
        11        O      tau(  11) = (   0.8355955   1.0147931   0.5045176  )
        12        O      tau(  12) = (   0.2634806   1.0052670   0.0913151  )

   Crystallographic axes

     site n.     atom                  positions (cryst. coord.)
         1        Ni     tau(   1) = (  0.5000000  0.6484029  0.2500000  )
         2        Cu     tau(   2) = (  0.5000000  0.3515971  0.7500000  )
         3        W      tau(   3) = (  0.0000000  0.8276182  0.7500000  )
         4        W      tau(   4) = (  0.0000000  0.1723818  0.2500000  )
         5        O      tau(   5) = (  0.7342992  0.6195283  0.9100319  )
         6        O      tau(   6) = (  0.2657008  0.6195283  0.5899681  )
         7        O      tau(   7) = (  0.2657008  0.3804717  0.0899681  )
         8        O      tau(   8) = (  0.7342992  0.3804717  0.4100319  )
         9        O      tau(   9) = (  0.7709859  0.1138960  0.9241958  )
        10        O      tau(  10) = (  0.2290141  0.1138960  0.5758042  )
        11        O      tau(  11) = (  0.7709859  0.8861040  0.4241958  )
        12        O      tau(  12) = (  0.2290141  0.8861040  0.0758042  )

     number of k points=   108  Marzari-Vanderbilt smearing, width (Ry)=  0.0200
                       cart. coord. in units 2pi/alat
        k(    1) = (   0.0827401   0.0712818   0.0633614), wk =   0.0092593
        k(    2) = (   0.0813613   0.0712728   0.2057956), wk =   0.0092593
        k(    3) = (   0.0799825   0.0712638   0.3482298), wk =   0.0092593
        k(    4) = (   0.0868764   0.0713089  -0.3639411), wk =   0.0092593
        k(    5) = (   0.0854976   0.0712999  -0.2215069), wk =   0.0092593
        k(    6) = (   0.0841188   0.0712909  -0.0790728), wk =   0.0092593
        k(    7) = (   0.0828072   0.2184912   0.0598747), wk =   0.0092593
        k(    8) = (   0.0814284   0.2184822   0.2023089), wk =   0.0092593
        k(    9) = (   0.0800496   0.2184731   0.3447430), wk =   0.0092593
        k(   10) = (   0.0869435   0.2185183  -0.3674278), wk =   0.0092593
        k(   11) = (   0.0855647   0.2185092  -0.2249936), wk =   0.0092593
        k(   12) = (   0.0841859   0.2185002  -0.0825595), wk =   0.0092593
        k(   13) = (   0.0828743   0.3657005   0.0563880), wk =   0.0092593
        k(   14) = (   0.0814955   0.3656915   0.1988221), wk =   0.0092593
        k(   15) = (   0.0801167   0.3656825   0.3412563), wk =   0.0092593
        k(   16) = (   0.0870106   0.3657276  -0.3709145), wk =   0.0092593
        k(   17) = (   0.0856318   0.3657186  -0.2284804), wk =   0.0092593
        k(   18) = (   0.0842531   0.3657096  -0.0860462), wk =   0.0092593
        k(   19) = (   0.0825387  -0.3703462   0.0738216), wk =   0.0092593
        k(   20) = (   0.0811599  -0.3703553   0.2162558), wk =   0.0092593
        k(   21) = (   0.0797812  -0.3703643   0.3586899), wk =   0.0092593
        k(   22) = (   0.0866750  -0.3703192  -0.3534809), wk =   0.0092593
        k(   23) = (   0.0852962  -0.3703282  -0.2110468), wk =   0.0092593
        k(   24) = (   0.0839175  -0.3703372  -0.0686126), wk =   0.0092593
        k(   25) = (   0.0826058  -0.2231369   0.0703349), wk =   0.0092593
        k(   26) = (   0.0812270  -0.2231459   0.2127690), wk =   0.0092593
        k(   27) = (   0.0798483  -0.2231549   0.3552032), wk =   0.0092593
        k(   28) = (   0.0867421  -0.2231098  -0.3569676), wk =   0.0092593
        k(   29) = (   0.0853634  -0.2231188  -0.2145335), wk =   0.0092593
        k(   30) = (   0.0839846  -0.2231279  -0.0720993), wk =   0.0092593
        k(   31) = (   0.0826729  -0.0759275   0.0668481), wk =   0.0092593
        k(   32) = (   0.0812942  -0.0759366   0.2092823), wk =   0.0092593
        k(   33) = (   0.0799154  -0.0759456   0.3517165), wk =   0.0092593
        k(   34) = (   0.0868093  -0.0759004  -0.3604544), wk =   0.0092593
        k(   35) = (   0.0854305  -0.0759095  -0.2180202), wk =   0.0092593
        k(   36) = (   0.0840517  -0.0759185  -0.0755860), wk =   0.0092593
        k(   37) = (   0.2495318   0.0666452   0.0511368), wk =   0.0092593
        k(   38) = (   0.2481530   0.0666361   0.1935710), wk =   0.0092593
        k(   39) = (   0.2467743   0.0666271   0.3360052), wk =   0.0092593
        k(   40) = (   0.2536681   0.0666722  -0.3761657), wk =   0.0092593
        k(   41) = (   0.2522894   0.0666632  -0.2337315), wk =   0.0092593
        k(   42) = (   0.2509106   0.0666542  -0.0912974), wk =   0.0092593
        k(   43) = (   0.2495989   0.2138545   0.0476501), wk =   0.0092593
        k(   44) = (   0.2482202   0.2138455   0.1900843), wk =   0.0092593
        k(   45) = (   0.2468414   0.2138365   0.3325184), wk =   0.0092593
        k(   46) = (   0.2537353   0.2138816  -0.3796524), wk =   0.0092593
        k(   47) = (   0.2523565   0.2138726  -0.2372183), wk =   0.0092593
        k(   48) = (   0.2509777   0.2138635  -0.0947841), wk =   0.0092593
        k(   49) = (   0.2496661   0.3610639   0.0441634), wk =   0.0092593
        k(   50) = (   0.2482873   0.3610548   0.1865975), wk =   0.0092593
        k(   51) = (   0.2469085   0.3610458   0.3290317), wk =   0.0092593
        k(   52) = (   0.2538024   0.3610910  -0.3831391), wk =   0.0092593
        k(   53) = (   0.2524236   0.3610819  -0.2407050), wk =   0.0092593
        k(   54) = (   0.2510448   0.3610729  -0.0982708), wk =   0.0092593
        k(   55) = (   0.2493305  -0.3749829   0.0615970), wk =   0.0092593
        k(   56) = (   0.2479517  -0.3749919   0.2040312), wk =   0.0092593
        k(   57) = (   0.2465729  -0.3750010   0.3464653), wk =   0.0092593
        k(   58) = (   0.2534668  -0.3749558  -0.3657055), wk =   0.0092593
        k(   59) = (   0.2520880  -0.3749649  -0.2232714), wk =   0.0092593
        k(   60) = (   0.2507092  -0.3749739  -0.0808372), wk =   0.0092593
        k(   61) = (   0.2493976  -0.2277736   0.0581103), wk =   0.0092593
        k(   62) = (   0.2480188  -0.2277826   0.2005444), wk =   0.0092593
        k(   63) = (   0.2466400  -0.2277916   0.3429786), wk =   0.0092593
        k(   64) = (   0.2535339  -0.2277465  -0.3691923), wk =   0.0092593
        k(   65) = (   0.2521551  -0.2277555  -0.2267581), wk =   0.0092593
        k(   66) = (   0.2507764  -0.2277645  -0.0843239), wk =   0.0092593
        k(   67) = (   0.2494647  -0.0805642   0.0546235), wk =   0.0092593
        k(   68) = (   0.2480859  -0.0805732   0.1970577), wk =   0.0092593
        k(   69) = (   0.2467072  -0.0805823   0.3394919), wk =   0.0092593
        k(   70) = (   0.2536010  -0.0805371  -0.3726790), wk =   0.0092593
        k(   71) = (   0.2522222  -0.0805461  -0.2302448), wk =   0.0092593
        k(   72) = (   0.2508435  -0.0805552  -0.0878106), wk =   0.0092593
        k(   73) = (   0.4163236   0.0620085   0.0389122), wk =   0.0092593
        k(   74) = (   0.4149448   0.0619995   0.1813464), wk =   0.0092593
        k(   75) = (   0.4135660   0.0619904   0.3237805), wk =   0.0092593
        k(   76) = (   0.4204599   0.0620356  -0.3883903), wk =   0.0092593
        k(   77) = (   0.4190811   0.0620265  -0.2459561), wk =   0.0092593
        k(   78) = (   0.4177024   0.0620175  -0.1035220), wk =   0.0092593
        k(   79) = (   0.4163907   0.2092179   0.0354255), wk =   0.0092593
        k(   80) = (   0.4150119   0.2092088   0.1778596), wk =   0.0092593
        k(   81) = (   0.4136332   0.2091998   0.3202938), wk =   0.0092593
        k(   82) = (   0.4205270   0.2092449  -0.3918770), wk =   0.0092593
        k(   83) = (   0.4191482   0.2092359  -0.2494429), wk =   0.0092593
        k(   84) = (   0.4177695   0.2092269  -0.1070087), wk =   0.0092593
        k(   85) = (   0.4164578   0.3564272   0.0319388), wk =   0.0092593
        k(   86) = (   0.4150790   0.3564182   0.1743729), wk =   0.0092593
        k(   87) = (   0.4137003   0.3564092   0.3168071), wk =   0.0092593
        k(   88) = (   0.4205941   0.3564543  -0.3953638), wk =   0.0092593
        k(   89) = (   0.4192154   0.3564453  -0.2529296), wk =   0.0092593
        k(   90) = (   0.4178366   0.3564362  -0.1104954), wk =   0.0092593
        k(   91) = (   0.4161222  -0.3796196   0.0493724), wk =   0.0092593
        k(   92) = (   0.4147435  -0.3796286   0.1918065), wk =   0.0092593
        k(   93) = (   0.4133647  -0.3796376   0.3342407), wk =   0.0092593
        k(   94) = (   0.4202586  -0.3795925  -0.3779301), wk =   0.0092593
        k(   95) = (   0.4188798  -0.3796015  -0.2354960), wk =   0.0092593
        k(   96) = (   0.4175010  -0.3796106  -0.0930618), wk =   0.0092593
        k(   97) = (   0.4161893  -0.2324102   0.0458856), wk =   0.0092593
        k(   98) = (   0.4148106  -0.2324193   0.1883198), wk =   0.0092593
        k(   99) = (   0.4134318  -0.2324283   0.3307540), wk =   0.0092593
        k(  100) = (   0.4203257  -0.2323831  -0.3814169), wk =   0.0092593
        k(  101) = (   0.4189469  -0.2323922  -0.2389827), wk =   0.0092593
        k(  102) = (   0.4175681  -0.2324012  -0.0965485), wk =   0.0092593
        k(  103) = (   0.4162565  -0.0852009   0.0423989), wk =   0.0092593
        k(  104) = (   0.4148777  -0.0852099   0.1848331), wk =   0.0092593
        k(  105) = (   0.4134989  -0.0852189   0.3272673), wk =   0.0092593
        k(  106) = (   0.4203928  -0.0851738  -0.3849036), wk =   0.0092593
        k(  107) = (   0.4190140  -0.0851828  -0.2424694), wk =   0.0092593
        k(  108) = (   0.4176352  -0.0851918  -0.1000352), wk =   0.0092593

                       cryst. coord.
        k(    1) = (   0.0833333   0.0833333   0.0833333), wk =   0.0092593
        k(    2) = (   0.0833333   0.0833333   0.2500000), wk =   0.0092593
        k(    3) = (   0.0833333   0.0833333   0.4166667), wk =   0.0092593
        k(    4) = (   0.0833333   0.0833333  -0.4166667), wk =   0.0092593
        k(    5) = (   0.0833333   0.0833333  -0.2500000), wk =   0.0092593
        k(    6) = (   0.0833333   0.0833333  -0.0833333), wk =   0.0092593
        k(    7) = (   0.0833333   0.2500000   0.0833333), wk =   0.0092593
        k(    8) = (   0.0833333   0.2500000   0.2500000), wk =   0.0092593
        k(    9) = (   0.0833333   0.2500000   0.4166667), wk =   0.0092593
        k(   10) = (   0.0833333   0.2500000  -0.4166667), wk =   0.0092593
        k(   11) = (   0.0833333   0.2500000  -0.2500000), wk =   0.0092593
        k(   12) = (   0.0833333   0.2500000  -0.0833333), wk =   0.0092593
        k(   13) = (   0.0833333   0.4166667   0.0833333), wk =   0.0092593
        k(   14) = (   0.0833333   0.4166667   0.2500000), wk =   0.0092593
        k(   15) = (   0.0833333   0.4166667   0.4166667), wk =   0.0092593
        k(   16) = (   0.0833333   0.4166667  -0.4166667), wk =   0.0092593
        k(   17) = (   0.0833333   0.4166667  -0.2500000), wk =   0.0092593
        k(   18) = (   0.0833333   0.4166667  -0.0833333), wk =   0.0092593
        k(   19) = (   0.0833333  -0.4166667   0.0833333), wk =   0.0092593
        k(   20) = (   0.0833333  -0.4166667   0.2500000), wk =   0.0092593
        k(   21) = (   0.0833333  -0.4166667   0.4166667), wk =   0.0092593
        k(   22) = (   0.0833333  -0.4166667  -0.4166667), wk =   0.0092593
        k(   23) = (   0.0833333  -0.4166667  -0.2500000), wk =   0.0092593
        k(   24) = (   0.0833333  -0.4166667  -0.0833333), wk =   0.0092593
        k(   25) = (   0.0833333  -0.2500000   0.0833333), wk =   0.0092593
        k(   26) = (   0.0833333  -0.2500000   0.2500000), wk =   0.0092593
        k(   27) = (   0.0833333  -0.2500000   0.4166667), wk =   0.0092593
        k(   28) = (   0.0833333  -0.2500000  -0.4166667), wk =   0.0092593
        k(   29) = (   0.0833333  -0.2500000  -0.2500000), wk =   0.0092593
        k(   30) = (   0.0833333  -0.2500000  -0.0833333), wk =   0.0092593
        k(   31) = (   0.0833333  -0.0833333   0.0833333), wk =   0.0092593
        k(   32) = (   0.0833333  -0.0833333   0.2500000), wk =   0.0092593
        k(   33) = (   0.0833333  -0.0833333   0.4166667), wk =   0.0092593
        k(   34) = (   0.0833333  -0.0833333  -0.4166667), wk =   0.0092593
        k(   35) = (   0.0833333  -0.0833333  -0.2500000), wk =   0.0092593
        k(   36) = (   0.0833333  -0.0833333  -0.0833333), wk =   0.0092593
        k(   37) = (   0.2500000   0.0833333   0.0833333), wk =   0.0092593
        k(   38) = (   0.2500000   0.0833333   0.2500000), wk =   0.0092593
        k(   39) = (   0.2500000   0.0833333   0.4166667), wk =   0.0092593
        k(   40) = (   0.2500000   0.0833333  -0.4166667), wk =   0.0092593
        k(   41) = (   0.2500000   0.0833333  -0.2500000), wk =   0.0092593
        k(   42) = (   0.2500000   0.0833333  -0.0833333), wk =   0.0092593
        k(   43) = (   0.2500000   0.2500000   0.0833333), wk =   0.0092593
        k(   44) = (   0.2500000   0.2500000   0.2500000), wk =   0.0092593
        k(   45) = (   0.2500000   0.2500000   0.4166667), wk =   0.0092593
        k(   46) = (   0.2500000   0.2500000  -0.4166667), wk =   0.0092593
        k(   47) = (   0.2500000   0.2500000  -0.2500000), wk =   0.0092593
        k(   48) = (   0.2500000   0.2500000  -0.0833333), wk =   0.0092593
        k(   49) = (   0.2500000   0.4166667   0.0833333), wk =   0.0092593
        k(   50) = (   0.2500000   0.4166667   0.2500000), wk =   0.0092593
        k(   51) = (   0.2500000   0.4166667   0.4166667), wk =   0.0092593
        k(   52) = (   0.2500000   0.4166667  -0.4166667), wk =   0.0092593
        k(   53) = (   0.2500000   0.4166667  -0.2500000), wk =   0.0092593
        k(   54) = (   0.2500000   0.4166667  -0.0833333), wk =   0.0092593
        k(   55) = (   0.2500000  -0.4166667   0.0833333), wk =   0.0092593
        k(   56) = (   0.2500000  -0.4166667   0.2500000), wk =   0.0092593
        k(   57) = (   0.2500000  -0.4166667   0.4166667), wk =   0.0092593
        k(   58) = (   0.2500000  -0.4166667  -0.4166667), wk =   0.0092593
        k(   59) = (   0.2500000  -0.4166667  -0.2500000), wk =   0.0092593
        k(   60) = (   0.2500000  -0.4166667  -0.0833333), wk =   0.0092593
        k(   61) = (   0.2500000  -0.2500000   0.0833333), wk =   0.0092593
        k(   62) = (   0.2500000  -0.2500000   0.2500000), wk =   0.0092593
        k(   63) = (   0.2500000  -0.2500000   0.4166667), wk =   0.0092593
        k(   64) = (   0.2500000  -0.2500000  -0.4166667), wk =   0.0092593
        k(   65) = (   0.2500000  -0.2500000  -0.2500000), wk =   0.0092593
        k(   66) = (   0.2500000  -0.2500000  -0.0833333), wk =   0.0092593
        k(   67) = (   0.2500000  -0.0833333   0.0833333), wk =   0.0092593
        k(   68) = (   0.2500000  -0.0833333   0.2500000), wk =   0.0092593
        k(   69) = (   0.2500000  -0.0833333   0.4166667), wk =   0.0092593
        k(   70) = (   0.2500000  -0.0833333  -0.4166667), wk =   0.0092593
        k(   71) = (   0.2500000  -0.0833333  -0.2500000), wk =   0.0092593
        k(   72) = (   0.2500000  -0.0833333  -0.0833333), wk =   0.0092593
        k(   73) = (   0.4166667   0.0833333   0.0833333), wk =   0.0092593
        k(   74) = (   0.4166667   0.0833333   0.2500000), wk =   0.0092593
        k(   75) = (   0.4166667   0.0833333   0.4166667), wk =   0.0092593
        k(   76) = (   0.4166667   0.0833333  -0.4166667), wk =   0.0092593
        k(   77) = (   0.4166667   0.0833333  -0.2500000), wk =   0.0092593
        k(   78) = (   0.4166667   0.0833333  -0.0833333), wk =   0.0092593
        k(   79) = (   0.4166667   0.2500000   0.0833333), wk =   0.0092593
        k(   80) = (   0.4166667   0.2500000   0.2500000), wk =   0.0092593
        k(   81) = (   0.4166667   0.2500000   0.4166667), wk =   0.0092593
        k(   82) = (   0.4166667   0.2500000  -0.4166667), wk =   0.0092593
        k(   83) = (   0.4166667   0.2500000  -0.2500000), wk =   0.0092593
        k(   84) = (   0.4166667   0.2500000  -0.0833333), wk =   0.0092593
        k(   85) = (   0.4166667   0.4166667   0.0833333), wk =   0.0092593
        k(   86) = (   0.4166667   0.4166667   0.2500000), wk =   0.0092593
        k(   87) = (   0.4166667   0.4166667   0.4166667), wk =   0.0092593
        k(   88) = (   0.4166667   0.4166667  -0.4166667), wk =   0.0092593
        k(   89) = (   0.4166667   0.4166667  -0.2500000), wk =   0.0092593
        k(   90) = (   0.4166667   0.4166667  -0.0833333), wk =   0.0092593
        k(   91) = (   0.4166667  -0.4166667   0.0833333), wk =   0.0092593
        k(   92) = (   0.4166667  -0.4166667   0.2500000), wk =   0.0092593
        k(   93) = (   0.4166667  -0.4166667   0.4166667), wk =   0.0092593
        k(   94) = (   0.4166667  -0.4166667  -0.4166667), wk =   0.0092593
        k(   95) = (   0.4166667  -0.4166667  -0.2500000), wk =   0.0092593
        k(   96) = (   0.4166667  -0.4166667  -0.0833333), wk =   0.0092593
        k(   97) = (   0.4166667  -0.2500000   0.0833333), wk =   0.0092593
        k(   98) = (   0.4166667  -0.2500000   0.2500000), wk =   0.0092593
        k(   99) = (   0.4166667  -0.2500000   0.4166667), wk =   0.0092593
        k(  100) = (   0.4166667  -0.2500000  -0.4166667), wk =   0.0092593
        k(  101) = (   0.4166667  -0.2500000  -0.2500000), wk =   0.0092593
        k(  102) = (   0.4166667  -0.2500000  -0.0833333), wk =   0.0092593
        k(  103) = (   0.4166667  -0.0833333   0.0833333), wk =   0.0092593
        k(  104) = (   0.4166667  -0.0833333   0.2500000), wk =   0.0092593
        k(  105) = (   0.4166667  -0.0833333   0.4166667), wk =   0.0092593
        k(  106) = (   0.4166667  -0.0833333  -0.4166667), wk =   0.0092593
        k(  107) = (   0.4166667  -0.0833333  -0.2500000), wk =   0.0092593
        k(  108) = (   0.4166667  -0.0833333  -0.0833333), wk =   0.0092593

     Dense  grid:   153055 G-vectors     FFT dimensions: (  64,  72,  72)

     Dynamical RAM for                 wfc:       1.24 MB

     Dynamical RAM for     wfc (w. buffer):     269.06 MB

     Dynamical RAM for             U proj.:       0.18 MB

     Dynamical RAM for  U proj. (w. buff.):      39.57 MB

     Dynamical RAM for           str. fact:       0.58 MB

     Dynamical RAM for           local pot:       0.00 MB

     Dynamical RAM for          nlocal pot:       3.72 MB

     Dynamical RAM for                qrad:      16.87 MB

     Dynamical RAM for          rho,v,vnew:       1.93 MB

     Dynamical RAM for               rhoin:       0.64 MB

     Dynamical RAM for            rho*nmix:       4.67 MB

     Dynamical RAM for           G-vectors:       0.62 MB

     Dynamical RAM for          h,s,v(r/c):       0.85 MB

     Dynamical RAM for          <psi|beta>:       0.21 MB

     Dynamical RAM for                 psi:       2.48 MB

     Dynamical RAM for                hpsi:       2.48 MB

     Dynamical RAM for      wfcinit/wfcrot:       2.59 MB

     Estimated static dynamical RAM per process >     334.79 MB

     Estimated max dynamical RAM per process >     345.48 MB

     Estimated total dynamical RAM >       5.40 GB
     Generating pointlists ...
     new r_m :   0.1764 (alat units)  1.5279 (a.u.) for type    1
     new r_m :   0.1764 (alat units)  1.5279 (a.u.) for type    2
     new r_m :   0.1608 (alat units)  1.3933 (a.u.) for type    3
     new r_m :   0.1608 (alat units)  1.3933 (a.u.) for type    4

     Initial potential from superposition of free atoms

     starting charge     112.9985, renormalised to     113.0000

     HUBBARD ENERGY =    0.3770  (Ry)

     STARTING HUBBARD OCCUPATIONS:

     =================== HUBBARD OCCUPATIONS ===================
     ------------------------ ATOM    1 ------------------------
     Tr[ns(  1)] (up, down, total) =   5.00000  3.00000  8.00000
     Atomic magnetic moment for atom   1 =   2.00000
     SPIN  1
     eigenvalues:
       1.000  1.000  1.000  1.000  1.000
     eigenvectors (columns):
       1.000  0.000  0.000  0.000  0.000
       0.000  1.000  0.000  0.000  0.000
       0.000  0.000  1.000  0.000  0.000
       0.000  0.000  0.000  1.000  0.000
       0.000  0.000  0.000  0.000  1.000
     occupation matrix ns (before diag.):
       1.000  0.000  0.000  0.000  0.000
       0.000  1.000  0.000  0.000  0.000
       0.000  0.000  1.000  0.000  0.000
       0.000  0.000  0.000  1.000  0.000
       0.000  0.000  0.000  0.000  1.000
     SPIN  2
     eigenvalues:
       0.600  0.600  0.600  0.600  0.600
     eigenvectors (columns):
       1.000  0.000  0.000  0.000  0.000
       0.000  1.000  0.000  0.000  0.000
       0.000  0.000  1.000  0.000  0.000
       0.000  0.000  0.000  1.000  0.000
       0.000  0.000  0.000  0.000  1.000
     occupation matrix ns (before diag.):
       0.600  0.000  0.000  0.000  0.000
       0.000  0.600  0.000  0.000  0.000
       0.000  0.000  0.600  0.000  0.000
       0.000  0.000  0.000  0.600  0.000
       0.000  0.000  0.000  0.000  0.600
     ------------------------ ATOM    2 ------------------------
     Tr[ns(  2)] (up, down, total) =   5.00000  5.00000 10.00000
     Atomic magnetic moment for atom   2 =   0.00000
     SPIN  1
     eigenvalues:
       1.000  1.000  1.000  1.000  1.000
     eigenvectors (columns):
       1.000  0.000  0.000  0.000  0.000
       0.000  1.000  0.000  0.000  0.000
       0.000  0.000  1.000  0.000  0.000
       0.000  0.000  0.000  1.000  0.000
       0.000  0.000  0.000  0.000  1.000
     occupation matrix ns (before diag.):
       1.000  0.000  0.000  0.000  0.000
       0.000  1.000  0.000  0.000  0.000
       0.000  0.000  1.000  0.000  0.000
       0.000  0.000  0.000  1.000  0.000
       0.000  0.000  0.000  0.000  1.000
     SPIN  2
     eigenvalues:
       1.000  1.000  1.000  1.000  1.000
     eigenvectors (columns):
       1.000  0.000  0.000  0.000  0.000
       0.000  1.000  0.000  0.000  0.000
       0.000  0.000  1.000  0.000  0.000
       0.000  0.000  0.000  1.000  0.000
       0.000  0.000  0.000  0.000  1.000
     occupation matrix ns (before diag.):
       1.000  0.000  0.000  0.000  0.000
       0.000  1.000  0.000  0.000  0.000
       0.000  0.000  1.000  0.000  0.000
       0.000  0.000  0.000  1.000  0.000
       0.000  0.000  0.000  0.000  1.000

     Number of occupied Hubbard levels =   18.0000

     Atomic wfc used for Hubbard projectors are orthogonalized

     Starting wfcs are   72 randomized atomic wfcs

     total cpu time spent up to now is       11.5 secs

     per-process dynamical memory:   396.5 Mb

     Self-consistent Calculation

     iteration #  1     ecut=   120.00 Ry     beta= 0.70
     Davidson diagonalization with overlap

---- Real-time Memory Report at c_bands before calling an iterative solver
           418 MiB given to the printing process from OS
           387 MiB allocation reported by mallinfo(arena+hblkhd)
        652467 MiB available memory on the node where the printing process lives
------------------
     ethr =  1.00E-02,  avg # of iterations =  2.4

     =================== HUBBARD OCCUPATIONS ===================
     ------------------------ ATOM    1 ------------------------
     Tr[ns(  1)] (up, down, total) =   4.98683  3.72131  8.70814
     Atomic magnetic moment for atom   1 =   1.26552
     SPIN  1
     eigenvalues:
       0.995  0.996  0.998  0.999  0.999
     eigenvectors (columns):
      -0.126  0.458 -0.836 -0.039 -0.273
      -0.427  0.764  0.484 -0.007 -0.003
       0.620  0.285  0.087 -0.725  0.028
      -0.056  0.123 -0.238  0.009  0.962
      -0.644 -0.332 -0.053 -0.687 -0.001
     occupation matrix ns (before diag.):
       0.998 -0.001 -0.000 -0.000  0.000
      -0.001  0.996  0.000 -0.000 -0.000
      -0.000  0.000  0.997  0.000  0.002
      -0.000 -0.000  0.000  0.999 -0.000
       0.000 -0.000  0.002 -0.000  0.997
     SPIN  2
     eigenvalues:
       0.287  0.464  0.988  0.990  0.993
     eigenvectors (columns):
      -0.273  0.516 -0.732  0.032 -0.351
      -0.399  0.691  0.591 -0.081  0.086
       0.516  0.261 -0.078 -0.809  0.071
      -0.082  0.125 -0.323  0.101  0.929
      -0.702 -0.416 -0.071 -0.573  0.031
     occupation matrix ns (before diag.):
       0.797 -0.263  0.028 -0.051 -0.022
      -0.263  0.626  0.050 -0.068 -0.046
       0.028  0.050  0.767  0.013  0.312
      -0.051 -0.068  0.013  0.979 -0.013
      -0.022 -0.046  0.312 -0.013  0.552
     ------------------------ ATOM    2 ------------------------
     Tr[ns(  2)] (up, down, total) =   3.83457  4.97205  8.80663
     Atomic magnetic moment for atom   2 =  -1.13748
     SPIN  1
     eigenvalues:
       0.324  0.545  0.986  0.988  0.991
     eigenvectors (columns):
      -0.257  0.522 -0.748  0.067 -0.313
      -0.380  0.705  0.587 -0.103  0.062
       0.528  0.249 -0.104 -0.803  0.057
      -0.076  0.121 -0.277  0.091  0.946
      -0.711 -0.393 -0.091 -0.576  0.022
     occupation matrix ns (before diag.):
       0.823 -0.227  0.032 -0.042 -0.031
      -0.227  0.672  0.056 -0.056 -0.057
       0.032  0.056  0.776  0.013  0.293
      -0.042 -0.056  0.013  0.980 -0.015
      -0.031 -0.057  0.293 -0.015  0.584
     SPIN  2
     eigenvalues:
       0.989  0.992  0.996  0.997  0.998
     eigenvectors (columns):
       0.120 -0.438  0.864 -0.027  0.217
       0.397 -0.788 -0.467 -0.012  0.047
      -0.635 -0.270 -0.068 -0.720 -0.012
       0.060 -0.130  0.171 -0.003 -0.975
       0.648  0.312  0.045 -0.693  0.008
     occupation matrix ns (before diag.):
       0.995 -0.002  0.000 -0.001  0.000
      -0.002  0.992  0.001 -0.001 -0.001
       0.000  0.001  0.993  0.000  0.004
      -0.001 -0.001  0.000  0.998 -0.000
       0.000 -0.001  0.004 -0.000  0.993

     Number of occupied Hubbard levels =   17.5148

     HUBBARD ENERGY =    0.3501  (Ry)

     total cpu time spent up to now is       42.3 secs

     total energy              =   -1280.03907243 Ry
     estimated scf accuracy    <       5.65678515 Ry

     total magnetization       =     0.09 Bohr mag/cell
     absolute magnetization    =     2.99 Bohr mag/cell

     iteration #  2     ecut=   120.00 Ry     beta= 0.70
     Davidson diagonalization with overlap

---- Real-time Memory Report at c_bands before calling an iterative solver
           426 MiB given to the printing process from OS
           394 MiB allocation reported by mallinfo(arena+hblkhd)
        647043 MiB available memory on the node where the printing process lives
------------------
     ethr =  5.01E-03,  avg # of iterations =  2.0

     =================== HUBBARD OCCUPATIONS ===================
     ------------------------ ATOM    1 ------------------------
     Tr[ns(  1)] (up, down, total) =   4.96015  3.31672  8.27687
     Atomic magnetic moment for atom   1 =   1.64343
     SPIN  1
     eigenvalues:
       0.984  0.988  0.995  0.996  0.997
     eigenvectors (columns):
      -0.139  0.481  0.776  0.026  0.382
      -0.349  0.774 -0.527 -0.003 -0.029
       0.598  0.237 -0.047 -0.762  0.065
      -0.075  0.163  0.340 -0.108 -0.917
      -0.704 -0.294  0.032 -0.639  0.092
     occupation matrix ns (before diag.):
       0.993 -0.003  0.000 -0.001 -0.000
      -0.003  0.989  0.001 -0.001 -0.001
       0.000  0.001  0.992  0.000  0.006
      -0.001 -0.001  0.000  0.996 -0.000
      -0.000 -0.001  0.006 -0.000  0.990
     SPIN  2
     eigenvalues:
       0.146  0.197  0.990  0.992  0.993
     eigenvectors (columns):
      -0.305 -0.499 -0.741  0.079 -0.321
      -0.441 -0.663  0.601  0.007  0.064
       0.499 -0.293  0.020  0.805  0.130
      -0.091 -0.122 -0.299 -0.132  0.933
      -0.674  0.459 -0.002  0.573  0.075
     occupation matrix ns (before diag.):
       0.714 -0.376  0.013 -0.072  0.008
      -0.376  0.477  0.032 -0.098 -0.009
       0.013  0.032  0.713  0.010  0.392
      -0.072 -0.098  0.010  0.974 -0.007
       0.008 -0.009  0.392 -0.007  0.439
     ------------------------ ATOM    2 ------------------------
     Tr[ns(  2)] (up, down, total) =   4.01877  4.96744  8.98621
     Atomic magnetic moment for atom   2 =  -0.94868
     SPIN  1
     eigenvalues:
       0.177  0.853  0.995  0.997  0.997
     eigenvectors (columns):
      -0.258  0.504 -0.720 -0.269  0.298
      -0.382  0.714  0.577  0.055 -0.095
       0.527  0.258  0.000 -0.612 -0.531
      -0.077  0.134 -0.386  0.590 -0.692
      -0.710 -0.390 -0.006 -0.449 -0.376
     occupation matrix ns (before diag.):
       0.905 -0.132  0.093 -0.026 -0.122
      -0.132  0.803  0.138 -0.037 -0.182
       0.093  0.138  0.760  0.028  0.321
      -0.026 -0.037  0.028  0.989 -0.037
      -0.122 -0.182  0.321 -0.037  0.561
     SPIN  2
     eigenvalues:
       0.987  0.989  0.996  0.997  0.997
     eigenvectors (columns):
      -0.147  0.499 -0.695 -0.475  0.140
      -0.322  0.771  0.535  0.108 -0.062
       0.604  0.203  0.035 -0.240 -0.731
      -0.074  0.164 -0.478  0.805 -0.302
      -0.710 -0.297 -0.020 -0.238 -0.592
     occupation matrix ns (before diag.):
       0.995 -0.003  0.000 -0.001  0.000
      -0.003  0.991  0.001 -0.001 -0.000
       0.000  0.001  0.993  0.000  0.005
      -0.001 -0.001  0.000  0.997 -0.000
       0.000 -0.000  0.005 -0.000  0.992

     Number of occupied Hubbard levels =   17.2631

     HUBBARD ENERGY =    0.2805  (Ry)

     total cpu time spent up to now is       70.1 secs

     total energy              =   -1280.99354512 Ry
     estimated scf accuracy    <       0.38896599 Ry

     total magnetization       =     0.95 Bohr mag/cell
     absolute magnetization    =     3.17 Bohr mag/cell

     iteration #  3     ecut=   120.00 Ry     beta= 0.70
     Davidson diagonalization with overlap

---- Real-time Memory Report at c_bands before calling an iterative solver
           429 MiB given to the printing process from OS
           396 MiB allocation reported by mallinfo(arena+hblkhd)
        646993 MiB available memory on the node where the printing process lives
------------------
     ethr =  3.44E-04,  avg # of iterations =  4.2

     =================== HUBBARD OCCUPATIONS ===================
     ------------------------ ATOM    1 ------------------------
     Tr[ns(  1)] (up, down, total) =   4.96417  3.23051  8.19468
     Atomic magnetic moment for atom   1 =   1.73366
     SPIN  1
     eigenvalues:
       0.986  0.989  0.995  0.997  0.997
     eigenvectors (columns):
      -0.154  0.466 -0.775 -0.020 -0.398
      -0.377  0.766  0.521 -0.004  0.028
       0.596  0.255  0.050 -0.760  0.011
      -0.082  0.167 -0.354 -0.019  0.917
      -0.688 -0.322 -0.027 -0.649 -0.027
     occupation matrix ns (before diag.):
       0.994 -0.003  0.000 -0.001 -0.000
      -0.003  0.990  0.001 -0.001 -0.001
       0.000  0.001  0.992  0.000  0.005
      -0.001 -0.001  0.000  0.996 -0.000
      -0.000 -0.001  0.005 -0.000  0.991
     SPIN  2
     eigenvalues:
       0.122  0.129  0.992  0.994  0.994
     eigenvectors (columns):
       0.457 -0.366 -0.736  0.072 -0.332
       0.639 -0.473  0.602  0.020  0.071
      -0.370 -0.443 -0.001  0.802  0.153
       0.130 -0.086 -0.310 -0.165  0.923
       0.478  0.662 -0.017  0.569  0.090
     occupation matrix ns (before diag.):
       0.695 -0.403  0.007 -0.080  0.019
      -0.403  0.443  0.024 -0.107  0.004
       0.007  0.024  0.705  0.009  0.408
      -0.080 -0.107  0.009  0.973 -0.005
       0.019  0.004  0.408 -0.005  0.415
     ------------------------ ATOM    2 ------------------------
     Tr[ns(  2)] (up, down, total) =   4.14250  4.97059  9.11308
     Atomic magnetic moment for atom   2 =  -0.82809
     SPIN  1
     eigenvalues:
       0.175  0.977  0.996  0.997  0.998
     eigenvectors (columns):
       0.258 -0.488 -0.719  0.371  0.202
       0.382 -0.723  0.567 -0.090 -0.051
      -0.527 -0.270  0.014  0.414 -0.691
       0.076 -0.146 -0.402 -0.769 -0.469
       0.710  0.381  0.010  0.303 -0.508
     occupation matrix ns (before diag.):
       0.937 -0.088  0.109 -0.018 -0.147
      -0.088  0.866  0.162 -0.026 -0.217
       0.109  0.162  0.767  0.032  0.310
      -0.018 -0.026  0.032  0.992 -0.043
      -0.147 -0.217  0.310 -0.043  0.580
     SPIN  2
     eigenvalues:
       0.989  0.990  0.996  0.997  0.997
     eigenvectors (columns):
      -0.139 -0.508 -0.645 -0.535 -0.144
      -0.302 -0.776  0.524  0.165  0.074
       0.615 -0.193  0.034 -0.216  0.733
      -0.067 -0.160 -0.555  0.768  0.267
      -0.712  0.278 -0.014 -0.225  0.605
     occupation matrix ns (before diag.):
       0.995 -0.003 -0.000 -0.001  0.000
      -0.003  0.992  0.000 -0.001 -0.000
      -0.000  0.000  0.994  0.000  0.004
      -0.001 -0.001  0.000  0.997  0.000
       0.000 -0.000  0.004  0.000  0.993

     Number of occupied Hubbard levels =   17.3078

     HUBBARD ENERGY =    0.1499  (Ry)

     total cpu time spent up to now is       97.7 secs

     total energy              =   -1281.05742235 Ry
     estimated scf accuracy    <       0.09856923 Ry

     total magnetization       =     1.00 Bohr mag/cell
     absolute magnetization    =     2.96 Bohr mag/cell

     iteration #  4     ecut=   120.00 Ry     beta= 0.70
     Davidson diagonalization with overlap

---- Real-time Memory Report at c_bands before calling an iterative solver
           429 MiB given to the printing process from OS
           396 MiB allocation reported by mallinfo(arena+hblkhd)
        648783 MiB available memory on the node where the printing process lives
------------------
     c_bands:  1 eigenvalues not converged
     c_bands:  1 eigenvalues not converged
     ethr =  8.72E-05,  avg # of iterations =  8.4

     =================== HUBBARD OCCUPATIONS ===================
     ------------------------ ATOM    1 ------------------------
     Tr[ns(  1)] (up, down, total) =   4.96918  3.19729  8.16647
     Atomic magnetic moment for atom   1 =   1.77188
     SPIN  1
     eigenvalues:
       0.988  0.991  0.996  0.997  0.997
     eigenvectors (columns):
      -0.160  0.469  0.763 -0.069  0.409
      -0.384  0.759 -0.524 -0.008 -0.045
       0.593  0.261 -0.034 -0.750 -0.129
      -0.084  0.164  0.375  0.128 -0.900
      -0.684 -0.330  0.040 -0.645 -0.072
     occupation matrix ns (before diag.):
       0.995 -0.002  0.000 -0.001 -0.000
      -0.002  0.992  0.001 -0.001 -0.001
       0.000  0.001  0.993  0.000  0.004
      -0.001 -0.001  0.000  0.997 -0.000
      -0.000 -0.001  0.004 -0.000  0.992
     SPIN  2
     eigenvalues:
       0.098  0.115  0.994  0.995  0.996
     eigenvectors (columns):
      -0.545  0.216 -0.723 -0.086 -0.355
      -0.726  0.320  0.601 -0.029  0.092
      -0.200 -0.539 -0.029 -0.785  0.229
      -0.145  0.072 -0.338  0.260  0.890
       0.338  0.746 -0.037 -0.555  0.143
     occupation matrix ns (before diag.):
       0.687 -0.415  0.004 -0.085  0.024
      -0.415  0.431  0.021 -0.114  0.011
       0.004  0.021  0.704  0.008  0.414
      -0.085 -0.114  0.008  0.972 -0.003
       0.024  0.011  0.414 -0.003  0.403
     ------------------------ ATOM    2 ------------------------
     Tr[ns(  2)] (up, down, total) =   4.15588  4.97045  9.12633
     Atomic magnetic moment for atom   2 =  -0.81457
     SPIN  1
     eigenvalues:
       0.176  0.988  0.996  0.997  0.998
     eigenvectors (columns):
       0.258 -0.479 -0.712 -0.410 -0.171
       0.383 -0.728  0.558  0.109  0.034
      -0.528 -0.280  0.018 -0.339  0.726
       0.075 -0.149 -0.426  0.803  0.383
       0.709  0.374  0.016 -0.248  0.544
     occupation matrix ns (before diag.):
       0.940 -0.084  0.110 -0.017 -0.148
      -0.084  0.872  0.164 -0.024 -0.220
       0.110  0.164  0.768  0.032  0.308
      -0.017 -0.024  0.032  0.992 -0.043
      -0.148 -0.220  0.308 -0.043  0.584
     SPIN  2
     eigenvalues:
       0.990  0.990  0.996  0.997  0.998
     eigenvectors (columns):
       0.387 -0.362 -0.645  0.524  0.166
       0.550 -0.622  0.528 -0.160 -0.084
       0.454  0.458  0.024  0.240 -0.725
       0.111 -0.135 -0.552 -0.764 -0.286
      -0.574 -0.504 -0.018  0.243 -0.598
     occupation matrix ns (before diag.):
       0.995 -0.003 -0.000 -0.001  0.000
      -0.003  0.992  0.000 -0.001  0.000
      -0.000  0.000  0.994  0.000  0.004
      -0.001 -0.001  0.000  0.997  0.000
       0.000  0.000  0.004  0.000  0.993

     Number of occupied Hubbard levels =   17.2928

     HUBBARD ENERGY =    0.1365  (Ry)

     total cpu time spent up to now is      131.4 secs

     total energy              =   -1281.06712026 Ry
     estimated scf accuracy    <       0.00736300 Ry

     total magnetization       =     1.00 Bohr mag/cell
     absolute magnetization    =     2.93 Bohr mag/cell

     iteration #  5     ecut=   120.00 Ry     beta= 0.70
     Davidson diagonalization with overlap

---- Real-time Memory Report at c_bands before calling an iterative solver
           430 MiB given to the printing process from OS
           397 MiB allocation reported by mallinfo(arena+hblkhd)
        646921 MiB available memory on the node where the printing process lives
------------------
     c_bands:  1 eigenvalues not converged
     ethr =  6.52E-06,  avg # of iterations =  7.9

     =================== HUBBARD OCCUPATIONS ===================
     ------------------------ ATOM    1 ------------------------
     Tr[ns(  1)] (up, down, total) =   4.97081  3.19846  8.16927
     Atomic magnetic moment for atom   1 =   1.77235
     SPIN  1
     eigenvalues:
       0.988  0.991  0.996  0.997  0.998
     eigenvectors (columns):
      -0.160  0.471  0.765 -0.071  0.402
      -0.386  0.759 -0.523 -0.008 -0.047
       0.594  0.262 -0.034 -0.748 -0.137
      -0.082  0.159  0.371  0.138 -0.901
      -0.683 -0.330  0.041 -0.646 -0.078
     occupation matrix ns (before diag.):
       0.995 -0.002  0.000 -0.001 -0.000
      -0.002  0.992  0.001 -0.001 -0.001
       0.000  0.001  0.994  0.000  0.004
      -0.001 -0.001  0.000  0.997 -0.000
      -0.000 -0.001  0.004 -0.000  0.992
     SPIN  2
     eigenvalues:
       0.096  0.117  0.994  0.995  0.996
     eigenvectors (columns):
       0.541 -0.225 -0.721 -0.086 -0.360
       0.720 -0.331  0.601 -0.034  0.094
       0.209  0.534 -0.037 -0.782  0.242
       0.147 -0.076 -0.340  0.276  0.884
      -0.351 -0.741 -0.042 -0.551  0.150
     occupation matrix ns (before diag.):
       0.687 -0.415  0.004 -0.087  0.025
      -0.415  0.432  0.021 -0.117  0.012
       0.004  0.021  0.706  0.008  0.413
      -0.087 -0.117  0.008  0.971 -0.003
       0.025  0.012  0.413 -0.003  0.402
     ------------------------ ATOM    2 ------------------------
     Tr[ns(  2)] (up, down, total) =   4.16561  4.97088  9.13649
     Atomic magnetic moment for atom   2 =  -0.80528
     SPIN  1
     eigenvalues:
       0.185  0.989  0.996  0.997  0.998
     eigenvectors (columns):
       0.258  0.479  0.699 -0.428 -0.181
       0.384  0.728 -0.553  0.124  0.044
      -0.529  0.281 -0.014 -0.335  0.727
       0.074  0.148  0.453  0.793  0.371
       0.708 -0.374 -0.013 -0.245  0.546
     occupation matrix ns (before diag.):
       0.941 -0.083  0.109 -0.016 -0.147
      -0.083  0.873  0.163 -0.024 -0.218
       0.109  0.163  0.770  0.032  0.305
      -0.016 -0.024  0.032  0.993 -0.042
      -0.147 -0.218  0.305 -0.042  0.589
     SPIN  2
     eigenvalues:
       0.990  0.990  0.996  0.997  0.998
     eigenvectors (columns):
       0.382 -0.370 -0.637  0.526  0.188
       0.541 -0.629  0.525 -0.165 -0.096
       0.462  0.452  0.016  0.258 -0.718
       0.108 -0.136 -0.564 -0.750 -0.298
      -0.580 -0.495 -0.022  0.258 -0.592
     occupation matrix ns (before diag.):
       0.995 -0.003 -0.000 -0.001  0.000
      -0.003  0.992  0.000 -0.001  0.000
      -0.000  0.000  0.994  0.000  0.004
      -0.001 -0.001  0.000  0.997  0.000
       0.000  0.000  0.004  0.000  0.993

     Number of occupied Hubbard levels =   17.3058

     HUBBARD ENERGY =    0.1498  (Ry)

     total cpu time spent up to now is      170.1 secs

     total energy              =   -1281.06805311 Ry
     estimated scf accuracy    <       0.00199974 Ry

     total magnetization       =     1.00 Bohr mag/cell
     absolute magnetization    =     2.92 Bohr mag/cell

     iteration #  6     ecut=   120.00 Ry     beta= 0.70
     Davidson diagonalization with overlap

---- Real-time Memory Report at c_bands before calling an iterative solver
           430 MiB given to the printing process from OS
           398 MiB allocation reported by mallinfo(arena+hblkhd)
        643551 MiB available memory on the node where the printing process lives
------------------
     ethr =  1.77E-06,  avg # of iterations =  3.0

     =================== HUBBARD OCCUPATIONS ===================
     ------------------------ ATOM    1 ------------------------
     Tr[ns(  1)] (up, down, total) =   4.97172  3.20629  8.17801
     Atomic magnetic moment for atom   1 =   1.76544
     SPIN  1
     eigenvalues:
       0.989  0.992  0.996  0.997  0.998
     eigenvectors (columns):
      -0.159  0.471  0.770 -0.059  0.395
      -0.386  0.760 -0.521 -0.007 -0.047
       0.595  0.262 -0.038 -0.751 -0.110
      -0.080  0.154  0.364  0.105 -0.909
      -0.682 -0.328  0.039 -0.650 -0.055
     occupation matrix ns (before diag.):
       0.995 -0.002  0.000 -0.001 -0.000
      -0.002  0.992  0.001 -0.001 -0.001
       0.000  0.001  0.994  0.000  0.004
      -0.001 -0.001  0.000  0.997 -0.000
      -0.000 -0.001  0.004 -0.000  0.993
     SPIN  2
     eigenvalues:
       0.099  0.121  0.994  0.996  0.996
     eigenvectors (columns):
       0.543 -0.222 -0.720 -0.085 -0.361
       0.721 -0.327  0.603 -0.037  0.090
       0.205  0.533 -0.040 -0.783  0.243
       0.152 -0.077 -0.338  0.278  0.883
      -0.348 -0.744 -0.044 -0.549  0.150
     occupation matrix ns (before diag.):
       0.688 -0.413  0.004 -0.089  0.025
      -0.413  0.436  0.020 -0.120  0.012
       0.004  0.020  0.710  0.008  0.411
      -0.089 -0.120  0.008  0.970 -0.003
       0.025  0.012  0.411 -0.003  0.403
     ------------------------ ATOM    2 ------------------------
     Tr[ns(  2)] (up, down, total) =   4.18032  4.97132  9.15164
     Atomic magnetic moment for atom   2 =  -0.79099
     SPIN  1
     eigenvalues:
       0.200  0.989  0.996  0.997  0.998
     eigenvectors (columns):
       0.257 -0.479  0.695  0.431  0.188
       0.385 -0.727 -0.551 -0.129 -0.050
      -0.530 -0.281 -0.012  0.339 -0.725
       0.073 -0.146  0.462 -0.788 -0.373
       0.707  0.375 -0.010  0.249 -0.546
     occupation matrix ns (before diag.):
       0.942 -0.082  0.108 -0.016 -0.143
      -0.082  0.874  0.161 -0.023 -0.215
       0.108  0.161  0.773  0.031  0.300
      -0.016 -0.023  0.031  0.993 -0.041
      -0.143 -0.215  0.300 -0.041  0.598
     SPIN  2
     eigenvalues:
       0.990  0.990  0.996  0.997  0.998
     eigenvectors (columns):
      -0.313  0.430 -0.633 -0.528 -0.191
      -0.425  0.712  0.523  0.169  0.098
      -0.533 -0.366  0.014 -0.258  0.718
      -0.082  0.151 -0.569  0.747  0.296
       0.656  0.388 -0.023 -0.259  0.592
     occupation matrix ns (before diag.):
       0.995 -0.003 -0.000 -0.001  0.000
      -0.003  0.992  0.000 -0.001  0.000
      -0.000  0.000  0.994  0.000  0.004
      -0.001 -0.001  0.000  0.997  0.000
       0.000  0.000  0.004  0.000  0.993

     Number of occupied Hubbard levels =   17.3297

     HUBBARD ENERGY =    0.1519  (Ry)

     total cpu time spent up to now is      197.7 secs

     total energy              =   -1281.06853834 Ry
     estimated scf accuracy    <       0.00016524 Ry

     total magnetization       =     1.00 Bohr mag/cell
     absolute magnetization    =     2.91 Bohr mag/cell

     iteration #  7     ecut=   120.00 Ry     beta= 0.70
     Davidson diagonalization with overlap

---- Real-time Memory Report at c_bands before calling an iterative solver
           431 MiB given to the printing process from OS
           398 MiB allocation reported by mallinfo(arena+hblkhd)
        648667 MiB available memory on the node where the printing process lives
------------------
     ethr =  1.46E-07,  avg # of iterations =  2.0

     =================== HUBBARD OCCUPATIONS ===================
     ------------------------ ATOM    1 ------------------------
     Tr[ns(  1)] (up, down, total) =   4.97174  3.20826  8.18000
     Atomic magnetic moment for atom   1 =   1.76349
     SPIN  1
     eigenvalues:
       0.989  0.992  0.996  0.997  0.998
     eigenvectors (columns):
      -0.159  0.471  0.772 -0.054  0.394
      -0.386  0.761 -0.520 -0.006 -0.047
       0.595  0.262 -0.039 -0.752 -0.101
      -0.079  0.152  0.362  0.093 -0.911
      -0.682 -0.328  0.038 -0.650 -0.047
     occupation matrix ns (before diag.):
       0.995 -0.002  0.000 -0.001 -0.000
      -0.002  0.992  0.001 -0.001 -0.001
       0.000  0.001  0.994  0.000  0.004
      -0.001 -0.001  0.000  0.997 -0.000
      -0.000 -0.001  0.004 -0.000  0.993
     SPIN  2
     eigenvalues:
       0.100  0.122  0.994  0.996  0.996
     eigenvectors (columns):
       0.543 -0.221 -0.719 -0.086 -0.362
       0.721 -0.325  0.604 -0.038  0.088
       0.203  0.533 -0.040 -0.783  0.244
       0.154 -0.078 -0.337  0.279  0.882
      -0.347 -0.745 -0.044 -0.547  0.151
     occupation matrix ns (before diag.):
       0.688 -0.413  0.004 -0.090  0.025
      -0.413  0.437  0.021 -0.121  0.012
       0.004  0.021  0.711  0.008  0.410
      -0.090 -0.121  0.008  0.969 -0.003
       0.025  0.012  0.410 -0.003  0.403
     ------------------------ ATOM    2 ------------------------
     Tr[ns(  2)] (up, down, total) =   4.18538  4.97127  9.15665
     Atomic magnetic moment for atom   2 =  -0.78588
     SPIN  1
     eigenvalues:
       0.205  0.989  0.996  0.997  0.998
     eigenvectors (columns):
       0.257 -0.479  0.695  0.432  0.187
       0.386 -0.727 -0.551 -0.129 -0.050
      -0.531 -0.281 -0.013  0.339 -0.724
       0.072 -0.146  0.462 -0.788 -0.374
       0.706  0.375 -0.009  0.249 -0.547
     occupation matrix ns (before diag.):
       0.943 -0.081  0.107 -0.016 -0.142
      -0.081  0.875  0.160 -0.023 -0.213
       0.107  0.160  0.774  0.030  0.298
      -0.016 -0.023  0.030  0.993 -0.040
      -0.142 -0.213  0.298 -0.040  0.602
     SPIN  2
     eigenvalues:
       0.990  0.990  0.996  0.997  0.998
     eigenvectors (columns):
      -0.318  0.426 -0.635 -0.528 -0.188
      -0.434  0.707  0.524  0.168  0.097
      -0.528 -0.372  0.015 -0.256  0.719
      -0.084  0.150 -0.567  0.750  0.295
       0.651  0.396 -0.023 -0.257  0.593
     occupation matrix ns (before diag.):
       0.995 -0.003 -0.000 -0.001  0.000
      -0.003  0.992  0.000 -0.001  0.000
      -0.000  0.000  0.994  0.000  0.004
      -0.001 -0.001  0.000  0.997  0.000
       0.000  0.000  0.004  0.000  0.993

     Number of occupied Hubbard levels =   17.3367

     HUBBARD ENERGY =    0.1544  (Ry)

     total cpu time spent up to now is      224.6 secs

     total energy              =   -1281.06857459 Ry
     estimated scf accuracy    <       0.00008337 Ry

     total magnetization       =     1.00 Bohr mag/cell
     absolute magnetization    =     2.90 Bohr mag/cell

     iteration #  8     ecut=   120.00 Ry     beta= 0.70
     Davidson diagonalization with overlap

---- Real-time Memory Report at c_bands before calling an iterative solver
           432 MiB given to the printing process from OS
           399 MiB allocation reported by mallinfo(arena+hblkhd)
        644219 MiB available memory on the node where the printing process lives
------------------
     ethr =  7.38E-08,  avg # of iterations =  2.0

     =================== HUBBARD OCCUPATIONS ===================
     ------------------------ ATOM    1 ------------------------
     Tr[ns(  1)] (up, down, total) =   4.97168  3.20900  8.18068
     Atomic magnetic moment for atom   1 =   1.76268
     SPIN  1
     eigenvalues:
       0.989  0.992  0.996  0.997  0.998
     eigenvectors (columns):
      -0.158  0.470  0.773 -0.052  0.392
      -0.386  0.762 -0.519 -0.006 -0.047
       0.595  0.262 -0.040 -0.752 -0.094
      -0.078  0.150  0.361  0.086 -0.913
      -0.682 -0.328  0.037 -0.651 -0.042
     occupation matrix ns (before diag.):
       0.995 -0.002  0.000 -0.001 -0.000
      -0.002  0.992  0.001 -0.001 -0.001
       0.000  0.001  0.994  0.000  0.004
      -0.001 -0.001  0.000  0.997 -0.000
      -0.000 -0.001  0.004 -0.000  0.993
     SPIN  2
     eigenvalues:
       0.101  0.122  0.994  0.996  0.996
     eigenvectors (columns):
      -0.544  0.219 -0.719 -0.087 -0.363
      -0.721  0.323  0.605 -0.038  0.087
      -0.201 -0.533 -0.039 -0.784  0.245
      -0.156  0.078 -0.337  0.279  0.882
       0.345  0.747 -0.043 -0.546  0.151
     occupation matrix ns (before diag.):
       0.688 -0.412  0.004 -0.092  0.025
      -0.412  0.438  0.021 -0.123  0.012
       0.004  0.021  0.712  0.009  0.409
      -0.092 -0.123  0.009  0.969 -0.003
       0.025  0.012  0.409 -0.003  0.402
     ------------------------ ATOM    2 ------------------------
     Tr[ns(  2)] (up, down, total) =   4.18792  4.97120  9.15912
     Atomic magnetic moment for atom   2 =  -0.78328
     SPIN  1
     eigenvalues:
       0.208  0.989  0.996  0.997  0.998
     eigenvectors (columns):
       0.257 -0.479  0.697  0.430  0.184
       0.387 -0.727 -0.550 -0.128 -0.049
      -0.532 -0.282 -0.016  0.339 -0.723
       0.071 -0.146  0.459 -0.789 -0.375
       0.705  0.376 -0.010  0.248 -0.548
     occupation matrix ns (before diag.):
       0.943 -0.081  0.107 -0.015 -0.141
      -0.081  0.874  0.161 -0.022 -0.213
       0.107  0.161  0.774  0.029  0.297
      -0.015 -0.022  0.029  0.993 -0.039
      -0.141 -0.213  0.297 -0.039  0.604
     SPIN  2
     eigenvalues:
       0.990  0.990  0.996  0.997  0.998
     eigenvectors (columns):
      -0.332  0.415 -0.639 -0.525 -0.184
      -0.456  0.693  0.525  0.164  0.094
      -0.516 -0.389  0.016 -0.253  0.720
      -0.089  0.148 -0.562  0.754  0.294
       0.639  0.417 -0.023 -0.255  0.594
     occupation matrix ns (before diag.):
       0.995 -0.003 -0.000 -0.001  0.000
      -0.003  0.992  0.000 -0.001  0.000
      -0.000  0.000  0.994  0.000  0.004
      -0.001 -0.001  0.000  0.997  0.000
       0.000  0.000  0.004  0.000  0.993

     Number of occupied Hubbard levels =   17.3398

     HUBBARD ENERGY =    0.1541  (Ry)

     total cpu time spent up to now is      252.1 secs

     total energy              =   -1281.06859758 Ry
     estimated scf accuracy    <       0.00001833 Ry

     total magnetization       =     1.00 Bohr mag/cell
     absolute magnetization    =     2.90 Bohr mag/cell

     iteration #  9     ecut=   120.00 Ry     beta= 0.70
     Davidson diagonalization with overlap

---- Real-time Memory Report at c_bands before calling an iterative solver
           432 MiB given to the printing process from OS
           400 MiB allocation reported by mallinfo(arena+hblkhd)
        643397 MiB available memory on the node where the printing process lives
------------------
     ethr =  1.62E-08,  avg # of iterations =  2.0

     =================== HUBBARD OCCUPATIONS ===================
     ------------------------ ATOM    1 ------------------------
     Tr[ns(  1)] (up, down, total) =   4.97170  3.20881  8.18052
     Atomic magnetic moment for atom   1 =   1.76289
     SPIN  1
     eigenvalues:
       0.989  0.992  0.996  0.998  0.998
     eigenvectors (columns):
      -0.158  0.470  0.774 -0.052  0.391
      -0.386  0.762 -0.518 -0.006 -0.047
       0.596  0.263 -0.040 -0.752 -0.095
      -0.078  0.149  0.361  0.087 -0.913
      -0.682 -0.328  0.037 -0.651 -0.043
     occupation matrix ns (before diag.):
       0.995 -0.002  0.000 -0.001 -0.000
      -0.002  0.992  0.001 -0.001 -0.001
       0.000  0.001  0.994  0.000  0.004
      -0.001 -0.001  0.000  0.997 -0.000
      -0.000 -0.001  0.004 -0.000  0.993
     SPIN  2
     eigenvalues:
       0.100  0.122  0.994  0.996  0.996
     eigenvectors (columns):
      -0.544  0.219 -0.718 -0.087 -0.363
      -0.721  0.323  0.606 -0.039  0.086
      -0.200 -0.532 -0.039 -0.784  0.246
      -0.158  0.079 -0.336  0.280  0.882
       0.345  0.747 -0.043 -0.545  0.151
     occupation matrix ns (before diag.):
       0.688 -0.412  0.004 -0.092  0.025
      -0.412  0.439  0.021 -0.124  0.012
       0.004  0.021  0.713  0.009  0.409
      -0.092 -0.124  0.009  0.968 -0.003
       0.025  0.012  0.409 -0.003  0.401
     ------------------------ ATOM    2 ------------------------
     Tr[ns(  2)] (up, down, total) =   4.18811  4.97118  9.15929
     Atomic magnetic moment for atom   2 =  -0.78307
     SPIN  1
     eigenvalues:
       0.208  0.989  0.996  0.997  0.998
     eigenvectors (columns):
       0.257 -0.479  0.698  0.430  0.183
       0.387 -0.727 -0.550 -0.127 -0.049
      -0.532 -0.282 -0.017  0.339 -0.723
       0.070 -0.146  0.459 -0.789 -0.375
       0.704  0.376 -0.010  0.248 -0.549
     occupation matrix ns (before diag.):
       0.943 -0.081  0.107 -0.015 -0.141
      -0.081  0.874  0.161 -0.022 -0.213
       0.107  0.161  0.773  0.029  0.297
      -0.015 -0.022  0.029  0.993 -0.038
      -0.141 -0.213  0.297 -0.038  0.605
     SPIN  2
     eigenvalues:
       0.990  0.990  0.996  0.997  0.998
     eigenvectors (columns):
       0.339 -0.409 -0.640  0.524  0.183
       0.468 -0.685  0.525 -0.163 -0.094
       0.509  0.398  0.016  0.253 -0.720
       0.092 -0.146 -0.560 -0.755 -0.294
      -0.631 -0.428 -0.023  0.254 -0.595
     occupation matrix ns (before diag.):
       0.995 -0.003 -0.000 -0.001  0.000
      -0.003  0.992  0.000 -0.001  0.000
      -0.000  0.000  0.994  0.000  0.004
      -0.001 -0.001  0.000  0.997  0.000
       0.000  0.000  0.004  0.000  0.993

     Number of occupied Hubbard levels =   17.3398

     HUBBARD ENERGY =    0.1537  (Ry)

     total cpu time spent up to now is      278.2 secs

     total energy              =   -1281.06860265 Ry
     estimated scf accuracy    <       0.00000673 Ry

     total magnetization       =     1.00 Bohr mag/cell
     absolute magnetization    =     2.90 Bohr mag/cell

     iteration # 10     ecut=   120.00 Ry     beta= 0.70
     Davidson diagonalization with overlap

---- Real-time Memory Report at c_bands before calling an iterative solver
           433 MiB given to the printing process from OS
           400 MiB allocation reported by mallinfo(arena+hblkhd)
        645590 MiB available memory on the node where the printing process lives
------------------
     ethr =  5.95E-09,  avg # of iterations =  2.2

     =================== HUBBARD OCCUPATIONS ===================
     ------------------------ ATOM    1 ------------------------
     Tr[ns(  1)] (up, down, total) =   4.97174  3.20881  8.18055
     Atomic magnetic moment for atom   1 =   1.76293
     SPIN  1
     eigenvalues:
       0.989  0.992  0.996  0.998  0.998
     eigenvectors (columns):
      -0.158  0.469  0.775 -0.053  0.390
      -0.386  0.762 -0.517 -0.006 -0.048
       0.596  0.263 -0.040 -0.751 -0.098
      -0.077  0.148  0.360  0.091 -0.913
      -0.682 -0.328  0.037 -0.652 -0.045
     occupation matrix ns (before diag.):
       0.995 -0.002  0.000 -0.001 -0.000
      -0.002  0.992  0.001 -0.001 -0.001
       0.000  0.001  0.994  0.000  0.004
      -0.001 -0.001  0.000  0.997 -0.000
      -0.000 -0.001  0.004 -0.000  0.993
     SPIN  2
     eigenvalues:
       0.100  0.122  0.994  0.996  0.996
     eigenvectors (columns):
      -0.544  0.219 -0.718 -0.088 -0.364
      -0.720  0.323  0.607 -0.039  0.084
      -0.200 -0.531 -0.039 -0.785  0.247
      -0.159  0.080 -0.336  0.280  0.881
       0.345  0.748 -0.043 -0.545  0.151
     occupation matrix ns (before diag.):
       0.688 -0.412  0.004 -0.093  0.025
      -0.412  0.439  0.021 -0.125  0.012
       0.004  0.021  0.714  0.009  0.409
      -0.093 -0.125  0.009  0.968 -0.003
       0.025  0.012  0.409 -0.003  0.400
     ------------------------ ATOM    2 ------------------------
     Tr[ns(  2)] (up, down, total) =   4.18775  4.97116  9.15891
     Atomic magnetic moment for atom   2 =  -0.78341
     SPIN  1
     eigenvalues:
       0.208  0.989  0.996  0.997  0.998
     eigenvectors (columns):
       0.256 -0.479  0.698  0.430  0.181
       0.388 -0.727 -0.550 -0.128 -0.049
      -0.533 -0.282 -0.018  0.338 -0.722
       0.069 -0.146  0.458 -0.790 -0.374
       0.703  0.376 -0.010  0.247 -0.550
     occupation matrix ns (before diag.):
       0.943 -0.081  0.107 -0.015 -0.141
      -0.081  0.873  0.162 -0.022 -0.213
       0.107  0.162  0.772  0.029  0.297
      -0.015 -0.022  0.029  0.993 -0.038
      -0.141 -0.213  0.297 -0.038  0.606
     SPIN  2
     eigenvalues:
       0.990  0.990  0.996  0.997  0.998
     eigenvectors (columns):
       0.343 -0.406 -0.641  0.523  0.183
       0.474 -0.681  0.526 -0.163 -0.094
       0.506  0.403  0.016  0.252 -0.720
       0.093 -0.146 -0.559 -0.756 -0.294
      -0.627 -0.433 -0.023  0.254 -0.595
     occupation matrix ns (before diag.):
       0.995 -0.003 -0.000 -0.001  0.000
      -0.003  0.992  0.000 -0.001  0.000
      -0.000  0.000  0.994  0.000  0.004
      -0.001 -0.001  0.000  0.997  0.000
       0.000  0.000  0.004  0.000  0.993

     Number of occupied Hubbard levels =   17.3395

     HUBBARD ENERGY =    0.1534  (Ry)

     total cpu time spent up to now is      305.8 secs

     total energy              =   -1281.06860890 Ry
     estimated scf accuracy    <       0.00000243 Ry

     total magnetization       =     1.00 Bohr mag/cell
     absolute magnetization    =     2.90 Bohr mag/cell

     iteration # 11     ecut=   120.00 Ry     beta= 0.70
     Davidson diagonalization with overlap

---- Real-time Memory Report at c_bands before calling an iterative solver
           434 MiB given to the printing process from OS
           401 MiB allocation reported by mallinfo(arena+hblkhd)
        647584 MiB available memory on the node where the printing process lives
------------------
     ethr =  2.15E-09,  avg # of iterations =  2.3

     =================== HUBBARD OCCUPATIONS ===================
     ------------------------ ATOM    1 ------------------------
     Tr[ns(  1)] (up, down, total) =   4.97176  3.20888  8.18064
     Atomic magnetic moment for atom   1 =   1.76289
     SPIN  1
     eigenvalues:
       0.989  0.992  0.996  0.998  0.998
     eigenvectors (columns):
      -0.158  0.469  0.775 -0.054  0.389
      -0.387  0.763 -0.516 -0.005 -0.048
       0.596  0.263 -0.040 -0.751 -0.101
      -0.077  0.147  0.360  0.094 -0.913
      -0.681 -0.328  0.038 -0.652 -0.048
     occupation matrix ns (before diag.):
       0.995 -0.002  0.000 -0.001 -0.000
      -0.002  0.992  0.001 -0.001 -0.001
       0.000  0.001  0.994  0.000  0.004
      -0.001 -0.001  0.000  0.997 -0.000
      -0.000 -0.001  0.004 -0.000  0.993
     SPIN  2
     eigenvalues:
       0.100  0.122  0.994  0.996  0.996
     eigenvectors (columns):
      -0.544  0.219 -0.718 -0.089 -0.364
      -0.720  0.323  0.607 -0.039  0.083
      -0.199 -0.531 -0.039 -0.785  0.247
      -0.161  0.080 -0.335  0.281  0.881
       0.346  0.748 -0.043 -0.544  0.152
     occupation matrix ns (before diag.):
       0.688 -0.412  0.004 -0.094  0.025
      -0.412  0.440  0.021 -0.126  0.012
       0.004  0.021  0.714  0.009  0.408
      -0.094 -0.126  0.009  0.967 -0.003
       0.025  0.012  0.408 -0.003  0.400
     ------------------------ ATOM    2 ------------------------
     Tr[ns(  2)] (up, down, total) =   4.18715  4.97116  9.15831
     Atomic magnetic moment for atom   2 =  -0.78401
     SPIN  1
     eigenvalues:
       0.207  0.989  0.996  0.997  0.998
     eigenvectors (columns):
       0.256 -0.478  0.698  0.431  0.180
       0.389 -0.727 -0.549 -0.128 -0.049
      -0.534 -0.282 -0.019  0.337 -0.722
       0.068 -0.146  0.459 -0.790 -0.373
       0.702  0.377 -0.009  0.246 -0.552
     occupation matrix ns (before diag.):
       0.943 -0.081  0.107 -0.015 -0.141
      -0.081  0.873  0.162 -0.021 -0.214
       0.107  0.162  0.772  0.028  0.297
      -0.015 -0.021  0.028  0.993 -0.037
      -0.141 -0.214  0.297 -0.037  0.606
     SPIN  2
     eigenvalues:
       0.990  0.990  0.996  0.997  0.998
     eigenvectors (columns):
       0.342 -0.407 -0.640  0.524  0.183
       0.473 -0.681  0.526 -0.163 -0.094
       0.506  0.402  0.016  0.253 -0.720
       0.093 -0.146 -0.559 -0.756 -0.294
      -0.628 -0.433 -0.023  0.254 -0.594
     occupation matrix ns (before diag.):
       0.995 -0.003 -0.000 -0.001  0.000
      -0.003  0.992  0.000 -0.001  0.000
      -0.000  0.000  0.994  0.000  0.004
      -0.001 -0.001  0.000  0.997  0.000
       0.000  0.000  0.004  0.000  0.993

     Number of occupied Hubbard levels =   17.3390

     HUBBARD ENERGY =    0.1534  (Ry)

     total cpu time spent up to now is      333.1 secs

     total energy              =   -1281.06861285 Ry
     estimated scf accuracy    <       0.00000139 Ry

     total magnetization       =     1.00 Bohr mag/cell
     absolute magnetization    =     2.90 Bohr mag/cell

     iteration # 12     ecut=   120.00 Ry     beta= 0.70
     Davidson diagonalization with overlap

---- Real-time Memory Report at c_bands before calling an iterative solver
           434 MiB given to the printing process from OS
           401 MiB allocation reported by mallinfo(arena+hblkhd)
        637171 MiB available memory on the node where the printing process lives
------------------
     ethr =  1.23E-09,  avg # of iterations =  2.0

     =================== HUBBARD OCCUPATIONS ===================
     ------------------------ ATOM    1 ------------------------
     Tr[ns(  1)] (up, down, total) =   4.97176  3.20895  8.18071
     Atomic magnetic moment for atom   1 =   1.76280
     SPIN  1
     eigenvalues:
       0.989  0.992  0.996  0.998  0.998
     eigenvectors (columns):
      -0.158  0.469  0.776 -0.055  0.388
      -0.387  0.763 -0.516 -0.005 -0.048
       0.596  0.263 -0.040 -0.750 -0.102
      -0.077  0.147  0.359  0.095 -0.914
      -0.681 -0.327  0.037 -0.652 -0.048
     occupation matrix ns (before diag.):
       0.995 -0.002  0.000 -0.001 -0.000
      -0.002  0.992  0.001 -0.001 -0.001
       0.000  0.001  0.994  0.000  0.004
      -0.001 -0.001  0.000  0.997 -0.000
      -0.000 -0.001  0.004 -0.000  0.993
     SPIN  2
     eigenvalues:
       0.100  0.123  0.994  0.996  0.996
     eigenvectors (columns):
      -0.544  0.219 -0.718 -0.089 -0.364
      -0.720  0.322  0.608 -0.039  0.082
      -0.199 -0.531 -0.039 -0.785  0.247
      -0.161  0.081 -0.335  0.281  0.881
       0.346  0.748 -0.043 -0.544  0.152
     occupation matrix ns (before diag.):
       0.688 -0.412  0.004 -0.095  0.025
      -0.412  0.440  0.021 -0.126  0.012
       0.004  0.021  0.714  0.009  0.408
      -0.095 -0.126  0.009  0.967 -0.003
       0.025  0.012  0.408 -0.003  0.400
     ------------------------ ATOM    2 ------------------------
     Tr[ns(  2)] (up, down, total) =   4.18701  4.97117  9.15818
     Atomic magnetic moment for atom   2 =  -0.78416
     SPIN  1
     eigenvalues:
       0.207  0.989  0.996  0.997  0.998
     eigenvectors (columns):
       0.256 -0.478  0.698  0.432  0.179
       0.390 -0.726 -0.549 -0.129 -0.049
      -0.534 -0.283 -0.020  0.336 -0.722
       0.067 -0.146  0.459 -0.790 -0.373
       0.702  0.377 -0.009  0.245 -0.553
     occupation matrix ns (before diag.):
       0.943 -0.082  0.107 -0.014 -0.141
      -0.082  0.872  0.163 -0.021 -0.214
       0.107  0.163  0.771  0.028  0.297
      -0.014 -0.021  0.028  0.993 -0.037
      -0.141 -0.214  0.297 -0.037  0.607
     SPIN  2
     eigenvalues:
       0.990  0.990  0.996  0.997  0.998
     eigenvectors (columns):
       0.340 -0.409 -0.640  0.524  0.183
       0.470 -0.684  0.525 -0.163 -0.094
       0.508  0.399  0.016  0.253 -0.720
       0.092 -0.146 -0.560 -0.755 -0.294
      -0.630 -0.429 -0.023  0.254 -0.594
     occupation matrix ns (before diag.):
       0.995 -0.003 -0.000 -0.001  0.000
      -0.003  0.992  0.000 -0.001  0.000
      -0.000  0.000  0.994  0.000  0.004
      -0.001 -0.001  0.000  0.997  0.000
       0.000  0.000  0.004  0.000  0.993

     Number of occupied Hubbard levels =   17.3389

     HUBBARD ENERGY =    0.1534  (Ry)

     total cpu time spent up to now is      359.9 secs

     total energy              =   -1281.06861263 Ry
     estimated scf accuracy    <       0.00000066 Ry

     total magnetization       =     1.00 Bohr mag/cell
     absolute magnetization    =     2.90 Bohr mag/cell

     iteration # 13     ecut=   120.00 Ry     beta= 0.70
     Davidson diagonalization with overlap

---- Real-time Memory Report at c_bands before calling an iterative solver
           434 MiB given to the printing process from OS
           401 MiB allocation reported by mallinfo(arena+hblkhd)
        635900 MiB available memory on the node where the printing process lives
------------------
     ethr =  5.87E-10,  avg # of iterations =  2.4

     =================== HUBBARD OCCUPATIONS ===================
     ------------------------ ATOM    1 ------------------------
     Tr[ns(  1)] (up, down, total) =   4.97175  3.20889  8.18064
     Atomic magnetic moment for atom   1 =   1.76285
     SPIN  1
     eigenvalues:
       0.989  0.992  0.996  0.998  0.998
     eigenvectors (columns):
      -0.158  0.469  0.776 -0.055  0.387
      -0.387  0.763 -0.515 -0.005 -0.048
       0.596  0.264 -0.040 -0.750 -0.102
      -0.077  0.146  0.359  0.095 -0.914
      -0.681 -0.327  0.037 -0.652 -0.049
     occupation matrix ns (before diag.):
       0.995 -0.002  0.000 -0.001 -0.000
      -0.002  0.992  0.001 -0.001 -0.001
       0.000  0.001  0.994  0.000  0.004
      -0.001 -0.001  0.000  0.997 -0.000
      -0.000 -0.001  0.004 -0.000  0.993
     SPIN  2
     eigenvalues:
       0.100  0.123  0.994  0.996  0.996
     eigenvectors (columns):
      -0.544  0.219 -0.717 -0.090 -0.365
      -0.720  0.322  0.608 -0.040  0.081
      -0.199 -0.530 -0.038 -0.785  0.247
      -0.162  0.081 -0.335  0.281  0.881
       0.346  0.749 -0.043 -0.543  0.152
     occupation matrix ns (before diag.):
       0.688 -0.412  0.004 -0.095  0.025
      -0.412  0.441  0.021 -0.127  0.012
       0.004  0.021  0.715  0.009  0.408
      -0.095 -0.127  0.009  0.967 -0.002
       0.025  0.012  0.408 -0.002  0.399
     ------------------------ ATOM    2 ------------------------
     Tr[ns(  2)] (up, down, total) =   4.18709  4.97117  9.15826
     Atomic magnetic moment for atom   2 =  -0.78409
     SPIN  1
     eigenvalues:
       0.207  0.989  0.996  0.997  0.998
     eigenvectors (columns):
       0.256 -0.478  0.698  0.432  0.178
       0.391 -0.726 -0.548 -0.129 -0.049
      -0.535 -0.283 -0.021  0.335 -0.722
       0.066 -0.146  0.460 -0.790 -0.372
       0.701  0.378 -0.008  0.244 -0.554
     occupation matrix ns (before diag.):
       0.943 -0.082  0.107 -0.014 -0.140
      -0.082  0.872  0.164 -0.021 -0.214
       0.107  0.164  0.771  0.028  0.297
      -0.014 -0.021  0.028  0.994 -0.036
      -0.140 -0.214  0.297 -0.036  0.608
     SPIN  2
     eigenvalues:
       0.990  0.990  0.996  0.997  0.998
     eigenvectors (columns):
       0.338 -0.410 -0.640  0.524  0.184
       0.467 -0.686  0.525 -0.164 -0.094
       0.510  0.397  0.015  0.253 -0.720
       0.091 -0.147 -0.560 -0.755 -0.294
      -0.632 -0.427 -0.023  0.254 -0.594
     occupation matrix ns (before diag.):
       0.995 -0.003 -0.000 -0.001  0.000
      -0.003  0.992  0.000 -0.001  0.000
      -0.000  0.000  0.994  0.000  0.004
      -0.001 -0.001  0.000  0.997  0.000
       0.000  0.000  0.004  0.000  0.993

     Number of occupied Hubbard levels =   17.3389

     HUBBARD ENERGY =    0.1534  (Ry)

     total cpu time spent up to now is      388.7 secs

     total energy              =   -1281.06861576 Ry
     estimated scf accuracy    <       0.00000024 Ry

     total magnetization       =     1.00 Bohr mag/cell
     absolute magnetization    =     2.90 Bohr mag/cell

     iteration # 14     ecut=   120.00 Ry     beta= 0.70
     Davidson diagonalization with overlap

---- Real-time Memory Report at c_bands before calling an iterative solver
           434 MiB given to the printing process from OS
           401 MiB allocation reported by mallinfo(arena+hblkhd)
        638754 MiB available memory on the node where the printing process lives
------------------
     ethr =  2.12E-10,  avg # of iterations =  2.7

     =================== HUBBARD OCCUPATIONS ===================
     ------------------------ ATOM    1 ------------------------
     Tr[ns(  1)] (up, down, total) =   4.97175  3.20883  8.18057
     Atomic magnetic moment for atom   1 =   1.76292
     SPIN  1
     eigenvalues:
       0.989  0.992  0.996  0.998  0.998
     eigenvectors (columns):
      -0.157  0.468  0.777 -0.055  0.387
      -0.387  0.763 -0.515 -0.005 -0.049
       0.597  0.264 -0.040 -0.750 -0.102
      -0.076  0.146  0.358  0.095 -0.914
      -0.681 -0.327  0.037 -0.652 -0.049
     occupation matrix ns (before diag.):
       0.995 -0.002  0.000 -0.001 -0.000
      -0.002  0.992  0.001 -0.001 -0.001
       0.000  0.001  0.994  0.000  0.004
      -0.001 -0.001  0.000  0.997 -0.000
      -0.000 -0.001  0.004 -0.000  0.993
     SPIN  2
     eigenvalues:
       0.100  0.122  0.994  0.996  0.996
     eigenvectors (columns):
      -0.545  0.219 -0.717 -0.090 -0.365
      -0.720  0.322  0.608 -0.040  0.081
      -0.198 -0.530 -0.038 -0.785  0.248
      -0.163  0.081 -0.335  0.281  0.881
       0.346  0.749 -0.043 -0.543  0.152
     occupation matrix ns (before diag.):
       0.688 -0.412  0.005 -0.096  0.026
      -0.412  0.441  0.021 -0.127  0.012
       0.005  0.021  0.715  0.009  0.408
      -0.096 -0.127  0.009  0.966 -0.002
       0.026  0.012  0.408 -0.002  0.399
     ------------------------ ATOM    2 ------------------------
     Tr[ns(  2)] (up, down, total) =   4.18713  4.97117  9.15830
     Atomic magnetic moment for atom   2 =  -0.78404
     SPIN  1
     eigenvalues:
       0.207  0.989  0.996  0.997  0.998
     eigenvectors (columns):
       0.256 -0.478  0.698  0.433  0.177
       0.392 -0.726 -0.548 -0.129 -0.049
      -0.535 -0.283 -0.022  0.335 -0.722
       0.065 -0.146  0.460 -0.790 -0.371
       0.700  0.378 -0.008  0.244 -0.555
     occupation matrix ns (before diag.):
       0.943 -0.082  0.107 -0.014 -0.140
      -0.082  0.871  0.164 -0.021 -0.215
       0.107  0.164  0.770  0.027  0.297
      -0.014 -0.021  0.027  0.994 -0.035
      -0.140 -0.215  0.297 -0.035  0.609
     SPIN  2
     eigenvalues:
       0.990  0.990  0.996  0.997  0.998
     eigenvectors (columns):
       0.338 -0.410 -0.640  0.524  0.184
       0.466 -0.686  0.525 -0.163 -0.094
       0.510  0.397  0.015  0.253 -0.720
       0.091 -0.147 -0.560 -0.755 -0.293
      -0.633 -0.426 -0.023  0.254 -0.594
     occupation matrix ns (before diag.):
       0.995 -0.003 -0.000 -0.001  0.000
      -0.003  0.992  0.000 -0.001  0.000
      -0.000  0.000  0.994  0.000  0.004
      -0.001 -0.001  0.000  0.997  0.000
       0.000  0.000  0.004  0.000  0.993

     Number of occupied Hubbard levels =   17.3389

     HUBBARD ENERGY =    0.1534  (Ry)

     total cpu time spent up to now is      418.2 secs

     total energy              =   -1281.06861697 Ry
     estimated scf accuracy    <       0.00000011 Ry

     total magnetization       =     1.00 Bohr mag/cell
     absolute magnetization    =     2.90 Bohr mag/cell

     iteration # 15     ecut=   120.00 Ry     beta= 0.70
     Davidson diagonalization with overlap

---- Real-time Memory Report at c_bands before calling an iterative solver
           434 MiB given to the printing process from OS
           401 MiB allocation reported by mallinfo(arena+hblkhd)
        637080 MiB available memory on the node where the printing process lives
------------------
     ethr =  9.56E-11,  avg # of iterations =  2.1

     =================== HUBBARD OCCUPATIONS ===================
     ------------------------ ATOM    1 ------------------------
     Tr[ns(  1)] (up, down, total) =   4.97175  3.20881  8.18055
     Atomic magnetic moment for atom   1 =   1.76294
     SPIN  1
     eigenvalues:
       0.989  0.992  0.996  0.998  0.998
     eigenvectors (columns):
      -0.157  0.468  0.777 -0.055  0.387
      -0.387  0.763 -0.515 -0.005 -0.049
       0.597  0.264 -0.040 -0.750 -0.102
      -0.076  0.146  0.358  0.095 -0.914
      -0.681 -0.327  0.037 -0.652 -0.049
     occupation matrix ns (before diag.):
       0.995 -0.002  0.000 -0.001 -0.000
      -0.002  0.992  0.001 -0.001 -0.001
       0.000  0.001  0.994  0.000  0.004
      -0.001 -0.001  0.000  0.997 -0.000
      -0.000 -0.001  0.004 -0.000  0.993
     SPIN  2
     eigenvalues:
       0.100  0.122  0.994  0.996  0.996
     eigenvectors (columns):
      -0.544  0.219 -0.717 -0.090 -0.365
      -0.719  0.322  0.608 -0.040  0.081
      -0.198 -0.530 -0.038 -0.785  0.248
      -0.163  0.081 -0.335  0.281  0.881
       0.346  0.749 -0.043 -0.543  0.152
     occupation matrix ns (before diag.):
       0.688 -0.412  0.005 -0.096  0.026
      -0.412  0.441  0.022 -0.128  0.012
       0.005  0.022  0.715  0.009  0.408
      -0.096 -0.128  0.009  0.966 -0.002
       0.026  0.012  0.408 -0.002  0.399
     ------------------------ ATOM    2 ------------------------
     Tr[ns(  2)] (up, down, total) =   4.18716  4.97118  9.15834
     Atomic magnetic moment for atom   2 =  -0.78402
     SPIN  1
     eigenvalues:
       0.207  0.989  0.996  0.997  0.998
     eigenvectors (columns):
       0.256 -0.478  0.698  0.433  0.177
       0.393 -0.726 -0.548 -0.130 -0.049
      -0.535 -0.284 -0.023  0.334 -0.721
       0.065 -0.146  0.460 -0.791 -0.371
       0.700  0.378 -0.008  0.243 -0.555
     occupation matrix ns (before diag.):
       0.943 -0.082  0.107 -0.014 -0.140
      -0.082  0.871  0.164 -0.021 -0.215
       0.107  0.164  0.770  0.027  0.297
      -0.014 -0.021  0.027  0.994 -0.035
      -0.140 -0.215  0.297 -0.035  0.609
     SPIN  2
     eigenvalues:
       0.990  0.990  0.996  0.997  0.998
     eigenvectors (columns):
       0.337 -0.411 -0.640  0.524  0.184
       0.465 -0.687  0.525 -0.163 -0.094
       0.511  0.396  0.015  0.253 -0.720
       0.091 -0.147 -0.560 -0.755 -0.293
      -0.633 -0.425 -0.023  0.254 -0.594
     occupation matrix ns (before diag.):
       0.995 -0.003 -0.000 -0.001  0.000
      -0.003  0.992  0.000 -0.001  0.000
      -0.000  0.000  0.994  0.000  0.004
      -0.001 -0.001  0.000  0.997  0.000
       0.000  0.000  0.004  0.000  0.993

     Number of occupied Hubbard levels =   17.3389

     HUBBARD ENERGY =    0.1534  (Ry)

     total cpu time spent up to now is      444.3 secs

     total energy              =   -1281.06861711 Ry
     estimated scf accuracy    <       0.00000007 Ry

     total magnetization       =     1.00 Bohr mag/cell
     absolute magnetization    =     2.90 Bohr mag/cell

     iteration # 16     ecut=   120.00 Ry     beta= 0.70
     Davidson diagonalization with overlap

---- Real-time Memory Report at c_bands before calling an iterative solver
           434 MiB given to the printing process from OS
           401 MiB allocation reported by mallinfo(arena+hblkhd)
        632486 MiB available memory on the node where the printing process lives
------------------
     ethr =  6.28E-11,  avg # of iterations =  2.2

     =================== HUBBARD OCCUPATIONS ===================
     ------------------------ ATOM    1 ------------------------
     Tr[ns(  1)] (up, down, total) =   4.97175  3.20881  8.18056
     Atomic magnetic moment for atom   1 =   1.76293
     SPIN  1
     eigenvalues:
       0.989  0.992  0.996  0.998  0.998
     eigenvectors (columns):
      -0.158  0.468  0.777 -0.055  0.387
      -0.387  0.763 -0.515 -0.005 -0.048
       0.596  0.264 -0.040 -0.750 -0.102
      -0.076  0.146  0.358  0.095 -0.914
      -0.681 -0.327  0.037 -0.652 -0.048
     occupation matrix ns (before diag.):
       0.995 -0.002  0.000 -0.001 -0.000
      -0.002  0.992  0.001 -0.001 -0.001
       0.000  0.001  0.994  0.000  0.004
      -0.001 -0.001  0.000  0.997 -0.000
      -0.000 -0.001  0.004 -0.000  0.993
     SPIN  2
     eigenvalues:
       0.100  0.122  0.994  0.996  0.996
     eigenvectors (columns):
      -0.544  0.219 -0.717 -0.091 -0.364
      -0.719  0.323  0.608 -0.040  0.081
      -0.198 -0.530 -0.038 -0.785  0.248
      -0.163  0.081 -0.335  0.281  0.881
       0.346  0.749 -0.043 -0.543  0.152
     occupation matrix ns (before diag.):
       0.688 -0.412  0.005 -0.095  0.026
      -0.412  0.441  0.022 -0.127  0.012
       0.005  0.022  0.715  0.009  0.408
      -0.095 -0.127  0.009  0.966 -0.002
       0.026  0.012  0.408 -0.002  0.399
     ------------------------ ATOM    2 ------------------------
     Tr[ns(  2)] (up, down, total) =   4.18718  4.97118  9.15836
     Atomic magnetic moment for atom   2 =  -0.78399
     SPIN  1
     eigenvalues:
       0.207  0.989  0.996  0.997  0.998
     eigenvectors (columns):
       0.256 -0.478  0.698  0.433  0.177
       0.393 -0.725 -0.548 -0.130 -0.049
      -0.535 -0.284 -0.023  0.334 -0.721
       0.064 -0.146  0.460 -0.791 -0.371
       0.699  0.379 -0.007  0.243 -0.555
     occupation matrix ns (before diag.):
       0.943 -0.082  0.107 -0.014 -0.140
      -0.082  0.870  0.165 -0.021 -0.215
       0.107  0.165  0.770  0.027  0.297
      -0.014 -0.021  0.027  0.994 -0.035
      -0.140 -0.215  0.297 -0.035  0.610
     SPIN  2
     eigenvalues:
       0.990  0.990  0.996  0.997  0.998
     eigenvectors (columns):
       0.336 -0.412 -0.640  0.524  0.184
       0.463 -0.689  0.525 -0.163 -0.094
       0.512  0.394  0.015  0.253 -0.720
       0.091 -0.147 -0.560 -0.755 -0.293
      -0.634 -0.423 -0.023  0.254 -0.594
     occupation matrix ns (before diag.):
       0.995 -0.003 -0.000 -0.001  0.000
      -0.003  0.992  0.000 -0.001  0.000
      -0.000  0.000  0.994  0.000  0.004
      -0.001 -0.001  0.000  0.997  0.000
       0.000  0.000  0.004  0.000  0.993

     Number of occupied Hubbard levels =   17.3389

     HUBBARD ENERGY =    0.1534  (Ry)

     total cpu time spent up to now is      471.2 secs

     total energy              =   -1281.06861696 Ry
     estimated scf accuracy    <       0.00000004 Ry

     total magnetization       =     1.00 Bohr mag/cell
     absolute magnetization    =     2.90 Bohr mag/cell

     iteration # 17     ecut=   120.00 Ry     beta= 0.70
     Davidson diagonalization with overlap

---- Real-time Memory Report at c_bands before calling an iterative solver
           434 MiB given to the printing process from OS
           401 MiB allocation reported by mallinfo(arena+hblkhd)
        634998 MiB available memory on the node where the printing process lives
------------------
     ethr =  3.60E-11,  avg # of iterations =  3.3

     =================== HUBBARD OCCUPATIONS ===================
     ------------------------ ATOM    1 ------------------------
     Tr[ns(  1)] (up, down, total) =   4.97175  3.20883  8.18058
     Atomic magnetic moment for atom   1 =   1.76292
     SPIN  1
     eigenvalues:
       0.989  0.992  0.996  0.998  0.998
     eigenvectors (columns):
      -0.158  0.468  0.777 -0.055  0.387
      -0.387  0.763 -0.515 -0.005 -0.048
       0.596  0.264 -0.040 -0.750 -0.101
      -0.077  0.146  0.359  0.095 -0.914
      -0.681 -0.327  0.037 -0.652 -0.048
     occupation matrix ns (before diag.):
       0.995 -0.002  0.000 -0.001 -0.000
      -0.002  0.992  0.001 -0.001 -0.001
       0.000  0.001  0.994  0.000  0.004
      -0.001 -0.001  0.000  0.997 -0.000
      -0.000 -0.001  0.004 -0.000  0.993
     SPIN  2
     eigenvalues:
       0.100  0.122  0.994  0.996  0.996
     eigenvectors (columns):
      -0.544  0.219 -0.717 -0.091 -0.364
      -0.719  0.323  0.608 -0.040  0.081
      -0.198 -0.530 -0.037 -0.785  0.248
      -0.163  0.081 -0.335  0.281  0.881
       0.347  0.749 -0.043 -0.543  0.152
     occupation matrix ns (before diag.):
       0.688 -0.412  0.005 -0.095  0.026
      -0.412  0.441  0.022 -0.127  0.012
       0.005  0.022  0.715  0.009  0.408
      -0.095 -0.127  0.009  0.966 -0.002
       0.026  0.012  0.408 -0.002  0.399
     ------------------------ ATOM    2 ------------------------
     Tr[ns(  2)] (up, down, total) =   4.18717  4.97118  9.15835
     Atomic magnetic moment for atom   2 =  -0.78400
     SPIN  1
     eigenvalues:
       0.207  0.989  0.996  0.997  0.998
     eigenvectors (columns):
       0.256 -0.478  0.698  0.433  0.176
       0.394 -0.725 -0.547 -0.130 -0.049
      -0.535 -0.285 -0.024  0.334 -0.721
       0.064 -0.146  0.460 -0.791 -0.371
       0.699  0.379 -0.007  0.243 -0.556
     occupation matrix ns (before diag.):
       0.943 -0.082  0.107 -0.014 -0.140
      -0.082  0.870  0.165 -0.021 -0.215
       0.107  0.165  0.770  0.027  0.297
      -0.014 -0.021  0.027  0.994 -0.035
      -0.140 -0.215  0.297 -0.035  0.610
     SPIN  2
     eigenvalues:
       0.990  0.990  0.996  0.997  0.998
     eigenvectors (columns):
       0.334 -0.413 -0.640  0.524  0.184
       0.461 -0.690  0.525 -0.163 -0.094
       0.513  0.393  0.015  0.253 -0.720
       0.090 -0.148 -0.560 -0.755 -0.294
      -0.636 -0.421 -0.023  0.254 -0.594
     occupation matrix ns (before diag.):
       0.995 -0.003 -0.000 -0.001  0.000
      -0.003  0.992  0.000 -0.001  0.000
      -0.000  0.000  0.994  0.000  0.004
      -0.001 -0.001  0.000  0.997  0.000
       0.000  0.000  0.004  0.000  0.993

     Number of occupied Hubbard levels =   17.3389

     HUBBARD ENERGY =    0.1534  (Ry)

     total cpu time spent up to now is      502.1 secs

     total energy              =   -1281.06861757 Ry
     estimated scf accuracy    <       0.00000002 Ry

     total magnetization       =     1.00 Bohr mag/cell
     absolute magnetization    =     2.90 Bohr mag/cell

     iteration # 18     ecut=   120.00 Ry     beta= 0.70
     Davidson diagonalization with overlap

---- Real-time Memory Report at c_bands before calling an iterative solver
           434 MiB given to the printing process from OS
           401 MiB allocation reported by mallinfo(arena+hblkhd)
        635094 MiB available memory on the node where the printing process lives
------------------
     ethr =  1.47E-11,  avg # of iterations =  2.8

     =================== HUBBARD OCCUPATIONS ===================
     ------------------------ ATOM    1 ------------------------
     Tr[ns(  1)] (up, down, total) =   4.97175  3.20883  8.18058
     Atomic magnetic moment for atom   1 =   1.76292
     SPIN  1
     eigenvalues:
       0.989  0.992  0.996  0.998  0.998
     eigenvectors (columns):
      -0.158  0.468  0.777 -0.054  0.387
      -0.387  0.763 -0.515 -0.005 -0.048
       0.596  0.264 -0.040 -0.750 -0.101
      -0.077  0.146  0.359  0.094 -0.914
      -0.681 -0.327  0.037 -0.652 -0.048
     occupation matrix ns (before diag.):
       0.995 -0.002  0.000 -0.001 -0.000
      -0.002  0.992  0.001 -0.001 -0.001
       0.000  0.001  0.994  0.000  0.004
      -0.001 -0.001  0.000  0.997 -0.000
      -0.000 -0.001  0.004 -0.000  0.993
     SPIN  2
     eigenvalues:
       0.100  0.122  0.994  0.996  0.996
     eigenvectors (columns):
      -0.544  0.219 -0.717 -0.091 -0.364
      -0.719  0.323  0.608 -0.040  0.081
      -0.198 -0.530 -0.037 -0.785  0.248
      -0.163  0.081 -0.335  0.281  0.881
       0.347  0.748 -0.043 -0.543  0.152
     occupation matrix ns (before diag.):
       0.688 -0.412  0.005 -0.095  0.026
      -0.412  0.441  0.022 -0.127  0.012
       0.005  0.022  0.715  0.009  0.408
      -0.095 -0.127  0.009  0.966 -0.002
       0.026  0.012  0.408 -0.002  0.399
     ------------------------ ATOM    2 ------------------------
     Tr[ns(  2)] (up, down, total) =   4.18713  4.97118  9.15831
     Atomic magnetic moment for atom   2 =  -0.78404
     SPIN  1
     eigenvalues:
       0.207  0.989  0.996  0.997  0.998
     eigenvectors (columns):
       0.256 -0.478  0.698  0.433  0.176
       0.395 -0.725 -0.547 -0.130 -0.049
      -0.535 -0.285 -0.024  0.334 -0.721
       0.064 -0.146  0.460 -0.790 -0.371
       0.699  0.380 -0.007  0.243 -0.556
     occupation matrix ns (before diag.):
       0.943 -0.083  0.107 -0.014 -0.140
      -0.083  0.869  0.165 -0.021 -0.216
       0.107  0.165  0.770  0.027  0.297
      -0.014 -0.021  0.027  0.994 -0.035
      -0.140 -0.216  0.297 -0.035  0.611
     SPIN  2
     eigenvalues:
       0.990  0.990  0.996  0.997  0.998
     eigenvectors (columns):
       0.333 -0.414 -0.640  0.524  0.184
       0.459 -0.691  0.525 -0.163 -0.094
       0.514  0.391  0.015  0.253 -0.720
       0.090 -0.148 -0.560 -0.755 -0.294
      -0.637 -0.420 -0.023  0.254 -0.594
     occupation matrix ns (before diag.):
       0.995 -0.003 -0.000 -0.001  0.000
      -0.003  0.992  0.000 -0.001  0.000
      -0.000  0.000  0.994  0.000  0.004
      -0.001 -0.001  0.000  0.997  0.000
       0.000  0.000  0.004  0.000  0.993

     Number of occupied Hubbard levels =   17.3389

     HUBBARD ENERGY =    0.1534  (Ry)

     total cpu time spent up to now is      531.8 secs

     total energy              =   -1281.06861774 Ry
     estimated scf accuracy    <          9.6E-09 Ry

     total magnetization       =     1.00 Bohr mag/cell
     absolute magnetization    =     2.90 Bohr mag/cell

     iteration # 19     ecut=   120.00 Ry     beta= 0.70
     Davidson diagonalization with overlap

---- Real-time Memory Report at c_bands before calling an iterative solver
           434 MiB given to the printing process from OS
           401 MiB allocation reported by mallinfo(arena+hblkhd)
        631962 MiB available memory on the node where the printing process lives
------------------
     ethr =  8.46E-12,  avg # of iterations =  2.0

     =================== HUBBARD OCCUPATIONS ===================
     ------------------------ ATOM    1 ------------------------
     Tr[ns(  1)] (up, down, total) =   4.97175  3.20883  8.18057
     Atomic magnetic moment for atom   1 =   1.76292
     SPIN  1
     eigenvalues:
       0.989  0.992  0.996  0.998  0.998
     eigenvectors (columns):
      -0.158  0.468  0.777 -0.054  0.387
      -0.387  0.763 -0.515 -0.005 -0.048
       0.596  0.264 -0.040 -0.750 -0.101
      -0.077  0.146  0.359  0.094 -0.914
      -0.681 -0.327  0.037 -0.652 -0.048
     occupation matrix ns (before diag.):
       0.995 -0.002  0.000 -0.001 -0.000
      -0.002  0.992  0.001 -0.001 -0.001
       0.000  0.001  0.994  0.000  0.004
      -0.001 -0.001  0.000  0.997 -0.000
      -0.000 -0.001  0.004 -0.000  0.993
     SPIN  2
     eigenvalues:
       0.100  0.122  0.994  0.996  0.996
     eigenvectors (columns):
      -0.544  0.219 -0.717 -0.091 -0.364
      -0.719  0.323  0.608 -0.040  0.081
      -0.198 -0.530 -0.037 -0.785  0.248
      -0.163  0.081 -0.335  0.281  0.881
       0.347  0.748 -0.043 -0.543  0.152
     occupation matrix ns (before diag.):
       0.688 -0.412  0.005 -0.095  0.026
      -0.412  0.441  0.022 -0.127  0.012
       0.005  0.022  0.715  0.009  0.408
      -0.095 -0.127  0.009  0.966 -0.002
       0.026  0.012  0.408 -0.002  0.399
     ------------------------ ATOM    2 ------------------------
     Tr[ns(  2)] (up, down, total) =   4.18712  4.97118  9.15829
     Atomic magnetic moment for atom   2 =  -0.78406
     SPIN  1
     eigenvalues:
       0.207  0.989  0.996  0.997  0.998
     eigenvectors (columns):
       0.256 -0.478  0.698  0.433  0.176
       0.395 -0.725 -0.547 -0.130 -0.049
      -0.535 -0.285 -0.024  0.334 -0.721
       0.064 -0.146  0.460 -0.790 -0.371
       0.698  0.380 -0.007  0.243 -0.556
     occupation matrix ns (before diag.):
       0.943 -0.083  0.107 -0.014 -0.140
      -0.083  0.869  0.165 -0.021 -0.216
       0.107  0.165  0.770  0.027  0.297
      -0.014 -0.021  0.027  0.994 -0.035
      -0.140 -0.216  0.297 -0.035  0.611
     SPIN  2
     eigenvalues:
       0.990  0.990  0.996  0.997  0.998
     eigenvectors (columns):
       0.333 -0.414 -0.640  0.524  0.184
       0.458 -0.692  0.525 -0.163 -0.094
       0.515  0.391  0.015  0.253 -0.720
       0.090 -0.148 -0.560 -0.755 -0.294
      -0.637 -0.419 -0.023  0.254 -0.594
     occupation matrix ns (before diag.):
       0.995 -0.003 -0.000 -0.001  0.000
      -0.003  0.992  0.000 -0.001  0.000
      -0.000  0.000  0.994  0.000  0.004
      -0.001 -0.001  0.000  0.997  0.000
       0.000  0.000  0.004  0.000  0.993

     Number of occupied Hubbard levels =   17.3389

     HUBBARD ENERGY =    0.1534  (Ry)

     total cpu time spent up to now is      558.8 secs

     total energy              =   -1281.06861775 Ry
     estimated scf accuracy    <          7.3E-09 Ry

     total magnetization       =     1.00 Bohr mag/cell
     absolute magnetization    =     2.90 Bohr mag/cell

     iteration # 20     ecut=   120.00 Ry     beta= 0.70
     Davidson diagonalization with overlap

---- Real-time Memory Report at c_bands before calling an iterative solver
           434 MiB given to the printing process from OS
           401 MiB allocation reported by mallinfo(arena+hblkhd)
        634676 MiB available memory on the node where the printing process lives
------------------
     ethr =  6.45E-12,  avg # of iterations =  2.4

     =================== HUBBARD OCCUPATIONS ===================
     ------------------------ ATOM    1 ------------------------
     Tr[ns(  1)] (up, down, total) =   4.97175  3.20882  8.18057
     Atomic magnetic moment for atom   1 =   1.76293
     SPIN  1
     eigenvalues:
       0.989  0.992  0.996  0.998  0.998
     eigenvectors (columns):
      -0.158  0.468  0.777 -0.054  0.387
      -0.387  0.763 -0.515 -0.005 -0.048
       0.596  0.264 -0.040 -0.750 -0.101
      -0.077  0.146  0.359  0.094 -0.914
      -0.681 -0.327  0.037 -0.652 -0.048
     occupation matrix ns (before diag.):
       0.995 -0.002  0.000 -0.001 -0.000
      -0.002  0.992  0.001 -0.001 -0.001
       0.000  0.001  0.994  0.000  0.004
      -0.001 -0.001  0.000  0.997 -0.000
      -0.000 -0.001  0.004 -0.000  0.993
     SPIN  2
     eigenvalues:
       0.100  0.122  0.994  0.996  0.996
     eigenvectors (columns):
      -0.544  0.219 -0.717 -0.091 -0.364
      -0.719  0.323  0.608 -0.040  0.081
      -0.198 -0.530 -0.037 -0.785  0.248
      -0.163  0.081 -0.335  0.281  0.881
       0.347  0.748 -0.043 -0.543  0.152
     occupation matrix ns (before diag.):
       0.688 -0.412  0.005 -0.095  0.026
      -0.412  0.441  0.022 -0.127  0.012
       0.005  0.022  0.715  0.009  0.408
      -0.095 -0.127  0.009  0.966 -0.002
       0.026  0.012  0.408 -0.002  0.399
     ------------------------ ATOM    2 ------------------------
     Tr[ns(  2)] (up, down, total) =   4.18711  4.97118  9.15828
     Atomic magnetic moment for atom   2 =  -0.78407
     SPIN  1
     eigenvalues:
       0.207  0.989  0.996  0.997  0.998
     eigenvectors (columns):
       0.256 -0.477  0.698  0.433  0.176
       0.395 -0.725 -0.547 -0.130 -0.049
      -0.535 -0.285 -0.024  0.334 -0.721
       0.064 -0.146  0.460 -0.790 -0.371
       0.698  0.380 -0.007  0.243 -0.556
     occupation matrix ns (before diag.):
       0.943 -0.083  0.107 -0.014 -0.140
      -0.083  0.869  0.165 -0.021 -0.216
       0.107  0.165  0.770  0.027  0.297
      -0.014 -0.021  0.027  0.994 -0.035
      -0.140 -0.216  0.297 -0.035  0.611
     SPIN  2
     eigenvalues:
       0.990  0.990  0.996  0.997  0.998
     eigenvectors (columns):
       0.332 -0.415 -0.640  0.524  0.184
       0.458 -0.692  0.525 -0.163 -0.094
       0.515  0.390  0.015  0.253 -0.720
       0.089 -0.148 -0.560 -0.755 -0.294
      -0.638 -0.418 -0.023  0.254 -0.594
     occupation matrix ns (before diag.):
       0.995 -0.003 -0.000 -0.001  0.000
      -0.003  0.992  0.000 -0.001  0.000
      -0.000  0.000  0.994  0.000  0.004
      -0.001 -0.001  0.000  0.997  0.000
       0.000  0.000  0.004  0.000  0.993

     Number of occupied Hubbard levels =   17.3389

     HUBBARD ENERGY =    0.1534  (Ry)

     total cpu time spent up to now is      587.2 secs

     total energy              =   -1281.06861763 Ry
     estimated scf accuracy    <          4.6E-09 Ry

     total magnetization       =     1.00 Bohr mag/cell
     absolute magnetization    =     2.90 Bohr mag/cell

     iteration # 21     ecut=   120.00 Ry     beta= 0.70
     Davidson diagonalization with overlap

---- Real-time Memory Report at c_bands before calling an iterative solver
           434 MiB given to the printing process from OS
           401 MiB allocation reported by mallinfo(arena+hblkhd)
        632126 MiB available memory on the node where the printing process lives
------------------
     ethr =  4.10E-12,  avg # of iterations =  3.8

     =================== HUBBARD OCCUPATIONS ===================
     ------------------------ ATOM    1 ------------------------
     Tr[ns(  1)] (up, down, total) =   4.97175  3.20883  8.18058
     Atomic magnetic moment for atom   1 =   1.76292
     SPIN  1
     eigenvalues:
       0.989  0.992  0.996  0.998  0.998
     eigenvectors (columns):
      -0.158  0.468  0.777 -0.054  0.387
      -0.387  0.763 -0.515 -0.005 -0.048
       0.596  0.264 -0.040 -0.750 -0.101
      -0.077  0.146  0.359  0.094 -0.914
      -0.681 -0.327  0.037 -0.652 -0.048
     occupation matrix ns (before diag.):
       0.995 -0.002  0.000 -0.001 -0.000
      -0.002  0.992  0.001 -0.001 -0.001
       0.000  0.001  0.994  0.000  0.004
      -0.001 -0.001  0.000  0.997 -0.000
      -0.000 -0.001  0.004 -0.000  0.993
     SPIN  2
     eigenvalues:
       0.100  0.122  0.994  0.996  0.996
     eigenvectors (columns):
      -0.544  0.219 -0.717 -0.091 -0.364
      -0.719  0.323  0.608 -0.040  0.081
      -0.198 -0.530 -0.037 -0.785  0.248
      -0.163  0.081 -0.335  0.280  0.881
       0.347  0.748 -0.043 -0.543  0.152
     occupation matrix ns (before diag.):
       0.688 -0.412  0.005 -0.095  0.026
      -0.412  0.441  0.022 -0.127  0.012
       0.005  0.022  0.715  0.009  0.408
      -0.095 -0.127  0.009  0.966 -0.002
       0.026  0.012  0.408 -0.002  0.399
     ------------------------ ATOM    2 ------------------------
     Tr[ns(  2)] (up, down, total) =   4.18711  4.97118  9.15828
     Atomic magnetic moment for atom   2 =  -0.78407
     SPIN  1
     eigenvalues:
       0.207  0.989  0.996  0.997  0.998
     eigenvectors (columns):
       0.257 -0.477  0.699  0.433  0.176
       0.396 -0.724 -0.547 -0.130 -0.049
      -0.535 -0.286 -0.024  0.334 -0.721
       0.064 -0.146  0.460 -0.790 -0.371
       0.698  0.380 -0.007  0.243 -0.556
     occupation matrix ns (before diag.):
       0.943 -0.083  0.107 -0.014 -0.140
      -0.083  0.869  0.165 -0.021 -0.216
       0.107  0.165  0.771  0.027  0.296
      -0.014 -0.021  0.027  0.994 -0.035
      -0.140 -0.216  0.296 -0.035  0.611
     SPIN  2
     eigenvalues:
       0.990  0.990  0.996  0.997  0.998
     eigenvectors (columns):
       0.331 -0.415 -0.640  0.524  0.184
       0.456 -0.693  0.525 -0.163 -0.094
       0.516  0.389  0.015  0.253 -0.720
       0.089 -0.148 -0.560 -0.755 -0.294
      -0.639 -0.416 -0.023  0.255 -0.594
     occupation matrix ns (before diag.):
       0.995 -0.003 -0.000 -0.001  0.000
      -0.003  0.992  0.000 -0.001  0.000
      -0.000  0.000  0.994  0.000  0.004
      -0.001 -0.001  0.000  0.997  0.000
       0.000  0.000  0.004  0.000  0.993

     Number of occupied Hubbard levels =   17.3389

     HUBBARD ENERGY =    0.1534  (Ry)

     total cpu time spent up to now is      621.0 secs

     total energy              =   -1281.06861781 Ry
     estimated scf accuracy    <          1.4E-09 Ry

     total magnetization       =     1.00 Bohr mag/cell
     absolute magnetization    =     2.90 Bohr mag/cell

     iteration # 22     ecut=   120.00 Ry     beta= 0.70
     Davidson diagonalization with overlap

---- Real-time Memory Report at c_bands before calling an iterative solver
           434 MiB given to the printing process from OS
           401 MiB allocation reported by mallinfo(arena+hblkhd)
        631588 MiB available memory on the node where the printing process lives
------------------
     ethr =  1.23E-12,  avg # of iterations =  3.1

     =================== HUBBARD OCCUPATIONS ===================
     ------------------------ ATOM    1 ------------------------
     Tr[ns(  1)] (up, down, total) =   4.97175  3.20883  8.18058
     Atomic magnetic moment for atom   1 =   1.76292
     SPIN  1
     eigenvalues:
       0.989  0.992  0.996  0.998  0.998
     eigenvectors (columns):
      -0.158  0.468  0.777 -0.054  0.387
      -0.387  0.763 -0.515 -0.005 -0.048
       0.596  0.264 -0.040 -0.750 -0.101
      -0.077  0.146  0.359  0.094 -0.914
      -0.681 -0.327  0.037 -0.652 -0.047
     occupation matrix ns (before diag.):
       0.995 -0.002  0.000 -0.001 -0.000
      -0.002  0.992  0.001 -0.001 -0.001
       0.000  0.001  0.994  0.000  0.004
      -0.001 -0.001  0.000  0.997 -0.000
      -0.000 -0.001  0.004 -0.000  0.993
     SPIN  2
     eigenvalues:
       0.100  0.122  0.994  0.996  0.996
     eigenvectors (columns):
      -0.544  0.219 -0.717 -0.091 -0.364
      -0.719  0.323  0.608 -0.040  0.081
      -0.198 -0.530 -0.037 -0.785  0.248
      -0.163  0.081 -0.335  0.280  0.881
       0.347  0.748 -0.043 -0.543  0.152
     occupation matrix ns (before diag.):
       0.688 -0.412  0.005 -0.095  0.026
      -0.412  0.441  0.022 -0.127  0.012
       0.005  0.022  0.715  0.009  0.408
      -0.095 -0.127  0.009  0.966 -0.002
       0.026  0.012  0.408 -0.002  0.399
     ------------------------ ATOM    2 ------------------------
     Tr[ns(  2)] (up, down, total) =   4.18711  4.97118  9.15828
     Atomic magnetic moment for atom   2 =  -0.78407
     SPIN  1
     eigenvalues:
       0.207  0.989  0.996  0.997  0.998
     eigenvectors (columns):
       0.257 -0.477  0.699  0.433  0.176
       0.396 -0.724 -0.547 -0.130 -0.049
      -0.535 -0.286 -0.024  0.335 -0.721
       0.064 -0.146  0.460 -0.790 -0.372
       0.698  0.381 -0.007  0.243 -0.556
     occupation matrix ns (before diag.):
       0.943 -0.083  0.107 -0.014 -0.140
      -0.083  0.869  0.166 -0.021 -0.216
       0.107  0.166  0.771  0.027  0.296
      -0.014 -0.021  0.027  0.994 -0.035
      -0.140 -0.216  0.296 -0.035  0.611
     SPIN  2
     eigenvalues:
       0.990  0.990  0.996  0.997  0.998
     eigenvectors (columns):
       0.331 -0.416 -0.640  0.524  0.184
       0.455 -0.694  0.525 -0.163 -0.094
       0.517  0.388  0.015  0.253 -0.720
       0.089 -0.148 -0.560 -0.755 -0.294
      -0.639 -0.416 -0.023  0.255 -0.594
     occupation matrix ns (before diag.):
       0.995 -0.003 -0.000 -0.001  0.000
      -0.003  0.992  0.000 -0.001  0.000
      -0.000  0.000  0.994  0.000  0.004
      -0.001 -0.001  0.000  0.997  0.000
       0.000  0.000  0.004  0.000  0.993

     Number of occupied Hubbard levels =   17.3389

     HUBBARD ENERGY =    0.1534  (Ry)
 
     Magnetic moment per site  (integrated on atomic sphere of radius R)
     atom   1 (R=0.176)  charge= 15.2769  magn=  1.7139
     atom   2 (R=0.176)  charge= 16.3392  magn= -0.7991
     atom   3 (R=0.161)  charge=  7.6723  magn=  0.0042
     atom   4 (R=0.161)  charge=  7.6734  magn=  0.0150
     atom   5 (R=0.161)  charge=  4.9972  magn=  0.0033
     atom   6 (R=0.161)  charge=  5.0200  magn= -0.0165
     atom   7 (R=0.161)  charge=  4.9980  magn=  0.0057
     atom   8 (R=0.161)  charge=  5.0190  magn=  0.0054
     atom   9 (R=0.161)  charge=  4.9454  magn= -0.0285
     atom  10 (R=0.161)  charge=  4.9312  magn= -0.0055
     atom  11 (R=0.161)  charge=  4.9359  magn=  0.0081
     atom  12 (R=0.161)  charge=  4.9483  magn=  0.0066

     total cpu time spent up to now is      652.2 secs

     End of self-consistent calculation

 ------ SPIN UP ------------


          k = 0.0827 0.0713 0.0634 ( 19121 PWs)   bands (ev):

  -101.4200 -93.4802 -64.6859 -64.6316 -59.3884 -58.7135 -58.6125 -54.2038
   -54.0343 -53.9657 -29.0006 -28.9477 -28.9183 -28.8519 -28.8167 -28.7583
    -8.4731  -7.4449  -7.1668  -7.0024  -6.5318  -6.4586  -6.2474  -6.0955
     2.3432   2.3819   2.6161   2.7430   3.1280   3.1987   3.4299   3.7088
     3.8456   4.5280   4.7018   5.1336   5.3317   5.6474   5.7910   5.9175
     6.2436   6.3942   6.8711   7.1310   7.3123   7.5140   7.6964   7.8504
     8.0717   8.3302   8.4432   8.7786   9.3266   9.4772   9.6372   9.9724
    10.1020  12.1818  12.7982  12.8848  13.2542  13.7971  13.8743  14.3643
    15.5826  15.8255  17.5730  18.8143

     occupation numbers 
     1.0000   1.0000   1.0000   1.0000   1.0000   1.0000   1.0000   1.0000
     1.0000   1.0000   1.0000   1.0000   1.0000   1.0000   1.0000   1.0000
     1.0000   1.0000   1.0000   1.0000   1.0000   1.0000   1.0000   1.0000
     1.0000   1.0000   1.0000   1.0000   1.0000   1.0000   1.0000   1.0000
     1.0000   1.0000   1.0000   1.0000   1.0000   1.0000   1.0000   1.0000
     1.0000   1.0000   1.0000   1.0000   1.0000   1.0000   1.0000   1.0000
     1.0000   1.0000   1.0000   1.0000   1.0000   1.0000   1.0000   1.0000
     1.0000   0.0000   0.0000   0.0000   0.0000   0.0000   0.0000   0.0000
     0.0000   0.0000   0.0000   0.0000

          k = 0.0814 0.0713 0.2058 ( 19103 PWs)   bands (ev):

  -101.4200 -93.4801 -64.6858 -64.6317 -59.3884 -58.7135 -58.6125 -54.2038
   -54.0343 -53.9657 -28.9979 -28.9529 -28.9137 -28.8608 -28.8061 -28.7624
    -8.3553  -7.5415  -7.1843  -7.0306  -6.5543  -6.4716  -6.1927  -6.1073
     2.3290   2.3950   2.5950   2.7638   3.0701   3.1799   3.4607   3.7464
     3.9153   4.5426   4.6749   5.1474   5.3636   5.6059   5.7699   5.9347
     6.3596   6.4898   6.8531   7.0345   7.2673   7.3854   7.7178   7.8911
     8.1037   8.2894   8.4444   8.5447   9.3150   9.5161   9.7832  10.0161
    10.0753  12.1480  12.7302  12.9712  13.2456  13.6230  13.8890  14.3140
    15.9629  16.0980  17.4501  18.9524

     occupation numbers 
     1.0000   1.0000   1.0000   1.0000   1.0000   1.0000   1.0000   1.0000
     1.0000   1.0000   1.0000   1.0000   1.0000   1.0000   1.0000   1.0000
     1.0000   1.0000   1.0000   1.0000   1.0000   1.0000   1.0000   1.0000
     1.0000   1.0000   1.0000   1.0000   1.0000   1.0000   1.0000   1.0000
     1.0000   1.0000   1.0000   1.0000   1.0000   1.0000   1.0000   1.0000
     1.0000   1.0000   1.0000   1.0000   1.0000   1.0000   1.0000   1.0000
     1.0000   1.0000   1.0000   1.0000   1.0000   1.0000   1.0000   1.0000
     1.0000   0.0000   0.0000   0.0000   0.0000   0.0000   0.0000   0.0000
     0.0000   0.0000   0.0000   0.0000

          k = 0.0800 0.0713 0.3482 ( 19108 PWs)   bands (ev):

  -101.4200 -93.4801 -64.6857 -64.6317 -59.3884 -58.7135 -58.6125 -54.2038
   -54.0343 -53.9657 -28.9947 -28.9580 -28.9083 -28.8691 -28.7953 -28.7687
    -8.1312  -7.7541  -7.2048  -7.0900  -6.5773  -6.4360  -6.1409  -6.1158
     2.3055   2.3889   2.5678   2.7329   3.0822   3.1572   3.5552   3.7199
     3.9833   4.5064   4.6615   5.2655   5.4603   5.6464   5.8363   6.0210
     6.2302   6.3555   6.7823   6.8827   7.1084   7.4035   7.6370   7.8388
     8.2057   8.2782   8.3619   8.9859   9.3433   9.5812   9.6998   9.9728
    10.1248  12.1263  12.6075  12.9555  13.1704  13.5575  14.0438  14.2135
    16.0701  16.2755  17.9314  18.8615

     occupation numbers 
     1.0000   1.0000   1.0000   1.0000   1.0000   1.0000   1.0000   1.0000
     1.0000   1.0000   1.0000   1.0000   1.0000   1.0000   1.0000   1.0000
     1.0000   1.0000   1.0000   1.0000   1.0000   1.0000   1.0000   1.0000
     1.0000   1.0000   1.0000   1.0000   1.0000   1.0000   1.0000   1.0000
     1.0000   1.0000   1.0000   1.0000   1.0000   1.0000   1.0000   1.0000
     1.0000   1.0000   1.0000   1.0000   1.0000   1.0000   1.0000   1.0000
     1.0000   1.0000   1.0000   1.0000   1.0000   1.0000   1.0000   1.0000
     1.0000   0.0000   0.0000   0.0000   0.0000   0.0000   0.0000   0.0000
     0.0000   0.0000   0.0000   0.0000

          k = 0.0869 0.0713-0.3639 ( 19116 PWs)   bands (ev):

  -101.4200 -93.4801 -64.6856 -64.6316 -59.3884 -58.7135 -58.6125 -54.2038
   -54.0343 -53.9657 -28.9951 -28.9574 -28.9081 -28.8693 -28.7956 -28.7687
    -8.0479  -7.8440  -7.2029  -7.1290  -6.5360  -6.4346  -6.1457  -6.1063
     2.2941   2.3853   2.5883   2.7016   3.0676   3.1890   3.5230   3.7222
     3.9940   4.5080   4.6916   5.3750   5.5156   5.6104   5.8045   6.0289
     6.1097   6.2263   6.5254   6.9315   7.3043   7.4520   7.7940   7.8999
     8.0452   8.1903   8.4413   9.2841   9.4079   9.5460   9.6035   9.8527
    10.1209  12.1470  12.5768  12.9160  13.2212  13.5683  14.0379  14.2618
    15.9283  16.1087  18.1427  18.8867

     occupation numbers 
     1.0000   1.0000   1.0000   1.0000   1.0000   1.0000   1.0000   1.0000
     1.0000   1.0000   1.0000   1.0000   1.0000   1.0000   1.0000   1.0000
     1.0000   1.0000   1.0000   1.0000   1.0000   1.0000   1.0000   1.0000
     1.0000   1.0000   1.0000   1.0000   1.0000   1.0000   1.0000   1.0000
     1.0000   1.0000   1.0000   1.0000   1.0000   1.0000   1.0000   1.0000
     1.0000   1.0000   1.0000   1.0000   1.0000   1.0000   1.0000   1.0000
     1.0000   1.0000   1.0000   1.0000   1.0000   1.0000   1.0000   1.0000
     1.0000   0.0000   0.0000   0.0000   0.0000   0.0000   0.0000   0.0000
     0.0000   0.0000   0.0000   0.0000

          k = 0.0855 0.0713-0.2215 ( 19099 PWs)   bands (ev):

  -101.4200 -93.4801 -64.6857 -64.6316 -59.3884 -58.7135 -58.6125 -54.2038
   -54.0343 -53.9657 -28.9985 -28.9518 -28.9134 -28.8611 -28.8066 -28.7625
    -8.2959  -7.6119  -7.1722  -7.1249  -6.5023  -6.4164  -6.1818  -6.1253
     2.3086   2.3917   2.6526   2.7159   3.0317   3.2026   3.4055   3.7465
     3.9422   4.5999   4.7512   5.1131   5.4165   5.5441   5.7591   5.9450
     6.1608   6.4045   6.8806   6.9907   7.1873   7.4874   7.6864   7.8535
     8.0591   8.4158   8.5628   9.1017   9.3917   9.4476   9.5771   9.8543
    10.0948  12.2036  12.6736  12.9067  13.2389  13.7431  13.9189  14.3713
    15.6762  15.7973  17.6959  19.1260

     occupation numbers 
     1.0000   1.0000   1.0000   1.0000   1.0000   1.0000   1.0000   1.0000
     1.0000   1.0000   1.0000   1.0000   1.0000   1.0000   1.0000   1.0000
     1.0000   1.0000   1.0000   1.0000   1.0000   1.0000   1.0000   1.0000
     1.0000   1.0000   1.0000   1.0000   1.0000   1.0000   1.0000   1.0000
     1.0000   1.0000   1.0000   1.0000   1.0000   1.0000   1.0000   1.0000
     1.0000   1.0000   1.0000   1.0000   1.0000   1.0000   1.0000   1.0000
     1.0000   1.0000   1.0000   1.0000   1.0000   1.0000   1.0000   1.0000
     1.0000   0.0000   0.0000   0.0000   0.0000   0.0000   0.0000   0.0000
     0.0000   0.0000   0.0000   0.0000

          k = 0.0841 0.0713-0.0791 ( 19110 PWs)   bands (ev):

  -101.4200 -93.4802 -64.6859 -64.6316 -59.3884 -58.7135 -58.6125 -54.2038
   -54.0343 -53.9657 -29.0008 -28.9472 -28.9182 -28.8520 -28.8170 -28.7583
    -8.4521  -7.4697  -7.1641  -7.0536  -6.5118  -6.4124  -6.2416  -6.1121
     2.3298   2.3888   2.6426   2.7345   3.0948   3.1935   3.3982   3.7304
     3.8526   4.5729   4.7566   5.0809   5.2958   5.5281   5.7704   6.0516
     6.2874   6.4727   6.7913   7.0440   7.1620   7.4346   7.6587   7.9911
     8.1080   8.3658   8.6643   8.9060   9.3600   9.4242   9.5393   9.9094
    10.1080  12.2167  12.7803  12.8560  13.2129  13.8415  13.9415  14.3901
    15.4577  15.6775  17.6582  18.8636

     occupation numbers 
     1.0000   1.0000   1.0000   1.0000   1.0000   1.0000   1.0000   1.0000
     1.0000   1.0000   1.0000   1.0000   1.0000   1.0000   1.0000   1.0000
     1.0000   1.0000   1.0000   1.0000   1.0000   1.0000   1.0000   1.0000
     1.0000   1.0000   1.0000   1.0000   1.0000   1.0000   1.0000   1.0000
     1.0000   1.0000   1.0000   1.0000   1.0000   1.0000   1.0000   1.0000
     1.0000   1.0000   1.0000   1.0000   1.0000   1.0000   1.0000   1.0000
     1.0000   1.0000   1.0000   1.0000   1.0000   1.0000   1.0000   1.0000
     1.0000   0.0000   0.0000   0.0000   0.0000   0.0000   0.0000   0.0000
     0.0000   0.0000   0.0000   0.0000

          k = 0.0828 0.2185 0.0599 ( 19145 PWs)   bands (ev):

  -101.4200 -93.4802 -64.6858 -64.6316 -59.3884 -58.7135 -58.6125 -54.2038
   -54.0343 -53.9657 -29.0000 -28.9476 -28.9180 -28.8529 -28.8170 -28.7587
    -8.3178  -7.4732  -7.2068  -7.0532  -6.6775  -6.3950  -6.3139  -6.0537
     2.3639   2.4363   2.7082   2.8266   3.1700   3.2564   3.5613   3.7818
     3.8895   4.5970   4.8188   4.9831   5.1434   5.4063   5.7228   5.9664
     6.2788   6.3829   6.6536   6.9122   7.2010   7.5114   7.8186   7.9147
     8.2459   8.4510   8.7912   8.8676   9.0733   9.2737   9.4875   9.8168
     9.9869  12.2827  12.7608  12.8688  13.2856  13.6465  13.8557  14.5026
    15.7090  15.8666  17.9399  18.4037

     occupation numbers 
     1.0000   1.0000   1.0000   1.0000   1.0000   1.0000   1.0000   1.0000
     1.0000   1.0000   1.0000   1.0000   1.0000   1.0000   1.0000   1.0000
     1.0000   1.0000   1.0000   1.0000   1.0000   1.0000   1.0000   1.0000
     1.0000   1.0000   1.0000   1.0000   1.0000   1.0000   1.0000   1.0000
     1.0000   1.0000   1.0000   1.0000   1.0000   1.0000   1.0000   1.0000
     1.0000   1.0000   1.0000   1.0000   1.0000   1.0000   1.0000   1.0000
     1.0000   1.0000   1.0000   1.0000   1.0000   1.0000   1.0000   1.0000
     1.0000   0.0000   0.0000   0.0000   0.0000   0.0000   0.0000   0.0000
     0.0000   0.0000   0.0000   0.0000

          k = 0.0814 0.2185 0.2023 ( 19115 PWs)   bands (ev):

  -101.4200 -93.4802 -64.6857 -64.6316 -59.3884 -58.7135 -58.6125 -54.2038
   -54.0343 -53.9657 -28.9978 -28.9539 -28.9135 -28.8613 -28.8057 -28.7623
    -8.2064  -7.5724  -7.2238  -7.0463  -6.6208  -6.4664  -6.2887  -6.0869
     2.3505   2.4363   2.6774   2.8455   3.1641   3.2706   3.6112   3.7624
     3.9320   4.5598   4.7981   4.9933   5.2286   5.4268   5.7382   5.9878
     6.1374   6.4496   6.7085   6.9119   7.2586   7.6921   7.7221   7.8548
     8.1152   8.3260   8.6817   8.7902   9.1221   9.3242   9.5425   9.8634
     9.9996  12.2315  12.6830  13.0227  13.1768  13.5336  13.8421  14.4593
    15.9850  16.1632  17.8940  18.4514

     occupation numbers 
     1.0000   1.0000   1.0000   1.0000   1.0000   1.0000   1.0000   1.0000
     1.0000   1.0000   1.0000   1.0000   1.0000   1.0000   1.0000   1.0000
     1.0000   1.0000   1.0000   1.0000   1.0000   1.0000   1.0000   1.0000
     1.0000   1.0000   1.0000   1.0000   1.0000   1.0000   1.0000   1.0000
     1.0000   1.0000   1.0000   1.0000   1.0000   1.0000   1.0000   1.0000
     1.0000   1.0000   1.0000   1.0000   1.0000   1.0000   1.0000   1.0000
     1.0000   1.0000   1.0000   1.0000   1.0000   1.0000   1.0000   1.0000
     1.0000   0.0000   0.0000   0.0000   0.0000   0.0000   0.0000   0.0000
     0.0000   0.0000   0.0000   0.0000

          k = 0.0800 0.2185 0.3447 ( 19130 PWs)   bands (ev):

  -101.4200 -93.4801 -64.6855 -64.6317 -59.3884 -58.7135 -58.6125 -54.2038
   -54.0343 -53.9657 -28.9952 -28.9595 -28.9084 -28.8692 -28.7943 -28.7683
    -8.0013  -7.7387  -7.2487  -7.0808  -6.5933  -6.5017  -6.2223  -6.1434
     2.3363   2.4189   2.6614   2.8386   3.1589   3.2648   3.6920   3.7642
     3.9717   4.4958   4.6584   5.1239   5.3377   5.5421   5.7389   5.9888
     6.1218   6.4546   6.7323   6.9487   7.2321   7.4954   7.6557   7.8202
     8.0323   8.2066   8.5384   9.0921   9.2236   9.4192   9.4759   9.9240
     9.9840  12.1837  12.5756  12.9666  13.1859  13.5153  13.9543  14.3442
    16.1203  16.3362  18.2342  18.4212

     occupation numbers 
     1.0000   1.0000   1.0000   1.0000   1.0000   1.0000   1.0000   1.0000
     1.0000   1.0000   1.0000   1.0000   1.0000   1.0000   1.0000   1.0000
     1.0000   1.0000   1.0000   1.0000   1.0000   1.0000   1.0000   1.0000
     1.0000   1.0000   1.0000   1.0000   1.0000   1.0000   1.0000   1.0000
     1.0000   1.0000   1.0000   1.0000   1.0000   1.0000   1.0000   1.0000
     1.0000   1.0000   1.0000   1.0000   1.0000   1.0000   1.0000   1.0000
     1.0000   1.0000   1.0000   1.0000   1.0000   1.0000   1.0000   1.0000
     1.0000   0.0000   0.0000   0.0000   0.0000   0.0000   0.0000   0.0000
     0.0000   0.0000   0.0000   0.0000

          k = 0.0869 0.2185-0.3674 ( 19119 PWs)   bands (ev):

  -101.4200 -93.4801 -64.6855 -64.6316 -59.3884 -58.7135 -58.6125 -54.2038
   -54.0343 -53.9657 -28.9959 -28.9582 -28.9080 -28.8697 -28.7949 -28.7682
    -7.9727  -7.7379  -7.2521  -7.1399  -6.6062  -6.4590  -6.2222  -6.1385
     2.3328   2.4101   2.6972   2.8173   3.0957   3.2769   3.6686   3.7758
     4.0293   4.4667   4.6871   5.1146   5.4030   5.5714   5.7354   6.0303
     6.1252   6.2721   6.5996   6.9861   7.2992   7.4586   7.7083   7.8542
     8.1432   8.2433   8.3658   9.2186   9.2761   9.4036   9.5617   9.7533
     9.9852  12.1901  12.5634  12.8979  13.3027  13.5220  14.1002  14.2514
    16.0071  16.1844  18.1744  18.7333

     occupation numbers 
     1.0000   1.0000   1.0000   1.0000   1.0000   1.0000   1.0000   1.0000
     1.0000   1.0000   1.0000   1.0000   1.0000   1.0000   1.0000   1.0000
     1.0000   1.0000   1.0000   1.0000   1.0000   1.0000   1.0000   1.0000
     1.0000   1.0000   1.0000   1.0000   1.0000   1.0000   1.0000   1.0000
     1.0000   1.0000   1.0000   1.0000   1.0000   1.0000   1.0000   1.0000
     1.0000   1.0000   1.0000   1.0000   1.0000   1.0000   1.0000   1.0000
     1.0000   1.0000   1.0000   1.0000   1.0000   1.0000   1.0000   1.0000
     1.0000   0.0000   0.0000   0.0000   0.0000   0.0000   0.0000   0.0000
     0.0000   0.0000   0.0000   0.0000

          k = 0.0856 0.2185-0.2250 ( 19106 PWs)   bands (ev):

  -101.4200 -93.4801 -64.6856 -64.6316 -59.3884 -58.7135 -58.6125 -54.2038
   -54.0343 -53.9657 -28.9989 -28.9515 -28.9130 -28.8622 -28.8067 -28.7624
    -8.1740  -7.5430  -7.2150  -7.1823  -6.6266  -6.3895  -6.2892  -6.0889
     2.3543   2.4113   2.7483   2.8105   3.0774   3.2438   3.5938   3.7881
     4.0014   4.5810   4.7863   5.0128   5.2177   5.4504   5.6844   6.0627
     6.1829   6.3687   6.6159   6.9253   7.2599   7.4988   7.6519   8.0404
     8.1619   8.4425   8.5687   9.0933   9.1511   9.2906   9.5487   9.7230
     9.9662  12.2807  12.6742  12.8317  13.3194  13.6651  14.0416  14.3699
    15.7660  15.8595  17.9771  18.7056

     occupation numbers 
     1.0000   1.0000   1.0000   1.0000   1.0000   1.0000   1.0000   1.0000
     1.0000   1.0000   1.0000   1.0000   1.0000   1.0000   1.0000   1.0000
     1.0000   1.0000   1.0000   1.0000   1.0000   1.0000   1.0000   1.0000
     1.0000   1.0000   1.0000   1.0000   1.0000   1.0000   1.0000   1.0000
     1.0000   1.0000   1.0000   1.0000   1.0000   1.0000   1.0000   1.0000
     1.0000   1.0000   1.0000   1.0000   1.0000   1.0000   1.0000   1.0000
     1.0000   1.0000   1.0000   1.0000   1.0000   1.0000   1.0000   1.0000
     1.0000   0.0000   0.0000   0.0000   0.0000   0.0000   0.0000   0.0000
     0.0000   0.0000   0.0000   0.0000

          k = 0.0842 0.2185-0.0826 ( 19142 PWs)   bands (ev):

  -101.4200 -93.4802 -64.6857 -64.6315 -59.3884 -58.7135 -58.6125 -54.2038
   -54.0343 -53.9657 -29.0005 -28.9465 -28.9178 -28.8533 -28.8174 -28.7588
    -8.3044  -7.4540  -7.2063  -7.1232  -6.6644  -6.3629  -6.3166  -6.0577
     2.3739   2.4196   2.7285   2.8225   3.1342   3.2402   3.5484   3.8008
     3.9139   4.6605   4.7718   4.9486   5.1713   5.3588   5.6391   6.1311
     6.2940   6.5095   6.6174   6.7814   7.0834   7.4871   7.8242   8.0531
     8.2000   8.4697   8.7839   8.9375   9.0860   9.3164   9.4627   9.7674
     9.9783  12.3234  12.7608  12.7954  13.2731  13.7852  13.9246  14.4710
    15.6147  15.7049  17.9862  18.4796

     occupation numbers 
     1.0000   1.0000   1.0000   1.0000   1.0000   1.0000   1.0000   1.0000
     1.0000   1.0000   1.0000   1.0000   1.0000   1.0000   1.0000   1.0000
     1.0000   1.0000   1.0000   1.0000   1.0000   1.0000   1.0000   1.0000
     1.0000   1.0000   1.0000   1.0000   1.0000   1.0000   1.0000   1.0000
     1.0000   1.0000   1.0000   1.0000   1.0000   1.0000   1.0000   1.0000
     1.0000   1.0000   1.0000   1.0000   1.0000   1.0000   1.0000   1.0000
     1.0000   1.0000   1.0000   1.0000   1.0000   1.0000   1.0000   1.0000
     1.0000   0.0000   0.0000   0.0000   0.0000   0.0000   0.0000   0.0000
     0.0000   0.0000   0.0000   0.0000

          k = 0.0829 0.3657 0.0564 ( 19138 PWs)   bands (ev):

  -101.4200 -93.4802 -64.6857 -64.6315 -59.3884 -58.7135 -58.6125 -54.2038
   -54.0343 -53.9657 -28.9996 -28.9469 -28.9176 -28.8542 -28.8174 -28.7591
    -8.0372  -7.6620  -7.2623  -7.1037  -6.6870  -6.4883  -6.3162  -6.0012
     2.4096   2.5153   2.7967   2.8790   3.2202   3.3147   3.6860   3.7821
     3.9757   4.6619   4.8077   4.9018   5.1213   5.3395   5.5613   5.8755
     6.2075   6.4168   6.4524   6.7342   7.3845   7.6357   7.7280   8.0745
     8.2393   8.5829   8.6641   8.8333   9.0651   9.1807   9.4134   9.5405
     9.9619  12.4563  12.8338  12.8872  13.2813  13.4299  13.8160  14.6489
    15.7753  15.9075  18.0363  18.5255

     occupation numbers 
     1.0000   1.0000   1.0000   1.0000   1.0000   1.0000   1.0000   1.0000
     1.0000   1.0000   1.0000   1.0000   1.0000   1.0000   1.0000   1.0000
     1.0000   1.0000   1.0000   1.0000   1.0000   1.0000   1.0000   1.0000
     1.0000   1.0000   1.0000   1.0000   1.0000   1.0000   1.0000   1.0000
     1.0000   1.0000   1.0000   1.0000   1.0000   1.0000   1.0000   1.0000
     1.0000   1.0000   1.0000   1.0000   1.0000   1.0000   1.0000   1.0000
     1.0000   1.0000   1.0000   1.0000   1.0000   1.0000   1.0000   1.0000
     1.0000   0.0000   0.0000   0.0000   0.0000   0.0000   0.0000   0.0000
     0.0000   0.0000   0.0000   0.0000

          k = 0.0815 0.3657 0.1988 ( 19130 PWs)   bands (ev):

  -101.4200 -93.4802 -64.6856 -64.6316 -59.3884 -58.7135 -58.6125 -54.2038
   -54.0343 -53.9657 -28.9981 -28.9537 -28.9131 -28.8622 -28.8058 -28.7622
    -7.9450  -7.6835  -7.2912  -7.0971  -6.6641  -6.4874  -6.3750  -6.0390
     2.4002   2.5010   2.7673   2.8875   3.2125   3.3674   3.7598   3.8045
     3.9638   4.4898   4.8297   4.9992   5.1585   5.3776   5.6650   5.8630
     6.0871   6.3859   6.5804   6.7701   7.2635   7.6899   7.9257   7.9756
     8.2112   8.2850   8.5799   8.8861   9.1089   9.2098   9.4306   9.5531
     9.9598  12.4338  12.6293  13.0221  13.1519  13.4194  13.8216  14.5881
    16.0127  16.2053  18.0274  18.6033

     occupation numbers 
     1.0000   1.0000   1.0000   1.0000   1.0000   1.0000   1.0000   1.0000
     1.0000   1.0000   1.0000   1.0000   1.0000   1.0000   1.0000   1.0000
     1.0000   1.0000   1.0000   1.0000   1.0000   1.0000   1.0000   1.0000
     1.0000   1.0000   1.0000   1.0000   1.0000   1.0000   1.0000   1.0000
     1.0000   1.0000   1.0000   1.0000   1.0000   1.0000   1.0000   1.0000
     1.0000   1.0000   1.0000   1.0000   1.0000   1.0000   1.0000   1.0000
     1.0000   1.0000   1.0000   1.0000   1.0000   1.0000   1.0000   1.0000
     1.0000   0.0000   0.0000   0.0000   0.0000   0.0000   0.0000   0.0000
     0.0000   0.0000   0.0000   0.0000

          k = 0.0801 0.3657 0.3413 ( 19128 PWs)   bands (ev):

  -101.4201 -93.4801 -64.6855 -64.6316 -59.3884 -58.7135 -58.6125 -54.2038
   -54.0343 -53.9657 -28.9959 -28.9604 -28.9082 -28.8694 -28.7936 -28.7678
    -7.8148  -7.7212  -7.3029  -7.0816  -6.6864  -6.6276  -6.2652  -6.1067
     2.3858   2.4916   2.7458   2.8890   3.2164   3.3760   3.7851   3.8673
     3.9777   4.4026   4.7559   4.9405   5.1306   5.5138   5.7713   6.0610
     6.1621   6.5154   6.6540   6.8116   7.1972   7.4522   7.7037   7.8359
     7.9390   8.1612   8.6720   8.9835   9.2147   9.3612   9.4966   9.6324
     9.9035  12.3781  12.4903  12.8780  13.2856  13.4330  13.9223  14.4387
    16.1690  16.3735  18.0932  18.6029

     occupation numbers 
     1.0000   1.0000   1.0000   1.0000   1.0000   1.0000   1.0000   1.0000
     1.0000   1.0000   1.0000   1.0000   1.0000   1.0000   1.0000   1.0000
     1.0000   1.0000   1.0000   1.0000   1.0000   1.0000   1.0000   1.0000
     1.0000   1.0000   1.0000   1.0000   1.0000   1.0000   1.0000   1.0000
     1.0000   1.0000   1.0000   1.0000   1.0000   1.0000   1.0000   1.0000
     1.0000   1.0000   1.0000   1.0000   1.0000   1.0000   1.0000   1.0000
     1.0000   1.0000   1.0000   1.0000   1.0000   1.0000   1.0000   1.0000
     1.0000   0.0000   0.0000   0.0000   0.0000   0.0000   0.0000   0.0000
     0.0000   0.0000   0.0000   0.0000

          k = 0.0870 0.3657-0.3709 ( 19114 PWs)   bands (ev):

  -101.4201 -93.4801 -64.6854 -64.6316 -59.3884 -58.7135 -58.6125 -54.2038
   -54.0343 -53.9657 -28.9963 -28.9597 -28.9080 -28.8697 -28.7939 -28.7677
    -7.8633  -7.6396  -7.2680  -7.1315  -6.7722  -6.5910  -6.2132  -6.1276
     2.3797   2.4927   2.7752   2.8774   3.1872   3.3302   3.7907   3.8440
     4.0258   4.4271   4.6787   4.8641   5.2972   5.6879   5.8144   6.0839
     6.1024   6.2826   6.6222   6.8748   7.2161   7.3979   7.6192   7.8508
     8.0698   8.1190   8.6522   9.0258   9.2170   9.3944   9.5967   9.6336
     9.7753  12.3825  12.4976  12.8764  13.2950  13.4803  14.1392  14.2693
    16.0726  16.2478  18.1108  18.5486

     occupation numbers 
     1.0000   1.0000   1.0000   1.0000   1.0000   1.0000   1.0000   1.0000
     1.0000   1.0000   1.0000   1.0000   1.0000   1.0000   1.0000   1.0000
     1.0000   1.0000   1.0000   1.0000   1.0000   1.0000   1.0000   1.0000
     1.0000   1.0000   1.0000   1.0000   1.0000   1.0000   1.0000   1.0000
     1.0000   1.0000   1.0000   1.0000   1.0000   1.0000   1.0000   1.0000
     1.0000   1.0000   1.0000   1.0000   1.0000   1.0000   1.0000   1.0000
     1.0000   1.0000   1.0000   1.0000   1.0000   1.0000   1.0000   1.0000
     1.0000   0.0000   0.0000   0.0000   0.0000   0.0000   0.0000   0.0000
     0.0000   0.0000   0.0000   0.0000

          k = 0.0856 0.3657-0.2285 ( 19110 PWs)   bands (ev):

  -101.4200 -93.4802 -64.6855 -64.6316 -59.3884 -58.7135 -58.6125 -54.2038
   -54.0343 -53.9657 -28.9987 -28.9524 -28.9129 -28.8627 -28.8063 -28.7623
    -7.9691  -7.6030  -7.2385  -7.1767  -6.7510  -6.5197  -6.2737  -6.0507
     2.3919   2.5045   2.8161   2.8613   3.1613   3.2977   3.7681   3.7858
     4.0184   4.5598   4.6636   4.9682   5.3072   5.5432   5.5881   5.8976
     6.2673   6.3263   6.5446   6.8296   7.0270   7.4895   7.7257   8.1347
     8.2590   8.3732   8.6943   8.9625   9.1427   9.2282   9.3739   9.5400
     9.8970  12.5041  12.6230  12.8460  13.3089  13.5434  14.0930  14.4020
    15.8277  15.9377  18.1705  18.3853

     occupation numbers 
     1.0000   1.0000   1.0000   1.0000   1.0000   1.0000   1.0000   1.0000
     1.0000   1.0000   1.0000   1.0000   1.0000   1.0000   1.0000   1.0000
     1.0000   1.0000   1.0000   1.0000   1.0000   1.0000   1.0000   1.0000
     1.0000   1.0000   1.0000   1.0000   1.0000   1.0000   1.0000   1.0000
     1.0000   1.0000   1.0000   1.0000   1.0000   1.0000   1.0000   1.0000
     1.0000   1.0000   1.0000   1.0000   1.0000   1.0000   1.0000   1.0000
     1.0000   1.0000   1.0000   1.0000   1.0000   1.0000   1.0000   1.0000
     1.0000   0.0000   0.0000   0.0000   0.0000   0.0000   0.0000   0.0000
     0.0000   0.0000   0.0000   0.0000

          k = 0.0843 0.3657-0.0860 ( 19143 PWs)   bands (ev):

  -101.4200 -93.4802 -64.6857 -64.6315 -59.3884 -58.7135 -58.6125 -54.2038
   -54.0343 -53.9657 -28.9999 -28.9463 -28.9176 -28.8545 -28.8176 -28.7592
    -8.0413  -7.6346  -7.2510  -7.1276  -6.7128  -6.5057  -6.2796  -6.0055
     2.4072   2.5194   2.8051   2.8718   3.1795   3.3151   3.6826   3.7817
     3.9951   4.6749   4.7857   4.8949   5.1178   5.3493   5.5108   5.9936
     6.2573   6.4542   6.5274   6.7166   7.0806   7.6458   7.7999   7.9902
     8.3054   8.5476   8.7204   8.9048   9.0507   9.2411   9.3634   9.5256
     9.9487  12.5257  12.7156  12.8844  13.3113  13.5632  13.9040  14.5876
    15.7145  15.7389  18.1663  18.3409

     occupation numbers 
     1.0000   1.0000   1.0000   1.0000   1.0000   1.0000   1.0000   1.0000
     1.0000   1.0000   1.0000   1.0000   1.0000   1.0000   1.0000   1.0000
     1.0000   1.0000   1.0000   1.0000   1.0000   1.0000   1.0000   1.0000
     1.0000   1.0000   1.0000   1.0000   1.0000   1.0000   1.0000   1.0000
     1.0000   1.0000   1.0000   1.0000   1.0000   1.0000   1.0000   1.0000
     1.0000   1.0000   1.0000   1.0000   1.0000   1.0000   1.0000   1.0000
     1.0000   1.0000   1.0000   1.0000   1.0000   1.0000   1.0000   1.0000
     1.0000   0.0000   0.0000   0.0000   0.0000   0.0000   0.0000   0.0000
     0.0000   0.0000   0.0000   0.0000

          k = 0.0825-0.3703 0.0738 ( 19135 PWs)   bands (ev):

  -101.4200 -93.4802 -64.6858 -64.6315 -59.3884 -58.7135 -58.6125 -54.2038
   -54.0343 -53.9657 -28.9997 -28.9464 -28.9175 -28.8545 -28.8176 -28.7592
    -8.0057  -7.6943  -7.2760  -7.0975  -6.7015  -6.4824  -6.3042  -5.9943
     2.4203   2.5540   2.7990   2.8328   3.2149   3.3242   3.6623   3.7824
     3.9792   4.6429   4.7642   4.9913   5.1198   5.2973   5.5854   5.8213
     6.1579   6.4061   6.6196   6.7527   7.3079   7.6320   7.7732   8.1049
     8.2502   8.5505   8.6619   8.8275   8.9754   9.2019   9.4173   9.5286
     9.9475  12.5529  12.8439  12.8640  13.2829  13.4197  13.8057  14.6570
    15.7941  15.8866  18.0384  18.5246

     occupation numbers 
     1.0000   1.0000   1.0000   1.0000   1.0000   1.0000   1.0000   1.0000
     1.0000   1.0000   1.0000   1.0000   1.0000   1.0000   1.0000   1.0000
     1.0000   1.0000   1.0000   1.0000   1.0000   1.0000   1.0000   1.0000
     1.0000   1.0000   1.0000   1.0000   1.0000   1.0000   1.0000   1.0000
     1.0000   1.0000   1.0000   1.0000   1.0000   1.0000   1.0000   1.0000
     1.0000   1.0000   1.0000   1.0000   1.0000   1.0000   1.0000   1.0000
     1.0000   1.0000   1.0000   1.0000   1.0000   1.0000   1.0000   1.0000
     1.0000   0.0000   0.0000   0.0000   0.0000   0.0000   0.0000   0.0000
     0.0000   0.0000   0.0000   0.0000

          k = 0.0812-0.3704 0.2163 ( 19117 PWs)   bands (ev):

  -101.4200 -93.4802 -64.6857 -64.6316 -59.3884 -58.7135 -58.6125 -54.2038
   -54.0343 -53.9657 -28.9985 -28.9525 -28.9128 -28.8626 -28.8063 -28.7623
    -7.9467  -7.6349  -7.3218  -7.1299  -6.7025  -6.4337  -6.3859  -6.0251
     2.4129   2.5307   2.7925   2.8499   3.1752   3.3511   3.7379   3.8222
     3.9957   4.4700   4.7851   5.0752   5.1474   5.3793   5.6286   5.8335
     6.1094   6.3750   6.7066   6.8240   7.1429   7.6192   7.9399   7.9908
     8.2486   8.3757   8.5369   8.8433   9.0399   9.2459   9.4241   9.5403
     9.9398  12.5149  12.6034  13.0126  13.1811  13.4077  13.8352  14.5909
    16.0254  16.1963  18.0393  18.6709

     occupation numbers 
     1.0000   1.0000   1.0000   1.0000   1.0000   1.0000   1.0000   1.0000
     1.0000   1.0000   1.0000   1.0000   1.0000   1.0000   1.0000   1.0000
     1.0000   1.0000   1.0000   1.0000   1.0000   1.0000   1.0000   1.0000
     1.0000   1.0000   1.0000   1.0000   1.0000   1.0000   1.0000   1.0000
     1.0000   1.0000   1.0000   1.0000   1.0000   1.0000   1.0000   1.0000
     1.0000   1.0000   1.0000   1.0000   1.0000   1.0000   1.0000   1.0000
     1.0000   1.0000   1.0000   1.0000   1.0000   1.0000   1.0000   1.0000
     1.0000   0.0000   0.0000   0.0000   0.0000   0.0000   0.0000   0.0000
     0.0000   0.0000   0.0000   0.0000

          k = 0.0798-0.3704 0.3587 ( 19109 PWs)   bands (ev):

  -101.4201 -93.4801 -64.6855 -64.6316 -59.3884 -58.7135 -58.6125 -54.2038
   -54.0343 -53.9657 -28.9962 -28.9598 -28.9081 -28.8695 -28.7939 -28.7678
    -7.8569  -7.6236  -7.3136  -7.1467  -6.7634  -6.5366  -6.2746  -6.0892
     2.4006   2.5203   2.7712   2.8649   3.1638   3.3692   3.7666   3.8850
     3.9927   4.3688   4.7513   4.9004   5.1886   5.4796   5.8086   6.0920
     6.2844   6.4770   6.6106   6.7548   7.1434   7.4961   7.6717   7.8296
     8.0780   8.1894   8.5671   8.9265   9.1673   9.3428   9.5064   9.7078
     9.8930  12.3501  12.5774  12.8800  13.3268  13.3685  13.9325  14.4384
    16.1826  16.3609  18.1001  18.6630

     occupation numbers 
     1.0000   1.0000   1.0000   1.0000   1.0000   1.0000   1.0000   1.0000
     1.0000   1.0000   1.0000   1.0000   1.0000   1.0000   1.0000   1.0000
     1.0000   1.0000   1.0000   1.0000   1.0000   1.0000   1.0000   1.0000
     1.0000   1.0000   1.0000   1.0000   1.0000   1.0000   1.0000   1.0000
     1.0000   1.0000   1.0000   1.0000   1.0000   1.0000   1.0000   1.0000
     1.0000   1.0000   1.0000   1.0000   1.0000   1.0000   1.0000   1.0000
     1.0000   1.0000   1.0000   1.0000   1.0000   1.0000   1.0000   1.0000
     1.0000   0.0000   0.0000   0.0000   0.0000   0.0000   0.0000   0.0000
     0.0000   0.0000   0.0000   0.0000

          k = 0.0867-0.3703-0.3535 ( 19100 PWs)   bands (ev):

  -101.4201 -93.4802 -64.6855 -64.6316 -59.3884 -58.7135 -58.6125 -54.2038
   -54.0343 -53.9657 -28.9959 -28.9604 -28.9083 -28.8693 -28.7937 -28.7678
    -7.8151  -7.6946  -7.2546  -7.1428  -6.7950  -6.5749  -6.1960  -6.1318
     2.3995   2.5264   2.7627   2.8698   3.1750   3.3409   3.7716   3.8539
     3.9537   4.4210   4.6760   4.8317   5.4169   5.6535   5.7714   6.0528
     6.2256   6.2483   6.6097   6.9884   7.0900   7.4749   7.6296   7.8548
     8.0140   8.1714   8.5926   8.9618   9.1616   9.3302   9.6209   9.6533
     9.8870  12.3819  12.6108  12.8715  13.2473  13.4366  14.1173  14.2867
    16.0716  16.2460  18.1078  18.5403

     occupation numbers 
     1.0000   1.0000   1.0000   1.0000   1.0000   1.0000   1.0000   1.0000
     1.0000   1.0000   1.0000   1.0000   1.0000   1.0000   1.0000   1.0000
     1.0000   1.0000   1.0000   1.0000   1.0000   1.0000   1.0000   1.0000
     1.0000   1.0000   1.0000   1.0000   1.0000   1.0000   1.0000   1.0000
     1.0000   1.0000   1.0000   1.0000   1.0000   1.0000   1.0000   1.0000
     1.0000   1.0000   1.0000   1.0000   1.0000   1.0000   1.0000   1.0000
     1.0000   1.0000   1.0000   1.0000   1.0000   1.0000   1.0000   1.0000
     1.0000   0.0000   0.0000   0.0000   0.0000   0.0000   0.0000   0.0000
     0.0000   0.0000   0.0000   0.0000

          k = 0.0853-0.3703-0.2110 ( 19106 PWs)   bands (ev):

  -101.4200 -93.4802 -64.6856 -64.6315 -59.3884 -58.7135 -58.6125 -54.2038
   -54.0343 -53.9657 -28.9981 -28.9536 -28.9132 -28.8621 -28.8058 -28.7622
    -7.8965  -7.7228  -7.2563  -7.1036  -6.7557  -6.5369  -6.2536  -6.0557
     2.4078   2.5489   2.7731   2.8573   3.1601   3.3449   3.7285   3.7665
     3.9665   4.5292   4.6872   5.0092   5.2402   5.5575   5.6492   5.9118
     6.2532   6.3108   6.5513   6.7782   7.1324   7.5849   7.7036   8.1199
     8.2214   8.3408   8.7145   8.9155   9.0456   9.2099   9.3620   9.5750
     9.9788  12.5010  12.7563  12.9070  13.2185  13.4534  14.0701  14.4155
    15.8010  15.9581  18.1618  18.3559

     occupation numbers 
     1.0000   1.0000   1.0000   1.0000   1.0000   1.0000   1.0000   1.0000
     1.0000   1.0000   1.0000   1.0000   1.0000   1.0000   1.0000   1.0000
     1.0000   1.0000   1.0000   1.0000   1.0000   1.0000   1.0000   1.0000
     1.0000   1.0000   1.0000   1.0000   1.0000   1.0000   1.0000   1.0000
     1.0000   1.0000   1.0000   1.0000   1.0000   1.0000   1.0000   1.0000
     1.0000   1.0000   1.0000   1.0000   1.0000   1.0000   1.0000   1.0000
     1.0000   1.0000   1.0000   1.0000   1.0000   1.0000   1.0000   1.0000
     1.0000   0.0000   0.0000   0.0000   0.0000   0.0000   0.0000   0.0000
     0.0000   0.0000   0.0000   0.0000

          k = 0.0839-0.3703-0.0686 ( 19116 PWs)   bands (ev):

  -101.4200 -93.4802 -64.6857 -64.6315 -59.3884 -58.7135 -58.6125 -54.2038
   -54.0343 -53.9657 -28.9996 -28.9468 -28.9177 -28.8542 -28.8174 -28.7591
    -7.9875  -7.7238  -7.2566  -7.0844  -6.7207  -6.5105  -6.2670  -6.0059
     2.4158   2.5686   2.7889   2.8330   3.1722   3.3636   3.6522   3.7622
     3.9712   4.6699   4.7438   4.9534   5.1096   5.3353   5.5681   5.9150
     6.2883   6.4538   6.5423   6.7277   7.0795   7.6710   7.8487   8.0020
     8.3859   8.5323   8.6443   8.8649   8.9449   9.1772   9.4164   9.5670
     9.9640  12.5547  12.7700  12.9744  13.2713  13.4681  13.8878  14.5963
    15.6810  15.7645  18.1602  18.3128

     occupation numbers 
     1.0000   1.0000   1.0000   1.0000   1.0000   1.0000   1.0000   1.0000
     1.0000   1.0000   1.0000   1.0000   1.0000   1.0000   1.0000   1.0000
     1.0000   1.0000   1.0000   1.0000   1.0000   1.0000   1.0000   1.0000
     1.0000   1.0000   1.0000   1.0000   1.0000   1.0000   1.0000   1.0000
     1.0000   1.0000   1.0000   1.0000   1.0000   1.0000   1.0000   1.0000
     1.0000   1.0000   1.0000   1.0000   1.0000   1.0000   1.0000   1.0000
     1.0000   1.0000   1.0000   1.0000   1.0000   1.0000   1.0000   1.0000
     1.0000   0.0000   0.0000   0.0000   0.0000   0.0000   0.0000   0.0000
     0.0000   0.0000   0.0000   0.0000

          k = 0.0826-0.2231 0.0703 ( 19121 PWs)   bands (ev):

  -101.4200 -93.4802 -64.6859 -64.6316 -59.3884 -58.7135 -58.6125 -54.2038
   -54.0343 -53.9657 -29.0002 -28.9465 -28.9178 -28.8534 -28.8173 -28.7588
    -8.2970  -7.4838  -7.2319  -7.0545  -6.7005  -6.4167  -6.2646  -6.0380
     2.3849   2.5097   2.6803   2.7785   3.1578   3.2654   3.5226   3.7831
     3.8954   4.5852   4.7506   5.0652   5.1846   5.3326   5.7443   5.9770
     6.1370   6.4362   6.7691   7.0318   7.1148   7.4995   7.8364   8.0248
     8.2327   8.4217   8.6866   8.8718   9.0723   9.1671   9.4634   9.8088
     9.9933  12.4671  12.7401  12.8543  13.2927  13.6322  13.8381  14.5225
    15.7706  15.8042  17.9289  18.4308

     occupation numbers 
     1.0000   1.0000   1.0000   1.0000   1.0000   1.0000   1.0000   1.0000
     1.0000   1.0000   1.0000   1.0000   1.0000   1.0000   1.0000   1.0000
     1.0000   1.0000   1.0000   1.0000   1.0000   1.0000   1.0000   1.0000
     1.0000   1.0000   1.0000   1.0000   1.0000   1.0000   1.0000   1.0000
     1.0000   1.0000   1.0000   1.0000   1.0000   1.0000   1.0000   1.0000
     1.0000   1.0000   1.0000   1.0000   1.0000   1.0000   1.0000   1.0000
     1.0000   1.0000   1.0000   1.0000   1.0000   1.0000   1.0000   1.0000
     1.0000   0.0000   0.0000   0.0000   0.0000   0.0000   0.0000   0.0000
     0.0000   0.0000   0.0000   0.0000

          k = 0.0812-0.2231 0.2128 ( 19126 PWs)   bands (ev):

  -101.4200 -93.4801 -64.6858 -64.6316 -59.3884 -58.7135 -58.6125 -54.2038
   -54.0343 -53.9657 -28.9986 -28.9515 -28.9129 -28.8621 -28.8067 -28.7625
    -8.1986  -7.5001  -7.2637  -7.1093  -6.6866  -6.4432  -6.2492  -6.0576
     2.3872   2.4872   2.7134   2.7689   3.0969   3.2494   3.6038   3.7690
     3.9882   4.5420   4.6831   5.0680   5.2363   5.4634   5.7478   5.8654
     6.2224   6.5211   6.7404   7.0022   7.1841   7.5783   7.7274   7.8613
     8.0740   8.4320   8.6024   8.8165   9.1077   9.3229   9.5708   9.7363
     9.9894  12.3407  12.6722  12.9942  13.3054  13.4538  13.8776  14.4664
    16.0122  16.1454  17.9373  18.5063

     occupation numbers 
     1.0000   1.0000   1.0000   1.0000   1.0000   1.0000   1.0000   1.0000
     1.0000   1.0000   1.0000   1.0000   1.0000   1.0000   1.0000   1.0000
     1.0000   1.0000   1.0000   1.0000   1.0000   1.0000   1.0000   1.0000
     1.0000   1.0000   1.0000   1.0000   1.0000   1.0000   1.0000   1.0000
     1.0000   1.0000   1.0000   1.0000   1.0000   1.0000   1.0000   1.0000
     1.0000   1.0000   1.0000   1.0000   1.0000   1.0000   1.0000   1.0000
     1.0000   1.0000   1.0000   1.0000   1.0000   1.0000   1.0000   1.0000
     1.0000   0.0000   0.0000   0.0000   0.0000   0.0000   0.0000   0.0000
     0.0000   0.0000   0.0000   0.0000

          k = 0.0798-0.2232 0.3552 ( 19099 PWs)   bands (ev):

  -101.4200 -93.4801 -64.6857 -64.6316 -59.3884 -58.7135 -58.6125 -54.2038
   -54.0343 -53.9657 -28.9958 -28.9583 -28.9080 -28.8694 -28.7950 -28.7682
    -8.0177  -7.6507  -7.2588  -7.1643  -6.6908  -6.4143  -6.2254  -6.1050
     2.3822   2.4743   2.6882   2.7732   3.0750   3.2629   3.6667   3.7822
     4.0015   4.4548   4.6463   5.0217   5.3797   5.5604   5.8332   5.9598
     6.2815   6.5295   6.6112   6.9200   7.1889   7.4823   7.7267   7.8457
     7.9593   8.1990   8.4544   9.0474   9.2422   9.4111   9.6520   9.7833
     9.9699  12.2158  12.6084  13.0628  13.2335  13.3867  13.9773  14.3471
    16.1376  16.3159  18.3091  18.4613

     occupation numbers 
     1.0000   1.0000   1.0000   1.0000   1.0000   1.0000   1.0000   1.0000
     1.0000   1.0000   1.0000   1.0000   1.0000   1.0000   1.0000   1.0000
     1.0000   1.0000   1.0000   1.0000   1.0000   1.0000   1.0000   1.0000
     1.0000   1.0000   1.0000   1.0000   1.0000   1.0000   1.0000   1.0000
     1.0000   1.0000   1.0000   1.0000   1.0000   1.0000   1.0000   1.0000
     1.0000   1.0000   1.0000   1.0000   1.0000   1.0000   1.0000   1.0000
     1.0000   1.0000   1.0000   1.0000   1.0000   1.0000   1.0000   1.0000
     1.0000   0.0000   0.0000   0.0000   0.0000   0.0000   0.0000   0.0000
     0.0000   0.0000   0.0000   0.0000

          k = 0.0867-0.2231-0.3570 ( 19128 PWs)   bands (ev):

  -101.4200 -93.4801 -64.6856 -64.6316 -59.3884 -58.7135 -58.6125 -54.2038
   -54.0343 -53.9657 -28.9951 -28.9596 -28.9084 -28.8689 -28.7943 -28.7683
    -7.9160  -7.7900  -7.2354  -7.1814  -6.6344  -6.4342  -6.1783  -6.1560
     2.3850   2.4743   2.6537   2.7990   3.0975   3.2570   3.6455   3.7869
     3.9352   4.4535   4.7203   4.9859   5.5256   5.5820   5.6876   5.9818
     6.2069   6.3545   6.6704   7.1100   7.2232   7.5258   7.6746   7.8224
     8.0413   8.1049   8.3943   9.1153   9.2524   9.4754   9.6332   9.7581
     9.9935  12.2592  12.6095  13.0468  13.2544  13.3504  14.0571  14.2840
    16.0094  16.1748  18.1489  18.7309

     occupation numbers 
     1.0000   1.0000   1.0000   1.0000   1.0000   1.0000   1.0000   1.0000
     1.0000   1.0000   1.0000   1.0000   1.0000   1.0000   1.0000   1.0000
     1.0000   1.0000   1.0000   1.0000   1.0000   1.0000   1.0000   1.0000
     1.0000   1.0000   1.0000   1.0000   1.0000   1.0000   1.0000   1.0000
     1.0000   1.0000   1.0000   1.0000   1.0000   1.0000   1.0000   1.0000
     1.0000   1.0000   1.0000   1.0000   1.0000   1.0000   1.0000   1.0000
     1.0000   1.0000   1.0000   1.0000   1.0000   1.0000   1.0000   1.0000
     1.0000   0.0000   0.0000   0.0000   0.0000   0.0000   0.0000   0.0000
     0.0000   0.0000   0.0000   0.0000

          k = 0.0854-0.2231-0.2145 ( 19100 PWs)   bands (ev):

  -101.4200 -93.4802 -64.6857 -64.6316 -59.3884 -58.7135 -58.6125 -54.2038
   -54.0343 -53.9657 -28.9977 -28.9539 -28.9137 -28.8611 -28.8058 -28.7622
    -8.1312  -7.6434  -7.2219  -7.1361  -6.5946  -6.4298  -6.2520  -6.0964
     2.3860   2.5000   2.6504   2.8150   3.1054   3.2788   3.5448   3.7591
     3.9069   4.5572   4.8890   4.9634   5.1957   5.4240   5.7008   5.9803
     6.1638   6.5674   6.6654   6.9165   7.3410   7.6182   7.7162   7.8465
     8.1089   8.3269   8.5966   9.0310   9.0853   9.2609   9.5675   9.8164
     9.9982  12.3874  12.7154  12.9875  13.2460  13.4630  14.0028  14.3906
    15.7196  15.8932  17.9425  18.6549

     occupation numbers 
     1.0000   1.0000   1.0000   1.0000   1.0000   1.0000   1.0000   1.0000
     1.0000   1.0000   1.0000   1.0000   1.0000   1.0000   1.0000   1.0000
     1.0000   1.0000   1.0000   1.0000   1.0000   1.0000   1.0000   1.0000
     1.0000   1.0000   1.0000   1.0000   1.0000   1.0000   1.0000   1.0000
     1.0000   1.0000   1.0000   1.0000   1.0000   1.0000   1.0000   1.0000
     1.0000   1.0000   1.0000   1.0000   1.0000   1.0000   1.0000   1.0000
     1.0000   1.0000   1.0000   1.0000   1.0000   1.0000   1.0000   1.0000
     1.0000   0.0000   0.0000   0.0000   0.0000   0.0000   0.0000   0.0000
     0.0000   0.0000   0.0000   0.0000

          k = 0.0840-0.2231-0.0721 ( 19118 PWs)   bands (ev):

  -101.4200 -93.4802 -64.6859 -64.6315 -59.3884 -58.7135 -58.6125 -54.2038
   -54.0343 -53.9657 -28.9999 -28.9476 -28.9181 -28.8528 -28.8170 -28.7586
    -8.2746  -7.5404  -7.2142  -7.0731  -6.6576  -6.3933  -6.2771  -6.0556
     2.3809   2.5249   2.6578   2.7925   3.1240   3.3234   3.4910   3.7677
     3.8636   4.6258   4.8264   4.9759   5.1827   5.3009   5.7201   5.9591
     6.2675   6.5727   6.6385   6.8083   7.1723   7.6284   7.8487   8.0433
     8.2478   8.4312   8.6122   8.8921   9.0511   9.1505   9.5462   9.8554
     9.9672  12.4604  12.7933  12.8646  13.2287  13.6560  13.9057  14.4907
    15.5749  15.7288  17.9590  18.4589

     occupation numbers 
     1.0000   1.0000   1.0000   1.0000   1.0000   1.0000   1.0000   1.0000
     1.0000   1.0000   1.0000   1.0000   1.0000   1.0000   1.0000   1.0000
     1.0000   1.0000   1.0000   1.0000   1.0000   1.0000   1.0000   1.0000
     1.0000   1.0000   1.0000   1.0000   1.0000   1.0000   1.0000   1.0000
     1.0000   1.0000   1.0000   1.0000   1.0000   1.0000   1.0000   1.0000
     1.0000   1.0000   1.0000   1.0000   1.0000   1.0000   1.0000   1.0000
     1.0000   1.0000   1.0000   1.0000   1.0000   1.0000   1.0000   1.0000
     1.0000   0.0000   0.0000   0.0000   0.0000   0.0000   0.0000   0.0000
     0.0000   0.0000   0.0000   0.0000

          k = 0.0827-0.0759 0.0668 ( 19108 PWs)   bands (ev):

  -101.4200 -93.4802 -64.6860 -64.6316 -59.3884 -58.7135 -58.6125 -54.2038
   -54.0343 -53.9657 -29.0007 -28.9472 -28.9182 -28.8521 -28.8169 -28.7583
    -8.4660  -7.4464  -7.1736  -7.0074  -6.5540  -6.4640  -6.2198  -6.0874
     2.3472   2.4231   2.6016   2.7233   3.1163   3.2065   3.4074   3.7349
     3.8271   4.5236   4.6899   5.1525   5.3297   5.5936   5.8370   5.9358
     6.2104   6.4113   6.8456   7.1625   7.3056   7.5876   7.7386   7.8786
     7.9847   8.3094   8.4765   8.7347   9.3269   9.3803   9.6452   9.9853
    10.1088  12.2533  12.8073  12.8832  13.2469  13.7814  13.8760  14.3772
    15.6033  15.8063  17.5685  18.8361

     occupation numbers 
     1.0000   1.0000   1.0000   1.0000   1.0000   1.0000   1.0000   1.0000
     1.0000   1.0000   1.0000   1.0000   1.0000   1.0000   1.0000   1.0000
     1.0000   1.0000   1.0000   1.0000   1.0000   1.0000   1.0000   1.0000
     1.0000   1.0000   1.0000   1.0000   1.0000   1.0000   1.0000   1.0000
     1.0000   1.0000   1.0000   1.0000   1.0000   1.0000   1.0000   1.0000
     1.0000   1.0000   1.0000   1.0000   1.0000   1.0000   1.0000   1.0000
     1.0000   1.0000   1.0000   1.0000   1.0000   1.0000   1.0000   1.0000
     1.0000   0.0000   0.0000   0.0000   0.0000   0.0000   0.0000   0.0000
     0.0000   0.0000   0.0000   0.0000

          k = 0.0813-0.0759 0.2093 ( 19108 PWs)   bands (ev):

  -101.4200 -93.4801 -64.6858 -64.6317 -59.3884 -58.7135 -58.6125 -54.2038
   -54.0343 -53.9657 -28.9983 -28.9517 -28.9134 -28.8612 -28.8066 -28.7625
    -8.3516  -7.5164  -7.1913  -7.0600  -6.5889  -6.4700  -6.1622  -6.0953
     2.3561   2.4126   2.6186   2.7105   3.0372   3.1791   3.4627   3.7511
     3.9364   4.5213   4.6503   5.1737   5.3263   5.6527   5.7860   5.8828
     6.3795   6.6114   6.8059   7.0138   7.2302   7.4828   7.6597   7.8406
     8.0429   8.2723   8.4684   8.6181   9.3327   9.4972   9.7605   9.9557
    10.0876  12.2012  12.7319  12.9521  13.3094  13.5763  13.9132  14.3189
    15.9820  16.0854  17.4659  19.0226

     occupation numbers 
     1.0000   1.0000   1.0000   1.0000   1.0000   1.0000   1.0000   1.0000
     1.0000   1.0000   1.0000   1.0000   1.0000   1.0000   1.0000   1.0000
     1.0000   1.0000   1.0000   1.0000   1.0000   1.0000   1.0000   1.0000
     1.0000   1.0000   1.0000   1.0000   1.0000   1.0000   1.0000   1.0000
     1.0000   1.0000   1.0000   1.0000   1.0000   1.0000   1.0000   1.0000
     1.0000   1.0000   1.0000   1.0000   1.0000   1.0000   1.0000   1.0000
     1.0000   1.0000   1.0000   1.0000   1.0000   1.0000   1.0000   1.0000
     1.0000   0.0000   0.0000   0.0000   0.0000   0.0000   0.0000   0.0000
     0.0000   0.0000   0.0000   0.0000

          k = 0.0799-0.0759 0.3517 ( 19103 PWs)   bands (ev):

  -101.4200 -93.4801 -64.6857 -64.6317 -59.3884 -58.7135 -58.6125 -54.2038
   -54.0343 -53.9657 -28.9950 -28.9574 -28.9081 -28.8692 -28.7956 -28.7687
    -8.1341  -7.7258  -7.2020  -7.1279  -6.6095  -6.4186  -6.1361  -6.0945
     2.3444   2.4125   2.5733   2.6794   3.0564   3.1571   3.5598   3.7172
     3.9973   4.4754   4.6645   5.2075   5.4792   5.6984   5.8405   5.9266
     6.2604   6.6467   6.6801   6.9380   7.0116   7.3440   7.6159   7.8646
     8.0494   8.2555   8.4678   9.0178   9.3742   9.6160   9.7032   9.9247
    10.0754  12.1518  12.6126  12.9956  13.2087  13.4911  14.0554  14.2191
    16.0748  16.2666  17.9700  18.8721

     occupation numbers 
     1.0000   1.0000   1.0000   1.0000   1.0000   1.0000   1.0000   1.0000
     1.0000   1.0000   1.0000   1.0000   1.0000   1.0000   1.0000   1.0000
     1.0000   1.0000   1.0000   1.0000   1.0000   1.0000   1.0000   1.0000
     1.0000   1.0000   1.0000   1.0000   1.0000   1.0000   1.0000   1.0000
     1.0000   1.0000   1.0000   1.0000   1.0000   1.0000   1.0000   1.0000
     1.0000   1.0000   1.0000   1.0000   1.0000   1.0000   1.0000   1.0000
     1.0000   1.0000   1.0000   1.0000   1.0000   1.0000   1.0000   1.0000
     1.0000   0.0000   0.0000   0.0000   0.0000   0.0000   0.0000   0.0000
     0.0000   0.0000   0.0000   0.0000

          k = 0.0868-0.0759-0.3605 ( 19123 PWs)   bands (ev):

  -101.4200 -93.4801 -64.6857 -64.6316 -59.3884 -58.7135 -58.6125 -54.2038
   -54.0343 -53.9657 -28.9947 -28.9581 -28.9084 -28.8689 -28.7953 -28.7687
    -8.0294  -7.8578  -7.1864  -7.1623  -6.5495  -6.4169  -6.1243  -6.1183
     2.3333   2.4125   2.5606   2.6840   3.0925   3.1492   3.5256   3.7244
     3.9579   4.5037   4.6954   5.3698   5.4571   5.6109   5.7863   5.9138
     6.1677   6.4906   6.5807   6.9332   7.2491   7.4399   7.7762   7.8348
     7.9569   8.1594   8.4936   9.2993   9.4983   9.5502   9.5837   9.8346
    10.0827  12.1855  12.5781  13.0292  13.1692  13.4983  14.0158  14.2767
    15.9317  16.1006  18.1212  18.9071

     occupation numbers 
     1.0000   1.0000   1.0000   1.0000   1.0000   1.0000   1.0000   1.0000
     1.0000   1.0000   1.0000   1.0000   1.0000   1.0000   1.0000   1.0000
     1.0000   1.0000   1.0000   1.0000   1.0000   1.0000   1.0000   1.0000
     1.0000   1.0000   1.0000   1.0000   1.0000   1.0000   1.0000   1.0000
     1.0000   1.0000   1.0000   1.0000   1.0000   1.0000   1.0000   1.0000
     1.0000   1.0000   1.0000   1.0000   1.0000   1.0000   1.0000   1.0000
     1.0000   1.0000   1.0000   1.0000   1.0000   1.0000   1.0000   1.0000
     1.0000   0.0000   0.0000   0.0000   0.0000   0.0000   0.0000   0.0000
     0.0000   0.0000   0.0000   0.0000

          k = 0.0854-0.0759-0.2180 ( 19117 PWs)   bands (ev):

  -101.4200 -93.4801 -64.6858 -64.6316 -59.3884 -58.7135 -58.6125 -54.2038
   -54.0343 -53.9657 -28.9979 -28.9530 -28.9138 -28.8606 -28.8062 -28.7624
    -8.2830  -7.6388  -7.1723  -7.1244  -6.4829  -6.4148  -6.1961  -6.1169
     2.3309   2.4277   2.5962   2.7295   3.0584   3.1921   3.3901   3.7406
     3.8971   4.5855   4.7941   5.1418   5.3914   5.4788   5.7294   5.8692
     6.1999   6.5703   6.9799   7.0612   7.1954   7.3063   7.6997   7.8629
     8.0669   8.3057   8.5802   9.0607   9.4108   9.4683   9.6082   9.8461
    10.0882  12.2641  12.6700  13.0117  13.1696  13.6656  13.9086  14.3754
    15.6569  15.8102  17.6804  19.0581

     occupation numbers 
     1.0000   1.0000   1.0000   1.0000   1.0000   1.0000   1.0000   1.0000
     1.0000   1.0000   1.0000   1.0000   1.0000   1.0000   1.0000   1.0000
     1.0000   1.0000   1.0000   1.0000   1.0000   1.0000   1.0000   1.0000
     1.0000   1.0000   1.0000   1.0000   1.0000   1.0000   1.0000   1.0000
     1.0000   1.0000   1.0000   1.0000   1.0000   1.0000   1.0000   1.0000
     1.0000   1.0000   1.0000   1.0000   1.0000   1.0000   1.0000   1.0000
     1.0000   1.0000   1.0000   1.0000   1.0000   1.0000   1.0000   1.0000
     1.0000   0.0000   0.0000   0.0000   0.0000   0.0000   0.0000   0.0000
     0.0000   0.0000   0.0000   0.0000

          k = 0.0841-0.0759-0.0756 ( 19121 PWs)   bands (ev):

  -101.4200 -93.4802 -64.6859 -64.6316 -59.3884 -58.7135 -58.6125 -54.2038
   -54.0343 -53.9657 -29.0005 -28.9477 -28.9184 -28.8517 -28.8168 -28.7582
    -8.4428  -7.4945  -7.1685  -7.0445  -6.5020  -6.4161  -6.2416  -6.1055
     2.3325   2.4379   2.6034   2.7295   3.0908   3.2284   3.3751   3.7170
     3.8235   4.5582   4.8083   5.0701   5.3212   5.4854   5.7661   6.0112
     6.2183   6.5886   6.7122   7.0832   7.3409   7.4038   7.6941   7.9484
     8.1152   8.3749   8.5676   8.8630   9.3179   9.3968   9.5912   9.9267
    10.1139  12.2870  12.7710  12.9123  13.1763  13.7891  13.9394  14.3985
    15.4425  15.6843  17.6498  18.8395

     occupation numbers 
     1.0000   1.0000   1.0000   1.0000   1.0000   1.0000   1.0000   1.0000
     1.0000   1.0000   1.0000   1.0000   1.0000   1.0000   1.0000   1.0000
     1.0000   1.0000   1.0000   1.0000   1.0000   1.0000   1.0000   1.0000
     1.0000   1.0000   1.0000   1.0000   1.0000   1.0000   1.0000   1.0000
     1.0000   1.0000   1.0000   1.0000   1.0000   1.0000   1.0000   1.0000
     1.0000   1.0000   1.0000   1.0000   1.0000   1.0000   1.0000   1.0000
     1.0000   1.0000   1.0000   1.0000   1.0000   1.0000   1.0000   1.0000
     1.0000   0.0000   0.0000   0.0000   0.0000   0.0000   0.0000   0.0000
     0.0000   0.0000   0.0000   0.0000

          k = 0.2495 0.0666 0.0511 ( 19125 PWs)   bands (ev):

  -101.4200 -93.4802 -64.6858 -64.6315 -59.3884 -58.7135 -58.6125 -54.2038
   -54.0343 -53.9657 -29.0009 -28.9481 -28.9187 -28.8521 -28.8174 -28.7585
    -8.3107  -7.4493  -7.1784  -7.1107  -6.5129  -6.4297  -6.2666  -6.2342
     2.3454   2.4305   2.6953   2.8283   3.2219   3.2346   3.5215   3.7611
     3.8646   4.4500   4.6779   5.0538   5.3729   5.4829   5.8076   5.9794
     6.0757   6.2356   6.5422   6.9200   7.2132   7.4903   7.6550   8.0742
     8.3920   8.4754   8.7584   8.8788   9.1477   9.4198   9.6151  10.0687
    10.1225  12.1636  12.7544  12.9472  13.1780  13.6778  13.8551  14.4419
    15.8947  16.1090  17.7505  18.8032

     occupation numbers 
     1.0000   1.0000   1.0000   1.0000   1.0000   1.0000   1.0000   1.0000
     1.0000   1.0000   1.0000   1.0000   1.0000   1.0000   1.0000   1.0000
     1.0000   1.0000   1.0000   1.0000   1.0000   1.0000   1.0000   1.0000
     1.0000   1.0000   1.0000   1.0000   1.0000   1.0000   1.0000   1.0000
     1.0000   1.0000   1.0000   1.0000   1.0000   1.0000   1.0000   1.0000
     1.0000   1.0000   1.0000   1.0000   1.0000   1.0000   1.0000   1.0000
     1.0000   1.0000   1.0000   1.0000   1.0000   1.0000   1.0000   1.0000
     1.0000   0.0000   0.0000   0.0000   0.0000   0.0000   0.0000   0.0000
     0.0000   0.0000   0.0000   0.0000

          k = 0.2482 0.0666 0.1936 ( 19116 PWs)   bands (ev):

  -101.4200 -93.4801 -64.6857 -64.6317 -59.3884 -58.7135 -58.6125 -54.2038
   -54.0343 -53.9657 -28.9981 -28.9532 -28.9140 -28.8614 -28.8065 -28.7627
    -8.2465  -7.4571  -7.2108  -7.0594  -6.5956  -6.5338  -6.2129  -6.1913
     2.3730   2.4208   2.6883   2.8203   3.1962   3.2487   3.5879   3.7823
     3.9477   4.4055   4.5009   5.1289   5.4589   5.5201   5.6615   5.8491
     6.0019   6.2455   6.7884   7.0223   7.1950   7.5327   7.7651   8.0858
     8.1477   8.3802   8.5858   8.9003   9.2551   9.3621   9.8002  10.0015
    10.1327  12.1363  12.7579  13.0321  13.1138  13.5923  13.9232  14.3149
    16.0601  16.3731  17.6782  18.9188

     occupation numbers 
     1.0000   1.0000   1.0000   1.0000   1.0000   1.0000   1.0000   1.0000
     1.0000   1.0000   1.0000   1.0000   1.0000   1.0000   1.0000   1.0000
     1.0000   1.0000   1.0000   1.0000   1.0000   1.0000   1.0000   1.0000
     1.0000   1.0000   1.0000   1.0000   1.0000   1.0000   1.0000   1.0000
     1.0000   1.0000   1.0000   1.0000   1.0000   1.0000   1.0000   1.0000
     1.0000   1.0000   1.0000   1.0000   1.0000   1.0000   1.0000   1.0000
     1.0000   1.0000   1.0000   1.0000   1.0000   1.0000   1.0000   1.0000
     1.0000   0.0000   0.0000   0.0000   0.0000   0.0000   0.0000   0.0000
     0.0000   0.0000   0.0000   0.0000

          k = 0.2468 0.0666 0.3360 ( 19132 PWs)   bands (ev):

  -101.4200 -93.4801 -64.6856 -64.6319 -59.3884 -58.7135 -58.6125 -54.2038
   -54.0343 -53.9657 -28.9949 -28.9581 -28.9086 -28.8698 -28.7955 -28.7691
    -8.0828  -7.5789  -7.2655  -7.0632  -6.6976  -6.4914  -6.1936  -6.1410
     2.3777   2.4146   2.6640   2.8182   3.1551   3.2935   3.6320   3.7927
     4.0174   4.3455   4.5213   5.0214   5.1688   5.6131   5.7014   5.8707
     6.0643   6.6385   6.8810   6.9647   7.0126   7.2423   7.5641   7.8821
     8.3730   8.5056   8.7517   8.9163   9.3039   9.5471   9.8241   9.9658
    10.1429  12.1460  12.6566  12.9214  13.0766  13.6675  14.0727  14.1660
    15.9600  16.1836  18.3180  18.8981

     occupation numbers 
     1.0000   1.0000   1.0000   1.0000   1.0000   1.0000   1.0000   1.0000
     1.0000   1.0000   1.0000   1.0000   1.0000   1.0000   1.0000   1.0000
     1.0000   1.0000   1.0000   1.0000   1.0000   1.0000   1.0000   1.0000
     1.0000   1.0000   1.0000   1.0000   1.0000   1.0000   1.0000   1.0000
     1.0000   1.0000   1.0000   1.0000   1.0000   1.0000   1.0000   1.0000
     1.0000   1.0000   1.0000   1.0000   1.0000   1.0000   1.0000   1.0000
     1.0000   1.0000   1.0000   1.0000   1.0000   1.0000   1.0000   1.0000
     1.0000   0.0000   0.0000   0.0000   0.0000   0.0000   0.0000   0.0000
     0.0000   0.0000   0.0000   0.0000

          k = 0.2537 0.0667-0.3762 ( 19123 PWs)   bands (ev):

  -101.4200 -93.4801 -64.6856 -64.6318 -59.3884 -58.7135 -58.6125 -54.2038
   -54.0343 -53.9657 -28.9953 -28.9575 -28.9085 -28.8701 -28.7959 -28.7690
    -7.8924  -7.7917  -7.2946  -7.1002  -6.6711  -6.4373  -6.1933  -6.1258
     2.3396   2.4206   2.6794   2.8056   3.1483   3.3211   3.5621   3.7953
     4.0016   4.4461   4.6200   5.0009   5.0859   5.4605   5.7066   5.9186
     6.1998   6.3564   6.5673   6.9748   7.3588   7.4865   7.5267   7.9046
     8.2386   8.6082   8.6868   9.0422   9.3935   9.6618   9.7372   9.9629
    10.1087  12.2125  12.5810  12.8544  13.1595  13.7019  13.9652  14.3021
    15.6990  15.8903  18.5792  19.1622

     occupation numbers 
     1.0000   1.0000   1.0000   1.0000   1.0000   1.0000   1.0000   1.0000
     1.0000   1.0000   1.0000   1.0000   1.0000   1.0000   1.0000   1.0000
     1.0000   1.0000   1.0000   1.0000   1.0000   1.0000   1.0000   1.0000
     1.0000   1.0000   1.0000   1.0000   1.0000   1.0000   1.0000   1.0000
     1.0000   1.0000   1.0000   1.0000   1.0000   1.0000   1.0000   1.0000
     1.0000   1.0000   1.0000   1.0000   1.0000   1.0000   1.0000   1.0000
     1.0000   1.0000   1.0000   1.0000   1.0000   1.0000   1.0000   1.0000
     1.0000   0.0000   0.0000   0.0000   0.0000   0.0000   0.0000   0.0000
     0.0000   0.0000   0.0000   0.0000

          k = 0.2523 0.0667-0.2337 ( 19129 PWs)   bands (ev):

  -101.4200 -93.4801 -64.6856 -64.6316 -59.3884 -58.7135 -58.6125 -54.2038
   -54.0343 -53.9657 -28.9988 -28.9521 -28.9139 -28.8616 -28.8071 -28.7627
    -8.0731  -7.6627  -7.2789  -7.1319  -6.5579  -6.3889  -6.2353  -6.1635
     2.3221   2.4146   2.7345   2.8165   3.1478   3.2785   3.4521   3.7937
     3.9688   4.6460   4.7653   4.9356   5.1141   5.3108   5.5716   5.8104
     6.0456   6.5821   6.7441   6.8906   7.2742   7.5395   7.8167   7.9324
     8.2686   8.5247   8.6145   9.0485   9.4188   9.5858   9.6182   9.9559
    10.1260  12.2796  12.6577  12.8169  13.1809  13.7631  13.9106  14.4392
    15.5249  15.7194  18.1894  19.1613

     occupation numbers 
     1.0000   1.0000   1.0000   1.0000   1.0000   1.0000   1.0000   1.0000
     1.0000   1.0000   1.0000   1.0000   1.0000   1.0000   1.0000   1.0000
     1.0000   1.0000   1.0000   1.0000   1.0000   1.0000   1.0000   1.0000
     1.0000   1.0000   1.0000   1.0000   1.0000   1.0000   1.0000   1.0000
     1.0000   1.0000   1.0000   1.0000   1.0000   1.0000   1.0000   1.0000
     1.0000   1.0000   1.0000   1.0000   1.0000   1.0000   1.0000   1.0000
     1.0000   1.0000   1.0000   1.0000   1.0000   1.0000   1.0000   1.0000
     1.0000   0.0000   0.0000   0.0000   0.0000   0.0000   0.0000   0.0000
     0.0000   0.0000   0.0000   0.0000

          k = 0.2509 0.0667-0.0913 ( 19121 PWs)   bands (ev):

  -101.4200 -93.4802 -64.6857 -64.6315 -59.3884 -58.7135 -58.6125 -54.2038
   -54.0343 -53.9657 -29.0012 -28.9475 -28.9187 -28.8521 -28.8177 -28.7586
    -8.2498  -7.5204  -7.2216  -7.1430  -6.4629  -6.3518  -6.3018  -6.2340
     2.3274   2.4234   2.7254   2.8382   3.1757   3.2401   3.4500   3.7699
     3.8967   4.5773   4.8527   4.9766   5.1437   5.2453   5.7694   5.9615
     6.1353   6.4186   6.6853   6.9076   7.1022   7.4742   7.6897   8.1384
     8.2587   8.4731   8.7899   9.0722   9.1992   9.5174   9.5600   9.9931
    10.1648  12.2407  12.7207  12.8508  13.1215  13.7690  13.9283  14.4923
    15.6218  15.7854  18.0150  18.8427

     occupation numbers 
     1.0000   1.0000   1.0000   1.0000   1.0000   1.0000   1.0000   1.0000
     1.0000   1.0000   1.0000   1.0000   1.0000   1.0000   1.0000   1.0000
     1.0000   1.0000   1.0000   1.0000   1.0000   1.0000   1.0000   1.0000
     1.0000   1.0000   1.0000   1.0000   1.0000   1.0000   1.0000   1.0000
     1.0000   1.0000   1.0000   1.0000   1.0000   1.0000   1.0000   1.0000
     1.0000   1.0000   1.0000   1.0000   1.0000   1.0000   1.0000   1.0000
     1.0000   1.0000   1.0000   1.0000   1.0000   1.0000   1.0000   1.0000
     1.0000   0.0000   0.0000   0.0000   0.0000   0.0000   0.0000   0.0000
     0.0000   0.0000   0.0000   0.0000

          k = 0.2496 0.2139 0.0477 ( 19153 PWs)   bands (ev):

  -101.4200 -93.4802 -64.6857 -64.6316 -59.3884 -58.7135 -58.6125 -54.2038
   -54.0343 -53.9657 -29.0004 -28.9479 -28.9183 -28.8530 -28.8176 -28.7589
    -8.1986  -7.4340  -7.2273  -7.1944  -6.5946  -6.4145  -6.2594  -6.2056
     2.3183   2.4003   2.7441   2.8850   3.1744   3.2791   3.6145   3.7686
     3.9593   4.4967   4.8289   4.9461   5.3391   5.5371   5.7821   5.8771
     6.0978   6.2751   6.5928   6.8980   7.2970   7.5588   7.6753   8.0855
     8.2715   8.3923   8.6874   9.0020   9.1689   9.2446   9.4486   9.7965
     9.9619  12.0872  12.7397  12.9055  13.2312  13.6814  13.9722  14.4569
    15.9545  16.1917  17.9159  18.5997

     occupation numbers 
     1.0000   1.0000   1.0000   1.0000   1.0000   1.0000   1.0000   1.0000
     1.0000   1.0000   1.0000   1.0000   1.0000   1.0000   1.0000   1.0000
     1.0000   1.0000   1.0000   1.0000   1.0000   1.0000   1.0000   1.0000
     1.0000   1.0000   1.0000   1.0000   1.0000   1.0000   1.0000   1.0000
     1.0000   1.0000   1.0000   1.0000   1.0000   1.0000   1.0000   1.0000
     1.0000   1.0000   1.0000   1.0000   1.0000   1.0000   1.0000   1.0000
     1.0000   1.0000   1.0000   1.0000   1.0000   1.0000   1.0000   1.0000
     1.0000   0.0000   0.0000   0.0000   0.0000   0.0000   0.0000   0.0000
     0.0000   0.0000   0.0000   0.0000

          k = 0.2482 0.2138 0.1901 ( 19150 PWs)   bands (ev):

  -101.4200 -93.4801 -64.6856 -64.6318 -59.3884 -58.7135 -58.6125 -54.2038
   -54.0343 -53.9657 -28.9980 -28.9541 -28.9137 -28.8617 -28.8060 -28.7626
    -8.1335  -7.4804  -7.2552  -7.1495  -6.5626  -6.4814  -6.2829  -6.1964
     2.3194   2.4003   2.7310   2.8687   3.2246   3.2879   3.6800   3.7992
     3.9852   4.4573   4.7145   4.8773   5.3790   5.4868   5.7280   5.8313
     6.0124   6.3413   6.7027   7.1388   7.2840   7.6578   7.8418   8.0387
     8.1615   8.2983   8.4795   9.0209   9.1096   9.2506   9.5718   9.8161
     9.9265  12.0577  12.6984  12.9296  13.1478  13.6783  13.9342  14.3965
    16.0956  16.3869  18.0215  18.6319

     occupation numbers 
     1.0000   1.0000   1.0000   1.0000   1.0000   1.0000   1.0000   1.0000
     1.0000   1.0000   1.0000   1.0000   1.0000   1.0000   1.0000   1.0000
     1.0000   1.0000   1.0000   1.0000   1.0000   1.0000   1.0000   1.0000
     1.0000   1.0000   1.0000   1.0000   1.0000   1.0000   1.0000   1.0000
     1.0000   1.0000   1.0000   1.0000   1.0000   1.0000   1.0000   1.0000
     1.0000   1.0000   1.0000   1.0000   1.0000   1.0000   1.0000   1.0000
     1.0000   1.0000   1.0000   1.0000   1.0000   1.0000   1.0000   1.0000
     1.0000   0.0000   0.0000   0.0000   0.0000   0.0000   0.0000   0.0000
     0.0000   0.0000   0.0000   0.0000

          k = 0.2468 0.2138 0.3325 ( 19130 PWs)   bands (ev):

  -101.4200 -93.4801 -64.6855 -64.6319 -59.3884 -58.7135 -58.6125 -54.2038
   -54.0343 -53.9657 -28.9954 -28.9596 -28.9085 -28.8697 -28.7944 -28.7686
    -7.9788  -7.6103  -7.3065  -7.1124  -6.6127  -6.4571  -6.2574  -6.2164
     2.3113   2.3875   2.7011   2.8793   3.2324   3.3325   3.7121   3.8246
     4.0189   4.4028   4.6566   4.8014   5.1498   5.5471   5.6060   5.9746
     6.3098   6.5986   6.7947   7.0553   7.1663   7.4484   7.6725   7.8358
     8.1869   8.3561   8.6501   8.9494   9.1899   9.4866   9.5740   9.7492
    10.0365  12.0709  12.5909  12.7822  13.2118  13.7042  13.9780  14.3320
    16.0133  16.2314  18.4361  18.6626

     occupation numbers 
     1.0000   1.0000   1.0000   1.0000   1.0000   1.0000   1.0000   1.0000
     1.0000   1.0000   1.0000   1.0000   1.0000   1.0000   1.0000   1.0000
     1.0000   1.0000   1.0000   1.0000   1.0000   1.0000   1.0000   1.0000
     1.0000   1.0000   1.0000   1.0000   1.0000   1.0000   1.0000   1.0000
     1.0000   1.0000   1.0000   1.0000   1.0000   1.0000   1.0000   1.0000
     1.0000   1.0000   1.0000   1.0000   1.0000   1.0000   1.0000   1.0000
     1.0000   1.0000   1.0000   1.0000   1.0000   1.0000   1.0000   1.0000
     1.0000   0.0000   0.0000   0.0000   0.0000   0.0000   0.0000   0.0000
     0.0000   0.0000   0.0000   0.0000

          k = 0.2537 0.2139-0.3797 ( 19128 PWs)   bands (ev):

  -101.4200 -93.4801 -64.6855 -64.6319 -59.3884 -58.7135 -58.6125 -54.2038
   -54.0343 -53.9657 -28.9961 -28.9582 -28.9082 -28.8703 -28.7951 -28.7684
    -7.8446  -7.7334  -7.3483  -7.1016  -6.6745  -6.3756  -6.2590  -6.2111
     2.2896   2.3830   2.7223   2.8824   3.1928   3.3145   3.6874   3.8019
     4.0541   4.4237   4.6742   4.7998   5.1778   5.5475   5.7012   6.0155
     6.3133   6.4139   6.6860   7.0322   7.2941   7.4517   7.5597   7.9140
     8.1585   8.4591   8.5705   9.0414   9.2202   9.4134   9.6441   9.8117
    10.0332  12.1390  12.5346  12.7518  13.3277  13.7162  13.9919  14.3561
    15.7749  15.9743  18.2324  19.2086

     occupation numbers 
     1.0000   1.0000   1.0000   1.0000   1.0000   1.0000   1.0000   1.0000
     1.0000   1.0000   1.0000   1.0000   1.0000   1.0000   1.0000   1.0000
     1.0000   1.0000   1.0000   1.0000   1.0000   1.0000   1.0000   1.0000
     1.0000   1.0000   1.0000   1.0000   1.0000   1.0000   1.0000   1.0000
     1.0000   1.0000   1.0000   1.0000   1.0000   1.0000   1.0000   1.0000
     1.0000   1.0000   1.0000   1.0000   1.0000   1.0000   1.0000   1.0000
     1.0000   1.0000   1.0000   1.0000   1.0000   1.0000   1.0000   1.0000
     1.0000   0.0000   0.0000   0.0000   0.0000   0.0000   0.0000   0.0000
     0.0000   0.0000   0.0000   0.0000

          k = 0.2524 0.2139-0.2372 ( 19128 PWs)   bands (ev):

  -101.4200 -93.4801 -64.6855 -64.6317 -59.3884 -58.7135 -58.6125 -54.2038
   -54.0343 -53.9657 -28.9992 -28.9516 -28.9133 -28.8626 -28.8070 -28.7626
    -8.0121  -7.5773  -7.3519  -7.1365  -6.6354  -6.3357  -6.2888  -6.1974
     2.2870   2.3823   2.7878   2.8786   3.1333   3.2563   3.6263   3.7871
     4.0263   4.5539   4.6804   4.9840   5.2930   5.4332   5.6458   5.8260
     6.2600   6.5405   6.6459   6.9911   7.1281   7.4718   7.6438   8.1124
     8.3132   8.4525   8.5189   8.9640   9.2291   9.3535   9.5465   9.8567
     9.9794  12.1961  12.6387  12.7750  13.3373  13.7889  14.0139  14.4305
    15.6279  15.7882  18.0336  19.0515

     occupation numbers 
     1.0000   1.0000   1.0000   1.0000   1.0000   1.0000   1.0000   1.0000
     1.0000   1.0000   1.0000   1.0000   1.0000   1.0000   1.0000   1.0000
     1.0000   1.0000   1.0000   1.0000   1.0000   1.0000   1.0000   1.0000
     1.0000   1.0000   1.0000   1.0000   1.0000   1.0000   1.0000   1.0000
     1.0000   1.0000   1.0000   1.0000   1.0000   1.0000   1.0000   1.0000
     1.0000   1.0000   1.0000   1.0000   1.0000   1.0000   1.0000   1.0000
     1.0000   1.0000   1.0000   1.0000   1.0000   1.0000   1.0000   1.0000
     1.0000   0.0000   0.0000   0.0000   0.0000   0.0000   0.0000   0.0000
     0.0000   0.0000   0.0000   0.0000

          k = 0.2510 0.2139-0.0948 ( 19134 PWs)   bands (ev):

  -101.4200 -93.4802 -64.6856 -64.6315 -59.3884 -58.7135 -58.6125 -54.2038
   -54.0343 -53.9657 -29.0010 -28.9466 -28.9182 -28.8534 -28.8180 -28.7590
    -8.1532  -7.4622  -7.3033  -7.1734  -6.5914  -6.3735  -6.2568  -6.2115
     2.3059   2.3882   2.7795   2.8884   3.1294   3.2661   3.5830   3.7687
     3.9746   4.5570   4.8220   4.9838   5.2595   5.4053   5.7671   6.0101
     6.1575   6.3529   6.6554   6.8420   7.2727   7.3958   7.6992   7.9456
     8.3003   8.4888   8.7038   9.0442   9.1970   9.2852   9.4568   9.7927
    10.0100  12.1591  12.7293  12.8154  13.2522  13.8247  14.0075  14.4681
    15.7313  15.8633  17.9771  18.7230

     occupation numbers 
     1.0000   1.0000   1.0000   1.0000   1.0000   1.0000   1.0000   1.0000
     1.0000   1.0000   1.0000   1.0000   1.0000   1.0000   1.0000   1.0000
     1.0000   1.0000   1.0000   1.0000   1.0000   1.0000   1.0000   1.0000
     1.0000   1.0000   1.0000   1.0000   1.0000   1.0000   1.0000   1.0000
     1.0000   1.0000   1.0000   1.0000   1.0000   1.0000   1.0000   1.0000
     1.0000   1.0000   1.0000   1.0000   1.0000   1.0000   1.0000   1.0000
     1.0000   1.0000   1.0000   1.0000   1.0000   1.0000   1.0000   1.0000
     1.0000   0.0000   0.0000   0.0000   0.0000   0.0000   0.0000   0.0000
     0.0000   0.0000   0.0000   0.0000

          k = 0.2497 0.3611 0.0442 ( 19147 PWs)   bands (ev):

  -101.4200 -93.4802 -64.6857 -64.6316 -59.3884 -58.7135 -58.6125 -54.2038
   -54.0343 -53.9657 -28.9999 -28.9470 -28.9178 -28.8542 -28.8179 -28.7594
    -7.9905  -7.5750  -7.2820  -7.2124  -6.6491  -6.5265  -6.1933  -6.1304
     2.3225   2.4304   2.7732   2.8634   3.1898   3.2805   3.6406   3.7648
     4.0242   4.5763   4.8350   5.1009   5.3508   5.5828   5.6484   5.8205
     6.1087   6.3764   6.6867   6.9573   7.1276   7.6111   7.8981   8.0278
     8.1013   8.4127   8.6664   8.8696   9.0212   9.2159   9.2991   9.5708
     9.7504  12.1815  12.8065  12.8857  13.2417  13.5759  14.1044  14.4705
    15.9978  16.2578  18.0218  18.3566

     occupation numbers 
     1.0000   1.0000   1.0000   1.0000   1.0000   1.0000   1.0000   1.0000
     1.0000   1.0000   1.0000   1.0000   1.0000   1.0000   1.0000   1.0000
     1.0000   1.0000   1.0000   1.0000   1.0000   1.0000   1.0000   1.0000
     1.0000   1.0000   1.0000   1.0000   1.0000   1.0000   1.0000   1.0000
     1.0000   1.0000   1.0000   1.0000   1.0000   1.0000   1.0000   1.0000
     1.0000   1.0000   1.0000   1.0000   1.0000   1.0000   1.0000   1.0000
     1.0000   1.0000   1.0000   1.0000   1.0000   1.0000   1.0000   1.0000
     1.0000   0.0000   0.0000   0.0000   0.0000   0.0000   0.0000   0.0000
     0.0000   0.0000   0.0000   0.0000

          k = 0.2483 0.3611 0.1866 ( 19138 PWs)   bands (ev):

  -101.4200 -93.4802 -64.6857 -64.6318 -59.3884 -58.7135 -58.6125 -54.2038
   -54.0343 -53.9657 -28.9983 -28.9539 -28.9132 -28.8624 -28.8060 -28.7625
    -7.9242  -7.5902  -7.3215  -7.2233  -6.5806  -6.4803  -6.3157  -6.1361
     2.3148   2.4359   2.7414   2.8876   3.2230   3.2894   3.6992   3.8541
     4.0137   4.4930   4.6614   5.0972   5.3010   5.4546   5.6332   5.9570
     6.1069   6.4409   6.6290   7.0553   7.3920   7.6121   7.8684   8.0598
     8.2265   8.3356   8.6094   8.7943   8.9171   9.2312   9.2972   9.5916
     9.7384  12.1793  12.6112  12.8226  13.2653  13.6456  13.9435  14.4875
    16.1143  16.3919  18.1997  18.5832

     occupation numbers 
     1.0000   1.0000   1.0000   1.0000   1.0000   1.0000   1.0000   1.0000
     1.0000   1.0000   1.0000   1.0000   1.0000   1.0000   1.0000   1.0000
     1.0000   1.0000   1.0000   1.0000   1.0000   1.0000   1.0000   1.0000
     1.0000   1.0000   1.0000   1.0000   1.0000   1.0000   1.0000   1.0000
     1.0000   1.0000   1.0000   1.0000   1.0000   1.0000   1.0000   1.0000
     1.0000   1.0000   1.0000   1.0000   1.0000   1.0000   1.0000   1.0000
     1.0000   1.0000   1.0000   1.0000   1.0000   1.0000   1.0000   1.0000
     1.0000   0.0000   0.0000   0.0000   0.0000   0.0000   0.0000   0.0000
     0.0000   0.0000   0.0000   0.0000

          k = 0.2469 0.3610 0.3290 ( 19147 PWs)   bands (ev):

  -101.4200 -93.4801 -64.6856 -64.6320 -59.3884 -58.7135 -58.6125 -54.2038
   -54.0343 -53.9657 -28.9961 -28.9604 -28.9084 -28.8697 -28.7937 -28.7681
    -7.7990  -7.6523  -7.3616  -7.2115  -6.5391  -6.4919  -6.3587  -6.1710
     2.3180   2.4216   2.7057   2.9115   3.2104   3.3426   3.7198   3.9434
     3.9986   4.2944   4.6001   5.0689   5.1868   5.5133   5.6318   6.0824
     6.4057   6.5194   6.7874   7.0332   7.3318   7.5555   7.6665   7.8446
     8.1078   8.3361   8.5715   8.8495   9.0113   9.2319   9.4276   9.5607
     9.9512  12.1686  12.4642  12.7149  13.3587  13.6958  13.9017  14.4492
    16.0541  16.2357  18.1838  19.0768

     occupation numbers 
     1.0000   1.0000   1.0000   1.0000   1.0000   1.0000   1.0000   1.0000
     1.0000   1.0000   1.0000   1.0000   1.0000   1.0000   1.0000   1.0000
     1.0000   1.0000   1.0000   1.0000   1.0000   1.0000   1.0000   1.0000
     1.0000   1.0000   1.0000   1.0000   1.0000   1.0000   1.0000   1.0000
     1.0000   1.0000   1.0000   1.0000   1.0000   1.0000   1.0000   1.0000
     1.0000   1.0000   1.0000   1.0000   1.0000   1.0000   1.0000   1.0000
     1.0000   1.0000   1.0000   1.0000   1.0000   1.0000   1.0000   1.0000
     1.0000   0.0000   0.0000   0.0000   0.0000   0.0000   0.0000   0.0000
     0.0000   0.0000   0.0000   0.0000

          k = 0.2538 0.3611-0.3831 ( 19129 PWs)   bands (ev):

  -101.4201 -93.4801 -64.6855 -64.6319 -59.3884 -58.7135 -58.6125 -54.2038
   -54.0343 -53.9657 -28.9965 -28.9597 -28.9082 -28.8700 -28.7941 -28.7680
    -7.7975  -7.6198  -7.3924  -7.1531  -6.7295  -6.4320  -6.2500  -6.2109
     2.3182   2.4058   2.7241   2.9208   3.1922   3.2768   3.7045   3.8657
     4.0314   4.3157   4.5459   5.1075   5.3660   5.6925   5.7918   6.0482
     6.1765   6.4352   6.7007   7.1908   7.2948   7.3692   7.6855   7.8595
     8.1435   8.2902   8.4446   8.8903   9.0408   9.1843   9.4452   9.7447
     9.9916  12.2059  12.4460  12.7755  13.4218  13.6992  13.9671  14.4346
    15.8449  16.0025  17.9937  19.2164

     occupation numbers 
     1.0000   1.0000   1.0000   1.0000   1.0000   1.0000   1.0000   1.0000
     1.0000   1.0000   1.0000   1.0000   1.0000   1.0000   1.0000   1.0000
     1.0000   1.0000   1.0000   1.0000   1.0000   1.0000   1.0000   1.0000
     1.0000   1.0000   1.0000   1.0000   1.0000   1.0000   1.0000   1.0000
     1.0000   1.0000   1.0000   1.0000   1.0000   1.0000   1.0000   1.0000
     1.0000   1.0000   1.0000   1.0000   1.0000   1.0000   1.0000   1.0000
     1.0000   1.0000   1.0000   1.0000   1.0000   1.0000   1.0000   1.0000
     1.0000   0.0000   0.0000   0.0000   0.0000   0.0000   0.0000   0.0000
     0.0000   0.0000   0.0000   0.0000

          k = 0.2524 0.3611-0.2407 ( 19133 PWs)   bands (ev):

  -101.4200 -93.4802 -64.6855 -64.6317 -59.3884 -58.7135 -58.6125 -54.2038
   -54.0343 -53.9657 -28.9990 -28.9524 -28.9131 -28.8630 -28.8066 -28.7625
    -7.9032  -7.5513  -7.3630  -7.1578  -6.7788  -6.4342  -6.2151  -6.1694
     2.3213   2.4020   2.7758   2.9008   3.1371   3.2395   3.6809   3.7627
     4.0429   4.4367   4.6397   5.2683   5.4347   5.6462   5.8358   5.9005
     6.1789   6.4918   6.5498   6.8435   7.2270   7.3925   7.6379   8.1621
     8.2907   8.3603   8.5378   8.7420   9.0305   9.1103   9.4676   9.7483
     9.8651  12.2418  12.5691  12.9164  13.3942  13.7498  14.0984  14.4191
    15.7220  15.8334  17.8305  18.9412

     occupation numbers 
     1.0000   1.0000   1.0000   1.0000   1.0000   1.0000   1.0000   1.0000
     1.0000   1.0000   1.0000   1.0000   1.0000   1.0000   1.0000   1.0000
     1.0000   1.0000   1.0000   1.0000   1.0000   1.0000   1.0000   1.0000
     1.0000   1.0000   1.0000   1.0000   1.0000   1.0000   1.0000   1.0000
     1.0000   1.0000   1.0000   1.0000   1.0000   1.0000   1.0000   1.0000
     1.0000   1.0000   1.0000   1.0000   1.0000   1.0000   1.0000   1.0000
     1.0000   1.0000   1.0000   1.0000   1.0000   1.0000   1.0000   1.0000
     1.0000   0.0000   0.0000   0.0000   0.0000   0.0000   0.0000   0.0000
     0.0000   0.0000   0.0000   0.0000

          k = 0.2510 0.3611-0.0983 ( 19135 PWs)   bands (ev):

  -101.4200 -93.4802 -64.6856 -64.6316 -59.3884 -58.7135 -58.6125 -54.2038
   -54.0343 -53.9657 -29.0003 -28.9462 -28.9179 -28.8545 -28.8181 -28.7594
    -7.9783  -7.5600  -7.2955  -7.2037  -6.7104  -6.4962  -6.1764  -6.1395
     2.3291   2.4112   2.7973   2.8554   3.1371   3.2816   3.6391   3.7282
     4.0344   4.5255   4.8422   5.1484   5.3673   5.6062   5.6746   6.0521
     6.2011   6.3482   6.6092   6.8625   7.0565   7.5523   7.7506   7.9370
     8.2496   8.2970   8.6791   8.9487   9.0379   9.1821   9.3684   9.6299
     9.8138  12.2115  12.7162  12.9617  13.3175  13.6820  14.2300  14.3733
    15.8121  15.9475  17.8173  18.5967

     occupation numbers 
     1.0000   1.0000   1.0000   1.0000   1.0000   1.0000   1.0000   1.0000
     1.0000   1.0000   1.0000   1.0000   1.0000   1.0000   1.0000   1.0000
     1.0000   1.0000   1.0000   1.0000   1.0000   1.0000   1.0000   1.0000
     1.0000   1.0000   1.0000   1.0000   1.0000   1.0000   1.0000   1.0000
     1.0000   1.0000   1.0000   1.0000   1.0000   1.0000   1.0000   1.0000
     1.0000   1.0000   1.0000   1.0000   1.0000   1.0000   1.0000   1.0000
     1.0000   1.0000   1.0000   1.0000   1.0000   1.0000   1.0000   1.0000
     1.0000   0.0000   0.0000   0.0000   0.0000   0.0000   0.0000   0.0000
     0.0000   0.0000   0.0000   0.0000

          k = 0.2493-0.3750 0.0616 ( 19129 PWs)   bands (ev):

  -101.4200 -93.4802 -64.6858 -64.6316 -59.3884 -58.7135 -58.6125 -54.2038
   -54.0343 -53.9657 -28.9999 -28.9464 -28.9177 -28.8546 -28.8180 -28.7595
    -7.8822  -7.7182  -7.2970  -7.1833  -6.6614  -6.5186  -6.1767  -6.1179
     2.3478   2.4812   2.7365   2.8353   3.1988   3.2928   3.6265   3.7322
     4.0028   4.5528   4.8893   5.1001   5.2944   5.5583   5.6491   5.7956
     6.0771   6.5664   6.6736   7.0141   7.0955   7.7128   7.8212   8.0149
     8.2052   8.4040   8.6352   8.7713   8.9275   9.0802   9.3745   9.5737
     9.7519  12.3614  12.8192  12.9474  13.1967  13.4899  14.0982  14.4837
    15.9858  16.2634  18.0112  18.3537

     occupation numbers 
     1.0000   1.0000   1.0000   1.0000   1.0000   1.0000   1.0000   1.0000
     1.0000   1.0000   1.0000   1.0000   1.0000   1.0000   1.0000   1.0000
     1.0000   1.0000   1.0000   1.0000   1.0000   1.0000   1.0000   1.0000
     1.0000   1.0000   1.0000   1.0000   1.0000   1.0000   1.0000   1.0000
     1.0000   1.0000   1.0000   1.0000   1.0000   1.0000   1.0000   1.0000
     1.0000   1.0000   1.0000   1.0000   1.0000   1.0000   1.0000   1.0000
     1.0000   1.0000   1.0000   1.0000   1.0000   1.0000   1.0000   1.0000
     1.0000   0.0000   0.0000   0.0000   0.0000   0.0000   0.0000   0.0000
     0.0000   0.0000   0.0000   0.0000

          k = 0.2480-0.3750 0.2040 ( 19124 PWs)   bands (ev):

  -101.4200 -93.4802 -64.6858 -64.6318 -59.3884 -58.7135 -58.6125 -54.2038
   -54.0343 -53.9657 -28.9986 -28.9526 -28.9129 -28.8628 -28.8065 -28.7626
    -7.8391  -7.6639  -7.3619  -7.2151  -6.6134  -6.4770  -6.2773  -6.1207
     2.3475   2.4847   2.7264   2.8581   3.1922   3.2916   3.6891   3.8235
     3.9976   4.4823   4.7001   5.1057   5.2715   5.4342   5.5880   6.0012
     6.1105   6.4989   6.7294   7.0723   7.3244   7.5822   7.9147   8.0687
     8.2415   8.4413   8.5048   8.7944   8.8657   8.9793   9.3854   9.6018
     9.7435  12.3928  12.5415  12.8382  13.3368  13.5408  13.9408  14.5013
    16.0945  16.3966  18.2329  18.5601

     occupation numbers 
     1.0000   1.0000   1.0000   1.0000   1.0000   1.0000   1.0000   1.0000
     1.0000   1.0000   1.0000   1.0000   1.0000   1.0000   1.0000   1.0000
     1.0000   1.0000   1.0000   1.0000   1.0000   1.0000   1.0000   1.0000
     1.0000   1.0000   1.0000   1.0000   1.0000   1.0000   1.0000   1.0000
     1.0000   1.0000   1.0000   1.0000   1.0000   1.0000   1.0000   1.0000
     1.0000   1.0000   1.0000   1.0000   1.0000   1.0000   1.0000   1.0000
     1.0000   1.0000   1.0000   1.0000   1.0000   1.0000   1.0000   1.0000
     1.0000   0.0000   0.0000   0.0000   0.0000   0.0000   0.0000   0.0000
     0.0000   0.0000   0.0000   0.0000

          k = 0.2466-0.3750 0.3465 ( 19136 PWs)   bands (ev):

  -101.4200 -93.4801 -64.6857 -64.6319 -59.3884 -58.7135 -58.6125 -54.2038
   -54.0343 -53.9657 -28.9963 -28.9598 -28.9082 -28.8697 -28.7941 -28.7681
    -7.7733  -7.5907  -7.4352  -7.2470  -6.6239  -6.4259  -6.3360  -6.1498
     2.3597   2.4719   2.7134   2.8808   3.1559   3.3074   3.7442   3.8804
     3.9907   4.2987   4.5989   5.0624   5.2145   5.4914   5.6507   6.1748
     6.3985   6.5515   6.7450   7.0803   7.2451   7.5820   7.6955   7.8587
     8.2269   8.3511   8.3995   8.7862   8.8945   9.3380   9.4225   9.5359
     9.9487  12.2866  12.4771  12.6974  13.4439  13.6542  13.8323  14.4680
    16.0470  16.2329  18.1957  19.1257

     occupation numbers 
     1.0000   1.0000   1.0000   1.0000   1.0000   1.0000   1.0000   1.0000
     1.0000   1.0000   1.0000   1.0000   1.0000   1.0000   1.0000   1.0000
     1.0000   1.0000   1.0000   1.0000   1.0000   1.0000   1.0000   1.0000
     1.0000   1.0000   1.0000   1.0000   1.0000   1.0000   1.0000   1.0000
     1.0000   1.0000   1.0000   1.0000   1.0000   1.0000   1.0000   1.0000
     1.0000   1.0000   1.0000   1.0000   1.0000   1.0000   1.0000   1.0000
     1.0000   1.0000   1.0000   1.0000   1.0000   1.0000   1.0000   1.0000
     1.0000   0.0000   0.0000   0.0000   0.0000   0.0000   0.0000   0.0000
     0.0000   0.0000   0.0000   0.0000

          k = 0.2535-0.3750-0.3657 ( 19116 PWs)   bands (ev):

  -101.4200 -93.4801 -64.6856 -64.6319 -59.3884 -58.7135 -58.6125 -54.2038
   -54.0343 -53.9657 -28.9961 -28.9604 -28.9085 -28.8695 -28.7938 -28.7680
    -7.7642  -7.6066  -7.4018  -7.2161  -6.7582  -6.3989  -6.2473  -6.1888
     2.3663   2.4576   2.7247   2.8948   3.1329   3.2521   3.7252   3.8597
     3.9464   4.3202   4.5377   5.0924   5.4001   5.6859   5.8921   6.0486
     6.1833   6.4332   6.6472   7.2115   7.3144   7.4487   7.6823   7.9433
     8.1121   8.2685   8.3471   8.7842   8.9016   9.2796   9.5245   9.7552
     9.9575  12.2882  12.4785  12.7966  13.4264  13.6828  13.8902  14.4525
    15.8651  15.9871  18.0016  19.2120

     occupation numbers 
     1.0000   1.0000   1.0000   1.0000   1.0000   1.0000   1.0000   1.0000
     1.0000   1.0000   1.0000   1.0000   1.0000   1.0000   1.0000   1.0000
     1.0000   1.0000   1.0000   1.0000   1.0000   1.0000   1.0000   1.0000
     1.0000   1.0000   1.0000   1.0000   1.0000   1.0000   1.0000   1.0000
     1.0000   1.0000   1.0000   1.0000   1.0000   1.0000   1.0000   1.0000
     1.0000   1.0000   1.0000   1.0000   1.0000   1.0000   1.0000   1.0000
     1.0000   1.0000   1.0000   1.0000   1.0000   1.0000   1.0000   1.0000
     1.0000   0.0000   0.0000   0.0000   0.0000   0.0000   0.0000   0.0000
     0.0000   0.0000   0.0000   0.0000

          k = 0.2521-0.3750-0.2233 ( 19128 PWs)   bands (ev):

  -101.4200 -93.4802 -64.6857 -64.6317 -59.3884 -58.7135 -58.6125 -54.2038
   -54.0343 -53.9657 -28.9983 -28.9537 -28.9134 -28.8623 -28.8062 -28.7624
    -7.8161  -7.6689  -7.3302  -7.1834  -6.7898  -6.4192  -6.2025  -6.1591
     2.3633   2.4617   2.7378   2.8776   3.1174   3.2420   3.6666   3.7331
     3.9990   4.4324   4.6369   5.2718   5.4214   5.6900   5.7989   5.9021
     6.2310   6.4193   6.6141   6.8992   7.2621   7.5134   7.7138   7.9567
     8.2694   8.3300   8.5885   8.6990   8.8338   9.2005   9.5241   9.7518
     9.8401  12.3530  12.5592  13.0222  13.3475  13.6560  14.0696  14.4338
    15.7391  15.8257  17.8288  18.9291

     occupation numbers 
     1.0000   1.0000   1.0000   1.0000   1.0000   1.0000   1.0000   1.0000
     1.0000   1.0000   1.0000   1.0000   1.0000   1.0000   1.0000   1.0000
     1.0000   1.0000   1.0000   1.0000   1.0000   1.0000   1.0000   1.0000
     1.0000   1.0000   1.0000   1.0000   1.0000   1.0000   1.0000   1.0000
     1.0000   1.0000   1.0000   1.0000   1.0000   1.0000   1.0000   1.0000
     1.0000   1.0000   1.0000   1.0000   1.0000   1.0000   1.0000   1.0000
     1.0000   1.0000   1.0000   1.0000   1.0000   1.0000   1.0000   1.0000
     1.0000   0.0000   0.0000   0.0000   0.0000   0.0000   0.0000   0.0000
     0.0000   0.0000   0.0000   0.0000

          k = 0.2507-0.3750-0.0808 ( 19114 PWs)   bands (ev):

  -101.4200 -93.4802 -64.6858 -64.6316 -59.3884 -58.7135 -58.6125 -54.2038
   -54.0343 -53.9657 -28.9998 -28.9469 -28.9180 -28.8542 -28.8180 -28.7594
    -7.8687  -7.7179  -7.2869  -7.1853  -6.7127  -6.4920  -6.1694  -6.1231
     2.3559   2.4736   2.7377   2.8400   3.1442   3.3002   3.6095   3.6993
     4.0084   4.5113   4.8523   5.1285   5.4319   5.5712   5.6789   5.9566
     6.1494   6.3677   6.8471   6.8712   7.0883   7.5629   7.8154   8.0003
     8.0304   8.3578   8.6984   8.7309   8.9998   9.2499   9.3892   9.5826
     9.8265  12.3524  12.7082  13.0927  13.2656  13.5558  14.2146  14.3906
    15.8106  15.9502  17.8012  18.5960

     occupation numbers 
     1.0000   1.0000   1.0000   1.0000   1.0000   1.0000   1.0000   1.0000
     1.0000   1.0000   1.0000   1.0000   1.0000   1.0000   1.0000   1.0000
     1.0000   1.0000   1.0000   1.0000   1.0000   1.0000   1.0000   1.0000
     1.0000   1.0000   1.0000   1.0000   1.0000   1.0000   1.0000   1.0000
     1.0000   1.0000   1.0000   1.0000   1.0000   1.0000   1.0000   1.0000
     1.0000   1.0000   1.0000   1.0000   1.0000   1.0000   1.0000   1.0000
     1.0000   1.0000   1.0000   1.0000   1.0000   1.0000   1.0000   1.0000
     1.0000   0.0000   0.0000   0.0000   0.0000   0.0000   0.0000   0.0000
     0.0000   0.0000   0.0000   0.0000

          k = 0.2494-0.2278 0.0581 ( 19119 PWs)   bands (ev):

  -101.4200 -93.4802 -64.6859 -64.6316 -59.3884 -58.7135 -58.6125 -54.2038
   -54.0343 -53.9657 -29.0004 -28.9466 -28.9182 -28.8536 -28.8178 -28.7591
    -8.1273  -7.5557  -7.2484  -7.1615  -6.6241  -6.4312  -6.1951  -6.1774
     2.3605   2.5087   2.7022   2.8039   3.1706   3.3302   3.5598   3.7286
     3.9117   4.4803   4.7951   5.0078   5.3020   5.5749   5.6961   5.8579
     6.0513   6.4322   6.5546   7.0991   7.3041   7.6251   7.8033   8.0216
     8.2945   8.4517   8.5672   8.7554   9.0359   9.1829   9.4223   9.8313
     9.9516  12.4809  12.7488  12.9509  13.2398  13.4517  13.9987  14.4679
    15.9276  16.2085  17.8861  18.6056

     occupation numbers 
     1.0000   1.0000   1.0000   1.0000   1.0000   1.0000   1.0000   1.0000
     1.0000   1.0000   1.0000   1.0000   1.0000   1.0000   1.0000   1.0000
     1.0000   1.0000   1.0000   1.0000   1.0000   1.0000   1.0000   1.0000
     1.0000   1.0000   1.0000   1.0000   1.0000   1.0000   1.0000   1.0000
     1.0000   1.0000   1.0000   1.0000   1.0000   1.0000   1.0000   1.0000
     1.0000   1.0000   1.0000   1.0000   1.0000   1.0000   1.0000   1.0000
     1.0000   1.0000   1.0000   1.0000   1.0000   1.0000   1.0000   1.0000
     1.0000   0.0000   0.0000   0.0000   0.0000   0.0000   0.0000   0.0000
     0.0000   0.0000   0.0000   0.0000

          k = 0.2480-0.2278 0.2005 ( 19110 PWs)   bands (ev):

  -101.4200 -93.4801 -64.6859 -64.6318 -59.3884 -58.7135 -58.6125 -54.2038
   -54.0343 -53.9657 -28.9987 -28.9516 -28.9133 -28.8625 -28.8070 -28.7628
    -8.0725  -7.5161  -7.3032  -7.1573  -6.6316  -6.4965  -6.2030  -6.1547
     2.3726   2.5138   2.7096   2.8125   3.1593   3.2662   3.6472   3.7787
     3.9587   4.4595   4.6357   5.0169   5.3601   5.4213   5.6531   5.8388
     6.1261   6.3714   6.8342   7.0953   7.4135   7.7023   7.7734   7.9662
     8.1170   8.4130   8.5433   8.7005   9.0876   9.1648   9.5281   9.8134
     9.9460  12.4077  12.6237  12.9906  13.2634  13.4783  13.9299  14.4245
    16.0575  16.3957  18.0744  18.6448

     occupation numbers 
     1.0000   1.0000   1.0000   1.0000   1.0000   1.0000   1.0000   1.0000
     1.0000   1.0000   1.0000   1.0000   1.0000   1.0000   1.0000   1.0000
     1.0000   1.0000   1.0000   1.0000   1.0000   1.0000   1.0000   1.0000
     1.0000   1.0000   1.0000   1.0000   1.0000   1.0000   1.0000   1.0000
     1.0000   1.0000   1.0000   1.0000   1.0000   1.0000   1.0000   1.0000
     1.0000   1.0000   1.0000   1.0000   1.0000   1.0000   1.0000   1.0000
     1.0000   1.0000   1.0000   1.0000   1.0000   1.0000   1.0000   1.0000
     1.0000   0.0000   0.0000   0.0000   0.0000   0.0000   0.0000   0.0000
     0.0000   0.0000   0.0000   0.0000

          k = 0.2466-0.2278 0.3430 ( 19097 PWs)   bands (ev):

  -101.4200 -93.4801 -64.6858 -64.6319 -59.3884 -58.7135 -58.6125 -54.2038
   -54.0343 -53.9657 -28.9958 -28.9583 -28.9083 -28.8698 -28.7952 -28.7686
    -7.9393  -7.5388  -7.3846  -7.1816  -6.6880  -6.4487  -6.2133  -6.1512
     2.3918   2.5019   2.7048   2.8239   3.1068   3.2818   3.6858   3.8263
     3.9723   4.3848   4.6004   4.8761   5.1381   5.5457   5.7132   5.9685
     6.3905   6.6220   6.7765   7.0089   7.3134   7.3887   7.7081   7.8499
     8.0217   8.4317   8.6410   8.8110   9.1519   9.4478   9.5892   9.6871
    10.0635  12.2735  12.6425  12.7481  13.4296  13.5306  13.8763  14.3856
    16.0074  16.2135  18.4756  18.7589

     occupation numbers 
     1.0000   1.0000   1.0000   1.0000   1.0000   1.0000   1.0000   1.0000
     1.0000   1.0000   1.0000   1.0000   1.0000   1.0000   1.0000   1.0000
     1.0000   1.0000   1.0000   1.0000   1.0000   1.0000   1.0000   1.0000
     1.0000   1.0000   1.0000   1.0000   1.0000   1.0000   1.0000   1.0000
     1.0000   1.0000   1.0000   1.0000   1.0000   1.0000   1.0000   1.0000
     1.0000   1.0000   1.0000   1.0000   1.0000   1.0000   1.0000   1.0000
     1.0000   1.0000   1.0000   1.0000   1.0000   1.0000   1.0000   1.0000
     1.0000   0.0000   0.0000   0.0000   0.0000   0.0000   0.0000   0.0000
     0.0000   0.0000   0.0000   0.0000

          k = 0.2535-0.2277-0.3692 ( 19132 PWs)   bands (ev):

  -101.4200 -93.4801 -64.6857 -64.6318 -59.3884 -58.7135 -58.6125 -54.2038
   -54.0343 -53.9657 -28.9952 -28.9598 -28.9087 -28.8692 -28.7946 -28.7686
    -7.7995  -7.6933  -7.4003  -7.1821  -6.7206  -6.3501  -6.2204  -6.1754
     2.3972   2.4804   2.7028   2.8385   3.0901   3.2778   3.6603   3.8188
     3.9317   4.3937   4.6155   4.8735   5.1537   5.5888   5.8057   6.0948
     6.2913   6.4074   6.6929   7.0503   7.3488   7.5249   7.6792   7.7929
     8.0338   8.4138   8.6128   8.8450   9.1972   9.4653   9.6329   9.8014
    10.0397  12.2782  12.6644  12.7572  13.4031  13.5877  13.8602  14.4020
    15.8342  15.9214  18.2518  19.2138

     occupation numbers 
     1.0000   1.0000   1.0000   1.0000   1.0000   1.0000   1.0000   1.0000
     1.0000   1.0000   1.0000   1.0000   1.0000   1.0000   1.0000   1.0000
     1.0000   1.0000   1.0000   1.0000   1.0000   1.0000   1.0000   1.0000
     1.0000   1.0000   1.0000   1.0000   1.0000   1.0000   1.0000   1.0000
     1.0000   1.0000   1.0000   1.0000   1.0000   1.0000   1.0000   1.0000
     1.0000   1.0000   1.0000   1.0000   1.0000   1.0000   1.0000   1.0000
     1.0000   1.0000   1.0000   1.0000   1.0000   1.0000   1.0000   1.0000
     1.0000   0.0000   0.0000   0.0000   0.0000   0.0000   0.0000   0.0000
     0.0000   0.0000   0.0000   0.0000

          k = 0.2522-0.2278-0.2268 ( 19115 PWs)   bands (ev):

  -101.4200 -93.4802 -64.6858 -64.6316 -59.3884 -58.7135 -58.6125 -54.2038
   -54.0343 -53.9657 -28.9979 -28.9542 -28.9140 -28.8613 -28.8062 -28.7625
    -7.9238  -7.6660  -7.3558  -7.1839  -6.6531  -6.3234  -6.2350  -6.1869
     2.3868   2.4829   2.7023   2.8353   3.1182   3.2649   3.5655   3.7659
     3.9281   4.5126   4.6794   5.0087   5.3152   5.4385   5.5021   6.0159
     6.2532   6.5436   6.7289   7.0380   7.3033   7.5272   7.6736   7.8960
     8.2266   8.4376   8.6039   8.7989   9.1145   9.4117   9.5587   9.8343
     9.9835  12.3805  12.6952  12.9156  13.3004  13.5979  13.9588  14.4468
    15.6904  15.7423  18.0208  19.0155

     occupation numbers 
     1.0000   1.0000   1.0000   1.0000   1.0000   1.0000   1.0000   1.0000
     1.0000   1.0000   1.0000   1.0000   1.0000   1.0000   1.0000   1.0000
     1.0000   1.0000   1.0000   1.0000   1.0000   1.0000   1.0000   1.0000
     1.0000   1.0000   1.0000   1.0000   1.0000   1.0000   1.0000   1.0000
     1.0000   1.0000   1.0000   1.0000   1.0000   1.0000   1.0000   1.0000
     1.0000   1.0000   1.0000   1.0000   1.0000   1.0000   1.0000   1.0000
     1.0000   1.0000   1.0000   1.0000   1.0000   1.0000   1.0000   1.0000
     1.0000   0.0000   0.0000   0.0000   0.0000   0.0000   0.0000   0.0000
     0.0000   0.0000   0.0000   0.0000

          k = 0.2508-0.2278-0.0843 ( 19118 PWs)   bands (ev):

  -101.4200 -93.4802 -64.6859 -64.6315 -59.3884 -58.7135 -58.6125 -54.2038
   -54.0343 -53.9657 -29.0001 -28.9478 -28.9185 -28.8528 -28.8177 -28.7589
    -8.0746  -7.6039  -7.2776  -7.1863  -6.5897  -6.3894  -6.2090  -6.1868
     2.3675   2.5020   2.6962   2.8140   3.1493   3.3279   3.5134   3.7216
     3.9071   4.5338   4.8271   4.9454   5.2927   5.4551   5.7491   5.9243
     6.0893   6.3324   6.8634   7.0735   7.2886   7.4874   7.7439   7.8275
     8.2687   8.4605   8.7169   8.7743   9.1648   9.2762   9.4063   9.7942
    10.0123  12.4643  12.7512  12.9202  13.2115  13.5916  14.0362  14.4678
    15.7270  15.8662  17.9331  18.7192

     occupation numbers 
     1.0000   1.0000   1.0000   1.0000   1.0000   1.0000   1.0000   1.0000
     1.0000   1.0000   1.0000   1.0000   1.0000   1.0000   1.0000   1.0000
     1.0000   1.0000   1.0000   1.0000   1.0000   1.0000   1.0000   1.0000
     1.0000   1.0000   1.0000   1.0000   1.0000   1.0000   1.0000   1.0000
     1.0000   1.0000   1.0000   1.0000   1.0000   1.0000   1.0000   1.0000
     1.0000   1.0000   1.0000   1.0000   1.0000   1.0000   1.0000   1.0000
     1.0000   1.0000   1.0000   1.0000   1.0000   1.0000   1.0000   1.0000
     1.0000   0.0000   0.0000   0.0000   0.0000   0.0000   0.0000   0.0000
     0.0000   0.0000   0.0000   0.0000

          k = 0.2495-0.0806 0.0546 ( 19115 PWs)   bands (ev):

  -101.4200 -93.4802 -64.6859 -64.6315 -59.3884 -58.7135 -58.6125 -54.2038
   -54.0343 -53.9657 -29.0009 -28.9475 -28.9187 -28.8524 -28.8175 -28.7586
    -8.2873  -7.4847  -7.1842  -7.1102  -6.5390  -6.4424  -6.2470  -6.1937
     2.3636   2.4931   2.6753   2.7865   3.1778   3.3063   3.4841   3.7498
     3.8351   4.4483   4.6538   5.0881   5.3577   5.5008   5.7607   5.9937
     6.0475   6.3031   6.4534   7.0776   7.2357   7.5593   7.6428   8.0595
     8.4227   8.4793   8.6177   8.8466   9.1075   9.4178   9.5550  10.0726
    10.1217  12.3546  12.7729  12.9726  13.1576  13.5636  13.8892  14.4419
    15.8792  16.1214  17.7356  18.8126

     occupation numbers 
     1.0000   1.0000   1.0000   1.0000   1.0000   1.0000   1.0000   1.0000
     1.0000   1.0000   1.0000   1.0000   1.0000   1.0000   1.0000   1.0000
     1.0000   1.0000   1.0000   1.0000   1.0000   1.0000   1.0000   1.0000
     1.0000   1.0000   1.0000   1.0000   1.0000   1.0000   1.0000   1.0000
     1.0000   1.0000   1.0000   1.0000   1.0000   1.0000   1.0000   1.0000
     1.0000   1.0000   1.0000   1.0000   1.0000   1.0000   1.0000   1.0000
     1.0000   1.0000   1.0000   1.0000   1.0000   1.0000   1.0000   1.0000
     1.0000   0.0000   0.0000   0.0000   0.0000   0.0000   0.0000   0.0000
     0.0000   0.0000   0.0000   0.0000

          k = 0.2481-0.0806 0.1971 ( 19106 PWs)   bands (ev):

  -101.4200 -93.4801 -64.6858 -64.6318 -59.3884 -58.7135 -58.6125 -54.2038
   -54.0343 -53.9657 -28.9984 -28.9519 -28.9138 -28.8618 -28.8069 -28.7628
    -8.2256  -7.4698  -7.2178  -7.0710  -6.6213  -6.5527  -6.2090  -6.1367
     2.3894   2.4931   2.6843   2.7867   3.1554   3.2297   3.5815   3.7770
     3.9387   4.4092   4.4661   5.1991   5.4396   5.5130   5.6298   5.7833
     6.1367   6.2495   6.6887   7.0789   7.4241   7.4939   7.6357   8.0891
     8.1874   8.3616   8.6001   8.7495   9.2478   9.3933   9.7319   9.9933
    10.1426  12.2962  12.7432  13.0461  13.1909  13.4846  13.9188  14.3286
    16.0411  16.3783  17.7022  18.9687

     occupation numbers 
     1.0000   1.0000   1.0000   1.0000   1.0000   1.0000   1.0000   1.0000
     1.0000   1.0000   1.0000   1.0000   1.0000   1.0000   1.0000   1.0000
     1.0000   1.0000   1.0000   1.0000   1.0000   1.0000   1.0000   1.0000
     1.0000   1.0000   1.0000   1.0000   1.0000   1.0000   1.0000   1.0000
     1.0000   1.0000   1.0000   1.0000   1.0000   1.0000   1.0000   1.0000
     1.0000   1.0000   1.0000   1.0000   1.0000   1.0000   1.0000   1.0000
     1.0000   1.0000   1.0000   1.0000   1.0000   1.0000   1.0000   1.0000
     1.0000   0.0000   0.0000   0.0000   0.0000   0.0000   0.0000   0.0000
     0.0000   0.0000   0.0000   0.0000

          k = 0.2467-0.0806 0.3395 ( 19113 PWs)   bands (ev):

  -101.4200 -93.4801 -64.6857 -64.6319 -59.3884 -58.7135 -58.6125 -54.2038
   -54.0343 -53.9657 -28.9951 -28.9574 -28.9085 -28.8699 -28.7959 -28.7691
    -8.0675  -7.5562  -7.2830  -7.1038  -6.7149  -6.4971  -6.1950  -6.0934
     2.4103   2.5000   2.6624   2.7682   3.1064   3.2509   3.6429   3.7840
     4.0022   4.3166   4.5173   5.0561   5.1449   5.5931   5.7704   5.8638
     6.1435   6.6059   6.8380   6.9304   7.0791   7.3332   7.4894   7.8837
     8.3360   8.5842   8.6708   8.8784   9.2648   9.6107   9.8036   9.8916
    10.1670  12.2473  12.6706  12.8814  13.2156  13.5686  13.9951  14.2380
    15.9623  16.1674  18.3587  18.9713

     occupation numbers 
     1.0000   1.0000   1.0000   1.0000   1.0000   1.0000   1.0000   1.0000
     1.0000   1.0000   1.0000   1.0000   1.0000   1.0000   1.0000   1.0000
     1.0000   1.0000   1.0000   1.0000   1.0000   1.0000   1.0000   1.0000
     1.0000   1.0000   1.0000   1.0000   1.0000   1.0000   1.0000   1.0000
     1.0000   1.0000   1.0000   1.0000   1.0000   1.0000   1.0000   1.0000
     1.0000   1.0000   1.0000   1.0000   1.0000   1.0000   1.0000   1.0000
     1.0000   1.0000   1.0000   1.0000   1.0000   1.0000   1.0000   1.0000
     1.0000   0.0000   0.0000   0.0000   0.0000   0.0000   0.0000   0.0000
     0.0000   0.0000   0.0000   0.0000

          k = 0.2536-0.0805-0.3727 ( 19122 PWs)   bands (ev):

  -101.4200 -93.4801 -64.6857 -64.6318 -59.3884 -58.7135 -58.6125 -54.2038
   -54.0343 -53.9657 -28.9948 -28.9583 -28.9087 -28.8695 -28.7956 -28.7690
    -7.8795  -7.7701  -7.3159  -7.1403  -6.6841  -6.4243  -6.1911  -6.0980
     2.3977   2.4882   2.6589   2.7573   3.1263   3.2737   3.5813   3.7915
     3.9449   4.4217   4.6165   5.0071   5.0539   5.4692   5.7607   6.0489
     6.1261   6.3829   6.6055   6.9334   7.2965   7.4592   7.6739   7.8709
     8.2538   8.4946   8.7192   9.0227   9.3571   9.6598   9.7322   9.9693
    10.1052  12.2792  12.6342  12.8624  13.2221  13.6063  13.9087  14.3326
    15.7404  15.8510  18.5887  19.1784

     occupation numbers 
     1.0000   1.0000   1.0000   1.0000   1.0000   1.0000   1.0000   1.0000
     1.0000   1.0000   1.0000   1.0000   1.0000   1.0000   1.0000   1.0000
     1.0000   1.0000   1.0000   1.0000   1.0000   1.0000   1.0000   1.0000
     1.0000   1.0000   1.0000   1.0000   1.0000   1.0000   1.0000   1.0000
     1.0000   1.0000   1.0000   1.0000   1.0000   1.0000   1.0000   1.0000
     1.0000   1.0000   1.0000   1.0000   1.0000   1.0000   1.0000   1.0000
     1.0000   1.0000   1.0000   1.0000   1.0000   1.0000   1.0000   1.0000
     1.0000   0.0000   0.0000   0.0000   0.0000   0.0000   0.0000   0.0000
     0.0000   0.0000   0.0000   0.0000

          k = 0.2522-0.0805-0.2302 ( 19109 PWs)   bands (ev):

  -101.4200 -93.4801 -64.6857 -64.6316 -59.3884 -58.7135 -58.6125 -54.2038
   -54.0343 -53.9657 -28.9981 -28.9534 -28.9142 -28.8609 -28.8066 -28.7626
    -8.0447  -7.6780  -7.2952  -7.1578  -6.5658  -6.3675  -6.2322  -6.1477
     2.3809   2.4661   2.6869   2.7813   3.1783   3.2462   3.4416   3.7853
     3.9123   4.6001   4.8189   4.9284   5.0756   5.3228   5.4694   5.9148
     6.1732   6.5068   6.7440   7.0035   7.2969   7.5827   7.6627   7.9699
     8.2247   8.5150   8.7687   8.9054   9.3334   9.5820   9.6231   9.9792
    10.1198  12.3644  12.7206  12.8745  13.1412  13.6883  13.8779  14.4406
    15.5608  15.6918  18.1734  19.1200

     occupation numbers 
     1.0000   1.0000   1.0000   1.0000   1.0000   1.0000   1.0000   1.0000
     1.0000   1.0000   1.0000   1.0000   1.0000   1.0000   1.0000   1.0000
     1.0000   1.0000   1.0000   1.0000   1.0000   1.0000   1.0000   1.0000
     1.0000   1.0000   1.0000   1.0000   1.0000   1.0000   1.0000   1.0000
     1.0000   1.0000   1.0000   1.0000   1.0000   1.0000   1.0000   1.0000
     1.0000   1.0000   1.0000   1.0000   1.0000   1.0000   1.0000   1.0000
     1.0000   1.0000   1.0000   1.0000   1.0000   1.0000   1.0000   1.0000
     1.0000   0.0000   0.0000   0.0000   0.0000   0.0000   0.0000   0.0000
     0.0000   0.0000   0.0000   0.0000

          k = 0.2508-0.0806-0.0878 ( 19128 PWs)   bands (ev):

  -101.4200 -93.4802 -64.6858 -64.6315 -59.3884 -58.7135 -58.6125 -54.2038
   -54.0343 -53.9657 -29.0008 -28.9481 -28.9189 -28.8518 -28.8175 -28.7585
    -8.2246  -7.5534  -7.2253  -7.1587  -6.4696  -6.3494  -6.2974  -6.2030
     2.3634   2.4814   2.6841   2.7915   3.1811   3.2934   3.4094   3.7486
     3.8534   4.5703   4.8478   4.9619   5.1659   5.2465   5.7231   5.9391
     6.1683   6.4128   6.7401   6.9672   7.2465   7.4387   7.6274   8.1304
     8.2741   8.4632   8.7610   9.0733   9.1707   9.3996   9.5444  10.0122
    10.1674  12.3990  12.7543  12.9086  13.0491  13.6888  13.9354  14.4866
    15.6200  15.7849  17.9895  18.8335

     occupation numbers 
     1.0000   1.0000   1.0000   1.0000   1.0000   1.0000   1.0000   1.0000
     1.0000   1.0000   1.0000   1.0000   1.0000   1.0000   1.0000   1.0000
     1.0000   1.0000   1.0000   1.0000   1.0000   1.0000   1.0000   1.0000
     1.0000   1.0000   1.0000   1.0000   1.0000   1.0000   1.0000   1.0000
     1.0000   1.0000   1.0000   1.0000   1.0000   1.0000   1.0000   1.0000
     1.0000   1.0000   1.0000   1.0000   1.0000   1.0000   1.0000   1.0000
     1.0000   1.0000   1.0000   1.0000   1.0000   1.0000   1.0000   1.0000
     1.0000   0.0000   0.0000   0.0000   0.0000   0.0000   0.0000   0.0000
     0.0000   0.0000   0.0000   0.0000

          k = 0.4163 0.0620 0.0389 ( 19125 PWs)   bands (ev):

  -101.4200 -93.4802 -64.6857 -64.6314 -59.3884 -58.7135 -58.6125 -54.2038
   -54.0343 -53.9657 -29.0012 -28.9485 -28.9192 -28.8521 -28.8181 -28.7588
    -8.0122  -7.5257  -7.3608  -7.1578  -6.5385  -6.3925  -6.3461  -6.2217
     2.3933   2.4939   2.7076   2.9236   3.2533   3.3287   3.6215   3.7071
     3.9789   4.3596   4.6740   4.8671   5.2479   5.5615   5.7001   5.8250
     6.0185   6.2040   6.5184   6.8353   7.2597   7.4781   7.7647   8.0037
     8.2552   8.4078   8.7187   9.1393   9.2795   9.5524   9.7456  10.0463
    10.2296  12.2564  12.6888  13.0409  13.1617  13.4429  13.8209  14.4897
    15.8844  16.4703  18.1968  18.6245

     occupation numbers 
     1.0000   1.0000   1.0000   1.0000   1.0000   1.0000   1.0000   1.0000
     1.0000   1.0000   1.0000   1.0000   1.0000   1.0000   1.0000   1.0000
     1.0000   1.0000   1.0000   1.0000   1.0000   1.0000   1.0000   1.0000
     1.0000   1.0000   1.0000   1.0000   1.0000   1.0000   1.0000   1.0000
     1.0000   1.0000   1.0000   1.0000   1.0000   1.0000   1.0000   1.0000
     1.0000   1.0000   1.0000   1.0000   1.0000   1.0000   1.0000   1.0000
     1.0000   1.0000   1.0000   1.0000   1.0000   1.0000   1.0000   1.0000
     1.0000   0.0000   0.0000   0.0000   0.0000   0.0000   0.0000   0.0000
     0.0000   0.0000   0.0000   0.0000

          k = 0.4149 0.0620 0.1813 ( 19137 PWs)   bands (ev):

  -101.4200 -93.4801 -64.6856 -64.6318 -59.3884 -58.7135 -58.6125 -54.2038
   -54.0343 -53.9657 -28.9983 -28.9536 -28.9145 -28.8617 -28.8069 -28.7629
    -7.9977  -7.5082  -7.2636  -7.1765  -6.6418  -6.5105  -6.3004  -6.1669
     2.4153   2.5263   2.7154   2.8874   3.2294   3.3820   3.6722   3.8053
     3.9875   4.2894   4.5087   4.9284   5.1627   5.2733   5.7763   5.9131
     6.0372   6.1752   6.3762   7.0621   7.2282   7.5444   7.7548   8.0934
     8.3268   8.6124   8.7759   8.9693   9.2482   9.5279   9.7063  10.0752
    10.1334  12.2254  12.7031  13.0035  13.2357  13.4930  13.8783  14.3595
    15.8778  16.2967  18.3817  18.7902

     occupation numbers 
     1.0000   1.0000   1.0000   1.0000   1.0000   1.0000   1.0000   1.0000
     1.0000   1.0000   1.0000   1.0000   1.0000   1.0000   1.0000   1.0000
     1.0000   1.0000   1.0000   1.0000   1.0000   1.0000   1.0000   1.0000
     1.0000   1.0000   1.0000   1.0000   1.0000   1.0000   1.0000   1.0000
     1.0000   1.0000   1.0000   1.0000   1.0000   1.0000   1.0000   1.0000
     1.0000   1.0000   1.0000   1.0000   1.0000   1.0000   1.0000   1.0000
     1.0000   1.0000   1.0000   1.0000   1.0000   1.0000   1.0000   1.0000
     1.0000   0.0000   0.0000   0.0000   0.0000   0.0000   0.0000   0.0000
     0.0000   0.0000   0.0000   0.0000

          k = 0.4136 0.0620 0.3238 ( 19120 PWs)   bands (ev):

  -101.4200 -93.4801 -64.6856 -64.6321 -59.3884 -58.7135 -58.6125 -54.2038
   -54.0343 -53.9657 -28.9950 -28.9583 -28.9090 -28.8704 -28.7958 -28.7694
    -7.9071  -7.5472  -7.2680  -7.1492  -6.6772  -6.6326  -6.2659  -6.1249
     2.4309   2.5542   2.7204   2.8635   3.2336   3.4585   3.7465   3.8383
     4.0253   4.2648   4.3239   4.7337   4.8164   5.4326   5.5754   6.0577
     6.3144   6.4509   6.6314   6.9742   7.1084   7.2517   7.4629   7.9779
     8.5238   8.6762   8.9507   9.1965   9.3157   9.5677   9.7044  10.0092
    10.1205  12.2047  12.6707  12.8862  13.1972  13.6464  14.0381  14.1727
    15.7731  15.9691  18.8997  18.9956

     occupation numbers 
     1.0000   1.0000   1.0000   1.0000   1.0000   1.0000   1.0000   1.0000
     1.0000   1.0000   1.0000   1.0000   1.0000   1.0000   1.0000   1.0000
     1.0000   1.0000   1.0000   1.0000   1.0000   1.0000   1.0000   1.0000
     1.0000   1.0000   1.0000   1.0000   1.0000   1.0000   1.0000   1.0000
     1.0000   1.0000   1.0000   1.0000   1.0000   1.0000   1.0000   1.0000
     1.0000   1.0000   1.0000   1.0000   1.0000   1.0000   1.0000   1.0000
     1.0000   1.0000   1.0000   1.0000   1.0000   1.0000   1.0000   1.0000
     1.0000   0.0000   0.0000   0.0000   0.0000   0.0000   0.0000   0.0000
     0.0000   0.0000   0.0000   0.0000

          k = 0.4205 0.0620-0.3884 ( 19116 PWs)   bands (ev):

  -101.4200 -93.4801 -64.6856 -64.6320 -59.3884 -58.7135 -58.6125 -54.2038
   -54.0343 -53.9657 -28.9954 -28.9576 -28.9088 -28.8707 -28.7961 -28.7693
    -7.7891  -7.6329  -7.3721  -7.1191  -6.7323  -6.5472  -6.2591  -6.1164
     2.4118   2.5517   2.7265   2.8665   3.2518   3.4648   3.6675   3.8358
     4.0297   4.3540   4.4509   4.6471   4.7083   5.3208   5.6511   6.0190
     6.3125   6.5341   6.7063   6.8279   7.2159   7.2606   7.4779   8.0051
     8.4435   8.5838   9.0228   9.1511   9.3808   9.6253   9.7514   9.9950
    10.1360  12.2524  12.6136  12.9338  13.1525  13.6889  13.9713  14.2390
    15.6391  15.8401  18.7787  19.1952

     occupation numbers 
     1.0000   1.0000   1.0000   1.0000   1.0000   1.0000   1.0000   1.0000
     1.0000   1.0000   1.0000   1.0000   1.0000   1.0000   1.0000   1.0000
     1.0000   1.0000   1.0000   1.0000   1.0000   1.0000   1.0000   1.0000
     1.0000   1.0000   1.0000   1.0000   1.0000   1.0000   1.0000   1.0000
     1.0000   1.0000   1.0000   1.0000   1.0000   1.0000   1.0000   1.0000
     1.0000   1.0000   1.0000   1.0000   1.0000   1.0000   1.0000   1.0000
     1.0000   1.0000   1.0000   1.0000   1.0000   1.0000   1.0000   1.0000
     1.0000   0.0000   0.0000   0.0000   0.0000   0.0000   0.0000   0.0000
     0.0000   0.0000   0.0000   0.0000

          k = 0.4191 0.0620-0.2460 ( 19107 PWs)   bands (ev):

  -101.4200 -93.4801 -64.6856 -64.6317 -59.3884 -58.7135 -58.6125 -54.2038
   -54.0343 -53.9657 -28.9989 -28.9523 -28.9143 -28.8622 -28.8074 -28.7630
    -7.7927  -7.6726  -7.4289  -7.1315  -6.6597  -6.4332  -6.2929  -6.1464
     2.3827   2.5092   2.7512   2.8878   3.2572   3.3812   3.5554   3.8164
     4.0141   4.4394   4.7271   4.7914   4.9483   5.0883   5.5395   5.8972
     6.1275   6.4312   6.6155   6.9161   7.3101   7.5866   7.8588   8.0415
     8.2187   8.4581   8.7283   8.8866   9.4408   9.6346   9.8252   9.9986
    10.2050  12.3449  12.6731  12.9093  13.1268  13.6218  13.8996  14.4038
    15.6010  15.9880  18.5261  18.9751

     occupation numbers 
     1.0000   1.0000   1.0000   1.0000   1.0000   1.0000   1.0000   1.0000
     1.0000   1.0000   1.0000   1.0000   1.0000   1.0000   1.0000   1.0000
     1.0000   1.0000   1.0000   1.0000   1.0000   1.0000   1.0000   1.0000
     1.0000   1.0000   1.0000   1.0000   1.0000   1.0000   1.0000   1.0000
     1.0000   1.0000   1.0000   1.0000   1.0000   1.0000   1.0000   1.0000
     1.0000   1.0000   1.0000   1.0000   1.0000   1.0000   1.0000   1.0000
     1.0000   1.0000   1.0000   1.0000   1.0000   1.0000   1.0000   1.0000
     1.0000   0.0000   0.0000   0.0000   0.0000   0.0000   0.0000   0.0000
     0.0000   0.0000   0.0000   0.0000

          k = 0.4177 0.0620-0.1035 ( 19129 PWs)   bands (ev):

  -101.4200 -93.4802 -64.6856 -64.6314 -59.3884 -58.7135 -58.6125 -54.2038
   -54.0343 -53.9657 -29.0015 -28.9479 -28.9192 -28.8523 -28.8183 -28.7588
    -7.9343  -7.5985  -7.4114  -7.1498  -6.5234  -6.4048  -6.3182  -6.2111
     2.3795   2.4799   2.7347   2.9214   3.2791   3.3169   3.5445   3.7368
     3.9915   4.4716   4.5915   5.0409   5.1867   5.2437   5.5192   5.9452
     6.0519   6.2869   6.6957   6.8104   7.3596   7.5281   7.7379   8.0454
     8.1828   8.2820   8.5857   9.0980   9.4143   9.6285   9.8090  10.0127
    10.2656  12.3314  12.7021  12.8963  13.1063  13.5294  13.8704  14.5059
    15.7396  16.2807  18.3839  18.6872

     occupation numbers 
     1.0000   1.0000   1.0000   1.0000   1.0000   1.0000   1.0000   1.0000
     1.0000   1.0000   1.0000   1.0000   1.0000   1.0000   1.0000   1.0000
     1.0000   1.0000   1.0000   1.0000   1.0000   1.0000   1.0000   1.0000
     1.0000   1.0000   1.0000   1.0000   1.0000   1.0000   1.0000   1.0000
     1.0000   1.0000   1.0000   1.0000   1.0000   1.0000   1.0000   1.0000
     1.0000   1.0000   1.0000   1.0000   1.0000   1.0000   1.0000   1.0000
     1.0000   1.0000   1.0000   1.0000   1.0000   1.0000   1.0000   1.0000
     1.0000   0.0000   0.0000   0.0000   0.0000   0.0000   0.0000   0.0000
     0.0000   0.0000   0.0000   0.0000

          k = 0.4164 0.2092 0.0354 ( 19145 PWs)   bands (ev):

  -101.4200 -93.4802 -64.6857 -64.6315 -59.3884 -58.7135 -58.6125 -54.2038
   -54.0343 -53.9657 -29.0007 -28.9481 -28.9186 -28.8530 -28.8182 -28.7592
    -7.9642  -7.4772  -7.4212  -7.2006  -6.5526  -6.3812  -6.3581  -6.2035
     2.3225   2.4109   2.7268   2.8941   3.1550   3.3017   3.6128   3.7166
     4.0459   4.4217   4.8313   5.1621   5.3690   5.5834   5.6786   5.9227
     6.0885   6.2760   6.6144   6.9209   7.3203   7.3956   7.5554   8.0390
     8.1698   8.4102   8.7023   9.0799   9.2592   9.3104   9.4227   9.6877
    10.1270  12.0415  12.7131  13.0073  13.2303  13.6226  13.8988  14.5147
    16.0234  16.4844  17.8454  18.6365

     occupation numbers 
     1.0000   1.0000   1.0000   1.0000   1.0000   1.0000   1.0000   1.0000
     1.0000   1.0000   1.0000   1.0000   1.0000   1.0000   1.0000   1.0000
     1.0000   1.0000   1.0000   1.0000   1.0000   1.0000   1.0000   1.0000
     1.0000   1.0000   1.0000   1.0000   1.0000   1.0000   1.0000   1.0000
     1.0000   1.0000   1.0000   1.0000   1.0000   1.0000   1.0000   1.0000
     1.0000   1.0000   1.0000   1.0000   1.0000   1.0000   1.0000   1.0000
     1.0000   1.0000   1.0000   1.0000   1.0000   1.0000   1.0000   1.0000
     1.0000   0.0000   0.0000   0.0000   0.0000   0.0000   0.0000   0.0000
     0.0000   0.0000   0.0000   0.0000

          k = 0.4150 0.2092 0.1779 ( 19157 PWs)   bands (ev):

  -101.4200 -93.4801 -64.6856 -64.6318 -59.3884 -58.7135 -58.6125 -54.2038
   -54.0343 -53.9657 -28.9982 -28.9544 -28.9140 -28.8619 -28.8064 -28.7628
    -7.9451  -7.4527  -7.3661  -7.2628  -6.5659  -6.4155  -6.3154  -6.2404
     2.3453   2.4230   2.7283   2.8778   3.1477   3.3377   3.6570   3.8392
     4.0192   4.3557   4.8014   4.9209   5.2088   5.3978   5.7902   5.9504
     6.0867   6.1879   6.6637   7.0877   7.4015   7.6340   7.7339   8.1307
     8.3125   8.4235   8.5552   8.9544   9.1133   9.2743   9.4326   9.8016
    10.0097  12.0194  12.6466  12.9134  13.3012  13.7105  13.9341  14.3768
    15.9659  16.3071  18.2680  18.7672

     occupation numbers 
     1.0000   1.0000   1.0000   1.0000   1.0000   1.0000   1.0000   1.0000
     1.0000   1.0000   1.0000   1.0000   1.0000   1.0000   1.0000   1.0000
     1.0000   1.0000   1.0000   1.0000   1.0000   1.0000   1.0000   1.0000
     1.0000   1.0000   1.0000   1.0000   1.0000   1.0000   1.0000   1.0000
     1.0000   1.0000   1.0000   1.0000   1.0000   1.0000   1.0000   1.0000
     1.0000   1.0000   1.0000   1.0000   1.0000   1.0000   1.0000   1.0000
     1.0000   1.0000   1.0000   1.0000   1.0000   1.0000   1.0000   1.0000
     1.0000   0.0000   0.0000   0.0000   0.0000   0.0000   0.0000   0.0000
     0.0000   0.0000   0.0000   0.0000

          k = 0.4136 0.2092 0.3203 ( 19148 PWs)   bands (ev):

  -101.4200 -93.4801 -64.6856 -64.6321 -59.3884 -58.7135 -58.6125 -54.2038
   -54.0343 -53.9657 -28.9955 -28.9597 -28.9088 -28.8700 -28.7947 -28.7689
    -7.8568  -7.5001  -7.3808  -7.2706  -6.5258  -6.4855  -6.3085  -6.2401
     2.3607   2.4257   2.7124   2.8786   3.1959   3.3778   3.6771   3.9259
     3.9898   4.3798   4.6206   4.7259   4.9392   5.4266   5.5278   6.1712
     6.3800   6.4906   6.8537   6.9758   7.2978   7.4567   7.7104   7.9145
     8.4553   8.5452   8.7489   8.9469   9.0864   9.2521   9.5286   9.8632
     9.9550  12.0338  12.5763  12.7631  13.3161  13.8071  14.0685  14.1911
    15.8428  16.0006  18.7619  18.9490

     occupation numbers 
     1.0000   1.0000   1.0000   1.0000   1.0000   1.0000   1.0000   1.0000
     1.0000   1.0000   1.0000   1.0000   1.0000   1.0000   1.0000   1.0000
     1.0000   1.0000   1.0000   1.0000   1.0000   1.0000   1.0000   1.0000
     1.0000   1.0000   1.0000   1.0000   1.0000   1.0000   1.0000   1.0000
     1.0000   1.0000   1.0000   1.0000   1.0000   1.0000   1.0000   1.0000
     1.0000   1.0000   1.0000   1.0000   1.0000   1.0000   1.0000   1.0000
     1.0000   1.0000   1.0000   1.0000   1.0000   1.0000   1.0000   1.0000
     1.0000   0.0000   0.0000   0.0000   0.0000   0.0000   0.0000   0.0000
     0.0000   0.0000   0.0000   0.0000

          k = 0.4205 0.2092-0.3919 ( 19143 PWs)   bands (ev):

  -101.4200 -93.4801 -64.6856 -64.6322 -59.3884 -58.7135 -58.6125 -54.2038
   -54.0343 -53.9657 -28.9962 -28.9583 -28.9085 -28.8707 -28.7953 -28.7688
    -7.7522  -7.5984  -7.4563  -7.1999  -6.6234  -6.4057  -6.3054  -6.2253
     2.3351   2.4317   2.7077   2.8961   3.2282   3.3491   3.6544   3.8390
     4.0558   4.4246   4.5371   4.8330   4.8944   5.4128   5.6063   6.1234
     6.3406   6.6086   6.8514   6.9488   7.2975   7.4687   7.5952   7.9959
     8.2551   8.5039   8.8542   8.9662   9.1011   9.2540   9.6082   9.8347
    10.0275  12.1035  12.5205  12.8013  13.3326  13.7773  14.0619  14.2439
    15.7065  15.8922  18.4878  19.2780

     occupation numbers 
     1.0000   1.0000   1.0000   1.0000   1.0000   1.0000   1.0000   1.0000
     1.0000   1.0000   1.0000   1.0000   1.0000   1.0000   1.0000   1.0000
     1.0000   1.0000   1.0000   1.0000   1.0000   1.0000   1.0000   1.0000
     1.0000   1.0000   1.0000   1.0000   1.0000   1.0000   1.0000   1.0000
     1.0000   1.0000   1.0000   1.0000   1.0000   1.0000   1.0000   1.0000
     1.0000   1.0000   1.0000   1.0000   1.0000   1.0000   1.0000   1.0000
     1.0000   1.0000   1.0000   1.0000   1.0000   1.0000   1.0000   1.0000
     1.0000   0.0000   0.0000   0.0000   0.0000   0.0000   0.0000   0.0000
     0.0000   0.0000   0.0000   0.0000

          k = 0.4191 0.2092-0.2494 ( 19114 PWs)   bands (ev):

  -101.4200 -93.4801 -64.6856 -64.6318 -59.3884 -58.7135 -58.6125 -54.2038
   -54.0343 -53.9657 -28.9992 -28.9517 -28.9136 -28.8630 -28.8073 -28.7629
    -7.7876  -7.6178  -7.4647  -7.1639  -6.6427  -6.3692  -6.3126  -6.2022
     2.3008   2.4207   2.7406   2.9055   3.2023   3.2815   3.6220   3.7513
     4.0701   4.4295   4.7504   4.9474   5.1962   5.4599   5.5639   5.9599
     6.2913   6.3975   6.6769   7.0293   7.2592   7.5266   7.7471   7.9819
     8.2328   8.4448   8.7352   8.8411   9.1380   9.2857   9.5701   9.8226
    10.0982  12.1782  12.5983  12.9170  13.2870  13.6611  14.0242  14.4249
    15.7121  16.0152  18.1114  19.0811

     occupation numbers 
     1.0000   1.0000   1.0000   1.0000   1.0000   1.0000   1.0000   1.0000
     1.0000   1.0000   1.0000   1.0000   1.0000   1.0000   1.0000   1.0000
     1.0000   1.0000   1.0000   1.0000   1.0000   1.0000   1.0000   1.0000
     1.0000   1.0000   1.0000   1.0000   1.0000   1.0000   1.0000   1.0000
     1.0000   1.0000   1.0000   1.0000   1.0000   1.0000   1.0000   1.0000
     1.0000   1.0000   1.0000   1.0000   1.0000   1.0000   1.0000   1.0000
     1.0000   1.0000   1.0000   1.0000   1.0000   1.0000   1.0000   1.0000
     1.0000   0.0000   0.0000   0.0000   0.0000   0.0000   0.0000   0.0000
     0.0000   0.0000   0.0000   0.0000

          k = 0.4178 0.2092-0.1070 ( 19114 PWs)   bands (ev):

  -101.4200 -93.4802 -64.6856 -64.6315 -59.3884 -58.7135 -58.6125 -54.2038
   -54.0343 -53.9657 -29.0011 -28.9468 -28.9186 -28.8536 -28.8185 -28.7593
    -7.9028  -7.5595  -7.4360  -7.1738  -6.5704  -6.3842  -6.3437  -6.1865
     2.3003   2.4050   2.7485   2.9004   3.1805   3.2737   3.5947   3.6885
     4.0613   4.4652   4.8333   5.1175   5.3576   5.5256   5.6584   5.9554
     6.1232   6.3845   6.7537   6.9906   7.0650   7.3559   7.5085   8.0016
     8.1896   8.5426   8.6044   9.0199   9.2388   9.3697   9.4507   9.7410
    10.1625  12.1341  12.7238  12.9364  13.2136  13.6319  13.9532  14.5339
    15.8951  16.2977  17.8475  18.7749

     occupation numbers 
     1.0000   1.0000   1.0000   1.0000   1.0000   1.0000   1.0000   1.0000
     1.0000   1.0000   1.0000   1.0000   1.0000   1.0000   1.0000   1.0000
     1.0000   1.0000   1.0000   1.0000   1.0000   1.0000   1.0000   1.0000
     1.0000   1.0000   1.0000   1.0000   1.0000   1.0000   1.0000   1.0000
     1.0000   1.0000   1.0000   1.0000   1.0000   1.0000   1.0000   1.0000
     1.0000   1.0000   1.0000   1.0000   1.0000   1.0000   1.0000   1.0000
     1.0000   1.0000   1.0000   1.0000   1.0000   1.0000   1.0000   1.0000
     1.0000   0.0000   0.0000   0.0000   0.0000   0.0000   0.0000   0.0000
     0.0000   0.0000   0.0000   0.0000

          k = 0.4165 0.3564 0.0319 ( 19142 PWs)   bands (ev):

  -101.4200 -93.4802 -64.6857 -64.6317 -59.3884 -58.7135 -58.6125 -54.2038
   -54.0343 -53.9657 -29.0002 -28.9471 -28.9180 -28.8542 -28.8184 -28.7597
    -7.8836  -7.5237  -7.3909  -7.2452  -6.6352  -6.4721  -6.2946  -6.1130
     2.2522   2.3824   2.7039   2.8310   3.1414   3.2368   3.6115   3.7047
     4.0988   4.4530   5.0844   5.4543   5.5169   5.5825   5.7667   5.9974
     6.0814   6.2254   6.8721   6.9810   7.2284   7.4195   7.6561   7.9378
     8.0466   8.3370   8.6306   8.9120   8.9823   9.1284   9.2569   9.4195
     9.9980  11.9673  12.7612  12.9967  13.2898  13.6561  14.0936  14.4710
    16.1167  16.4979  17.5553  18.6915

     occupation numbers 
     1.0000   1.0000   1.0000   1.0000   1.0000   1.0000   1.0000   1.0000
     1.0000   1.0000   1.0000   1.0000   1.0000   1.0000   1.0000   1.0000
     1.0000   1.0000   1.0000   1.0000   1.0000   1.0000   1.0000   1.0000
     1.0000   1.0000   1.0000   1.0000   1.0000   1.0000   1.0000   1.0000
     1.0000   1.0000   1.0000   1.0000   1.0000   1.0000   1.0000   1.0000
     1.0000   1.0000   1.0000   1.0000   1.0000   1.0000   1.0000   1.0000
     1.0000   1.0000   1.0000   1.0000   1.0000   1.0000   1.0000   1.0000
     1.0000   0.0000   0.0000   0.0000   0.0000   0.0000   0.0000   0.0000
     0.0000   0.0000   0.0000   0.0000

          k = 0.4151 0.3564 0.1744 ( 19148 PWs)   bands (ev):

  -101.4200 -93.4802 -64.6857 -64.6320 -59.3884 -58.7135 -58.6125 -54.2038
   -54.0343 -53.9657 -28.9985 -28.9539 -28.9134 -28.8625 -28.8064 -28.7627
    -7.8477  -7.5095  -7.3893  -7.3086  -6.5740  -6.4610  -6.2769  -6.1922
     2.2565   2.4015   2.7033   2.8417   3.1411   3.2483   3.6369   3.8165
     4.0787   4.4245   4.8174   5.1830   5.2528   5.6342   5.8742   6.0369
     6.0753   6.2419   6.9456   7.1099   7.3841   7.6948   7.8889   8.0159
     8.1885   8.3852   8.4822   8.7515   8.9433   9.0174   9.1629   9.5752
     9.8382  11.9467  12.6445  12.7985  13.3832  13.8004  14.0783  14.3324
    16.0150  16.3193  18.1251  18.7648

     occupation numbers 
     1.0000   1.0000   1.0000   1.0000   1.0000   1.0000   1.0000   1.0000
     1.0000   1.0000   1.0000   1.0000   1.0000   1.0000   1.0000   1.0000
     1.0000   1.0000   1.0000   1.0000   1.0000   1.0000   1.0000   1.0000
     1.0000   1.0000   1.0000   1.0000   1.0000   1.0000   1.0000   1.0000
     1.0000   1.0000   1.0000   1.0000   1.0000   1.0000   1.0000   1.0000
     1.0000   1.0000   1.0000   1.0000   1.0000   1.0000   1.0000   1.0000
     1.0000   1.0000   1.0000   1.0000   1.0000   1.0000   1.0000   1.0000
     1.0000   0.0000   0.0000   0.0000   0.0000   0.0000   0.0000   0.0000
     0.0000   0.0000   0.0000   0.0000

          k = 0.4137 0.3564 0.3168 ( 19168 PWs)   bands (ev):

  -101.4201 -93.4801 -64.6857 -64.6322 -59.3884 -58.7135 -58.6125 -54.2038
   -54.0343 -53.9657 -28.9963 -28.9604 -28.9085 -28.8698 -28.7939 -28.7684
    -7.7656  -7.5387  -7.3979  -7.3657  -6.4698  -6.4091  -6.3255  -6.2891
     2.2710   2.4037   2.6763   2.8693   3.1624   3.2661   3.6469   3.9208
     4.0408   4.4084   4.5899   4.9945   5.1023   5.5186   5.7588   6.1337
     6.4054   6.5778   6.9562   7.0410   7.4049   7.6443   7.9343   8.0626
     8.2912   8.4379   8.5482   8.7067   8.8144   8.9166   9.2871   9.6637
     9.8071  11.9436  12.5054  12.6536  13.4615  13.8959  14.0609  14.2237
    15.8953  16.0253  18.6653  18.8796

     occupation numbers 
     1.0000   1.0000   1.0000   1.0000   1.0000   1.0000   1.0000   1.0000
     1.0000   1.0000   1.0000   1.0000   1.0000   1.0000   1.0000   1.0000
     1.0000   1.0000   1.0000   1.0000   1.0000   1.0000   1.0000   1.0000
     1.0000   1.0000   1.0000   1.0000   1.0000   1.0000   1.0000   1.0000
     1.0000   1.0000   1.0000   1.0000   1.0000   1.0000   1.0000   1.0000
     1.0000   1.0000   1.0000   1.0000   1.0000   1.0000   1.0000   1.0000
     1.0000   1.0000   1.0000   1.0000   1.0000   1.0000   1.0000   1.0000
     1.0000   0.0000   0.0000   0.0000   0.0000   0.0000   0.0000   0.0000
     0.0000   0.0000   0.0000   0.0000

          k = 0.4206 0.3565-0.3954 ( 19169 PWs)   bands (ev):

  -101.4201 -93.4801 -64.6856 -64.6322 -59.3884 -58.7135 -58.6125 -54.2038
   -54.0343 -53.9657 -28.9966 -28.9597 -28.9084 -28.8702 -28.7942 -28.7683
    -7.7304  -7.5658  -7.4566  -7.2951  -6.5622  -6.3595  -6.3207  -6.2714
     2.2713   2.3886   2.6715   2.8979   3.1685   3.2338   3.6243   3.8802
     4.0529   4.3723   4.5959   5.0301   5.2118   5.5902   5.7954   6.1291
     6.2825   6.6099   6.8756   7.2110   7.3688   7.6731   7.8421   8.0290
     8.1266   8.2655   8.5503   8.6901   8.8718   9.0596   9.3793   9.6415
     9.9088  11.9778  12.4471  12.7579  13.4855  13.8033  14.0806  14.2984
    15.7763  15.9162  18.3136  19.2758

     occupation numbers 
     1.0000   1.0000   1.0000   1.0000   1.0000   1.0000   1.0000   1.0000
     1.0000   1.0000   1.0000   1.0000   1.0000   1.0000   1.0000   1.0000
     1.0000   1.0000   1.0000   1.0000   1.0000   1.0000   1.0000   1.0000
     1.0000   1.0000   1.0000   1.0000   1.0000   1.0000   1.0000   1.0000
     1.0000   1.0000   1.0000   1.0000   1.0000   1.0000   1.0000   1.0000
     1.0000   1.0000   1.0000   1.0000   1.0000   1.0000   1.0000   1.0000
     1.0000   1.0000   1.0000   1.0000   1.0000   1.0000   1.0000   1.0000
     1.0000   0.0000   0.0000   0.0000   0.0000   0.0000   0.0000   0.0000
     0.0000   0.0000   0.0000   0.0000

          k = 0.4192 0.3564-0.2529 ( 19142 PWs)   bands (ev):

  -101.4200 -93.4801 -64.6857 -64.6319 -59.3884 -58.7135 -58.6125 -54.2038
   -54.0343 -53.9657 -28.9991 -28.9525 -28.9133 -28.8632 -28.8068 -28.7628
    -7.8022  -7.5296  -7.4620  -7.2245  -6.6764  -6.4045  -6.2903  -6.1706
     2.2537   2.3771   2.6885   2.9009   3.1436   3.1951   3.6078   3.7599
     4.0903   4.3986   4.7850   5.2553   5.4310   5.6761   5.9145   5.9881
     6.1538   6.4226   6.8909   7.0436   7.1809   7.6064   7.7278   7.9452
     8.0836   8.4311   8.5117   8.7649   8.8215   9.1049   9.3849   9.5908
     9.9791  12.0159  12.5616  12.9924  13.4021  13.7311  14.0485  14.4594
    15.7985  16.0346  17.8391  19.1501

     occupation numbers 
     1.0000   1.0000   1.0000   1.0000   1.0000   1.0000   1.0000   1.0000
     1.0000   1.0000   1.0000   1.0000   1.0000   1.0000   1.0000   1.0000
     1.0000   1.0000   1.0000   1.0000   1.0000   1.0000   1.0000   1.0000
     1.0000   1.0000   1.0000   1.0000   1.0000   1.0000   1.0000   1.0000
     1.0000   1.0000   1.0000   1.0000   1.0000   1.0000   1.0000   1.0000
     1.0000   1.0000   1.0000   1.0000   1.0000   1.0000   1.0000   1.0000
     1.0000   1.0000   1.0000   1.0000   1.0000   1.0000   1.0000   1.0000
     1.0000   0.0000   0.0000   0.0000   0.0000   0.0000   0.0000   0.0000
     0.0000   0.0000   0.0000   0.0000

          k = 0.4178 0.3564-0.1105 ( 19125 PWs)   bands (ev):

  -101.4200 -93.4802 -64.6857 -64.6317 -59.3884 -58.7135 -58.6125 -54.2038
   -54.0343 -53.9657 -29.0005 -28.9463 -28.9181 -28.8545 -28.8186 -28.7597
    -7.8638  -7.5315  -7.4180  -7.2160  -6.6745  -6.4448  -6.2994  -6.1107
     2.2503   2.3698   2.6983   2.8599   3.1374   3.2131   3.6097   3.6785
     4.1034   4.4459   5.0861   5.3470   5.5892   5.6566   5.7733   6.0088
     6.2790   6.3830   6.6726   6.9501   7.0698   7.4034   7.6146   7.8477
     8.0133   8.4785   8.6303   8.7966   9.0515   9.0875   9.3605   9.4441
    10.0474  12.0057  12.7232  13.0688  13.2998  13.6845  14.0427  14.5264
    16.0026  16.3284  17.4860  18.8515

     occupation numbers 
     1.0000   1.0000   1.0000   1.0000   1.0000   1.0000   1.0000   1.0000
     1.0000   1.0000   1.0000   1.0000   1.0000   1.0000   1.0000   1.0000
     1.0000   1.0000   1.0000   1.0000   1.0000   1.0000   1.0000   1.0000
     1.0000   1.0000   1.0000   1.0000   1.0000   1.0000   1.0000   1.0000
     1.0000   1.0000   1.0000   1.0000   1.0000   1.0000   1.0000   1.0000
     1.0000   1.0000   1.0000   1.0000   1.0000   1.0000   1.0000   1.0000
     1.0000   1.0000   1.0000   1.0000   1.0000   1.0000   1.0000   1.0000
     1.0000   0.0000   0.0000   0.0000   0.0000   0.0000   0.0000   0.0000
     0.0000   0.0000   0.0000   0.0000

          k = 0.4161-0.3796 0.0494 ( 19145 PWs)   bands (ev):

  -101.4200 -93.4802 -64.6858 -64.6317 -59.3884 -58.7135 -58.6125 -54.2038
   -54.0343 -53.9657 -29.0003 -28.9464 -28.9180 -28.8546 -28.8185 -28.7597
    -7.8014  -7.6444  -7.3727  -7.2399  -6.6296  -6.4797  -6.2886  -6.0999
     2.2624   2.4020   2.6660   2.8496   3.1724   3.2141   3.6072   3.6828
     4.0909   4.4670   5.1086   5.3295   5.5122   5.5648   5.7774   6.0021
     6.1212   6.3056   6.8762   7.0816   7.1966   7.4604   7.6317   7.8713
     8.0023   8.4285   8.6359   8.7975   8.9623   9.1045   9.2622   9.4150
     9.9943  12.0866  12.7735  13.0371  13.2467  13.5755  14.1554  14.4461
    16.1062  16.4951  17.5554  18.6954

     occupation numbers 
     1.0000   1.0000   1.0000   1.0000   1.0000   1.0000   1.0000   1.0000
     1.0000   1.0000   1.0000   1.0000   1.0000   1.0000   1.0000   1.0000
     1.0000   1.0000   1.0000   1.0000   1.0000   1.0000   1.0000   1.0000
     1.0000   1.0000   1.0000   1.0000   1.0000   1.0000   1.0000   1.0000
     1.0000   1.0000   1.0000   1.0000   1.0000   1.0000   1.0000   1.0000
     1.0000   1.0000   1.0000   1.0000   1.0000   1.0000   1.0000   1.0000
     1.0000   1.0000   1.0000   1.0000   1.0000   1.0000   1.0000   1.0000
     1.0000   0.0000   0.0000   0.0000   0.0000   0.0000   0.0000   0.0000
     0.0000   0.0000   0.0000   0.0000

          k = 0.4147-0.3796 0.1918 ( 19123 PWs)   bands (ev):

  -101.4200 -93.4801 -64.6858 -64.6320 -59.3884 -58.7135 -58.6125 -54.2038
   -54.0343 -53.9657 -28.9989 -28.9526 -28.9132 -28.8631 -28.8068 -28.7628
    -7.7578  -7.6278  -7.3929  -7.2886  -6.5821  -6.4670  -6.2674  -6.1740
     2.2675   2.4262   2.6684   2.8573   3.1718   3.2178   3.6275   3.7900
     4.0754   4.4664   4.7919   5.1218   5.2450   5.6282   5.8633   6.0218
     6.1570   6.3313   6.9099   7.1044   7.5159   7.6272   7.9289   7.9380
     8.1474   8.3931   8.5113   8.7447   8.8298   9.0301   9.1258   9.6056
     9.8279  12.0855  12.6365  12.7874  13.4007  13.7163  14.1947  14.2644
    15.9952  16.3137  18.1276  18.7648

     occupation numbers 
     1.0000   1.0000   1.0000   1.0000   1.0000   1.0000   1.0000   1.0000
     1.0000   1.0000   1.0000   1.0000   1.0000   1.0000   1.0000   1.0000
     1.0000   1.0000   1.0000   1.0000   1.0000   1.0000   1.0000   1.0000
     1.0000   1.0000   1.0000   1.0000   1.0000   1.0000   1.0000   1.0000
     1.0000   1.0000   1.0000   1.0000   1.0000   1.0000   1.0000   1.0000
     1.0000   1.0000   1.0000   1.0000   1.0000   1.0000   1.0000   1.0000
     1.0000   1.0000   1.0000   1.0000   1.0000   1.0000   1.0000   1.0000
     1.0000   0.0000   0.0000   0.0000   0.0000   0.0000   0.0000   0.0000
     0.0000   0.0000   0.0000   0.0000

          k = 0.4134-0.3796 0.3342 ( 19154 PWs)   bands (ev):

  -101.4200 -93.4801 -64.6858 -64.6323 -59.3884 -58.7135 -58.6125 -54.2038
   -54.0343 -53.9657 -28.9965 -28.9597 -28.9084 -28.8700 -28.7942 -28.7683
    -7.7028  -7.5766  -7.4398  -7.3598  -6.4953  -6.4212  -6.2928  -6.2715
     2.2936   2.4307   2.6631   2.8627   3.1532   3.2347   3.6695   3.8698
     4.0440   4.4374   4.5555   5.0130   5.1225   5.4674   5.7812   6.1777
     6.4446   6.5919   6.8874   7.0224   7.4843   7.6875   7.9053   8.0383
     8.2082   8.4152   8.5868   8.7681   8.7987   8.9487   9.1516   9.6561
     9.8332  12.0377  12.4733  12.6621  13.5098  13.8756  14.0188  14.2436
    15.8751  16.0321  18.6838  18.8560

     occupation numbers 
     1.0000   1.0000   1.0000   1.0000   1.0000   1.0000   1.0000   1.0000
     1.0000   1.0000   1.0000   1.0000   1.0000   1.0000   1.0000   1.0000
     1.0000   1.0000   1.0000   1.0000   1.0000   1.0000   1.0000   1.0000
     1.0000   1.0000   1.0000   1.0000   1.0000   1.0000   1.0000   1.0000
     1.0000   1.0000   1.0000   1.0000   1.0000   1.0000   1.0000   1.0000
     1.0000   1.0000   1.0000   1.0000   1.0000   1.0000   1.0000   1.0000
     1.0000   1.0000   1.0000   1.0000   1.0000   1.0000   1.0000   1.0000
     1.0000   0.0000   0.0000   0.0000   0.0000   0.0000   0.0000   0.0000
     0.0000   0.0000   0.0000   0.0000

          k = 0.4203-0.3796-0.3779 ( 19153 PWs)   bands (ev):

  -101.4200 -93.4801 -64.6857 -64.6322 -59.3884 -58.7135 -58.6125 -54.2038
   -54.0343 -53.9657 -28.9962 -28.9604 -28.9086 -28.8698 -28.7939 -28.7683
    -7.7223  -7.5258  -7.4627  -7.3498  -6.5791  -6.3443  -6.3132  -6.2624
     2.3074   2.4058   2.6758   2.8670   3.1290   3.2207   3.6604   3.8772
     4.0038   4.3576   4.5932   5.0391   5.3283   5.5038   5.8257   6.1072
     6.3074   6.5753   6.8490   7.3187   7.3527   7.7220   7.8114   7.8864
     8.1736   8.2454   8.6568   8.7187   8.8621   9.1484   9.2222   9.5748
     9.9334  12.0217  12.4305  12.7787  13.5182  13.8359  13.9629  14.3401
    15.7937  15.9066  18.3278  19.2535

     occupation numbers 
     1.0000   1.0000   1.0000   1.0000   1.0000   1.0000   1.0000   1.0000
     1.0000   1.0000   1.0000   1.0000   1.0000   1.0000   1.0000   1.0000
     1.0000   1.0000   1.0000   1.0000   1.0000   1.0000   1.0000   1.0000
     1.0000   1.0000   1.0000   1.0000   1.0000   1.0000   1.0000   1.0000
     1.0000   1.0000   1.0000   1.0000   1.0000   1.0000   1.0000   1.0000
     1.0000   1.0000   1.0000   1.0000   1.0000   1.0000   1.0000   1.0000
     1.0000   1.0000   1.0000   1.0000   1.0000   1.0000   1.0000   1.0000
     1.0000   0.0000   0.0000   0.0000   0.0000   0.0000   0.0000   0.0000
     0.0000   0.0000   0.0000   0.0000

          k = 0.4189-0.3796-0.2355 ( 19143 PWs)   bands (ev):

  -101.4200 -93.4802 -64.6857 -64.6319 -59.3884 -58.7135 -58.6125 -54.2038
   -54.0343 -53.9657 -28.9985 -28.9539 -28.9135 -28.8625 -28.8064 -28.7627
    -7.7792  -7.5635  -7.4317  -7.2586  -6.6872  -6.3790  -6.2859  -6.1728
     2.2962   2.3872   2.6828   2.8661   3.1014   3.2156   3.6276   3.7444
     4.0609   4.3774   4.7985   5.2475   5.5603   5.6311   5.8994   5.9811
     6.1116   6.3878   6.8595   7.0853   7.3192   7.6118   7.6968   7.9119
     8.1257   8.3829   8.4660   8.7740   8.8801   9.1190   9.3907   9.4945
     9.9890  12.0328  12.5477  13.0451  13.4043  13.7790  13.9288  14.4864
    15.8187  16.0355  17.8425  19.1386

     occupation numbers 
     1.0000   1.0000   1.0000   1.0000   1.0000   1.0000   1.0000   1.0000
     1.0000   1.0000   1.0000   1.0000   1.0000   1.0000   1.0000   1.0000
     1.0000   1.0000   1.0000   1.0000   1.0000   1.0000   1.0000   1.0000
     1.0000   1.0000   1.0000   1.0000   1.0000   1.0000   1.0000   1.0000
     1.0000   1.0000   1.0000   1.0000   1.0000   1.0000   1.0000   1.0000
     1.0000   1.0000   1.0000   1.0000   1.0000   1.0000   1.0000   1.0000
     1.0000   1.0000   1.0000   1.0000   1.0000   1.0000   1.0000   1.0000
     1.0000   0.0000   0.0000   0.0000   0.0000   0.0000   0.0000   0.0000
     0.0000   0.0000   0.0000   0.0000

          k = 0.4175-0.3796-0.0931 ( 19133 PWs)   bands (ev):

  -101.4200 -93.4802 -64.6858 -64.6316 -59.3884 -58.7135 -58.6125 -54.2038
   -54.0343 -53.9657 -29.0002 -28.9470 -28.9182 -28.8542 -28.8185 -28.7596
    -7.8087  -7.6174  -7.3936  -7.2255  -6.6760  -6.4367  -6.2925  -6.1060
     2.2783   2.3847   2.6704   2.8536   3.1288   3.2238   3.5965   3.6710
     4.0898   4.4367   5.1161   5.3284   5.5577   5.6737   5.7863   6.0074
     6.2244   6.3897   6.6864   6.9919   7.1553   7.3996   7.6361   7.8783
     8.0307   8.3485   8.6400   8.7349   9.0743   9.0850   9.3608   9.4298
    10.0484  12.0503  12.7135  13.1761  13.2610  13.6241  14.0292  14.5316
    16.0051  16.3409  17.4776  18.8501

     occupation numbers 
     1.0000   1.0000   1.0000   1.0000   1.0000   1.0000   1.0000   1.0000
     1.0000   1.0000   1.0000   1.0000   1.0000   1.0000   1.0000   1.0000
     1.0000   1.0000   1.0000   1.0000   1.0000   1.0000   1.0000   1.0000
     1.0000   1.0000   1.0000   1.0000   1.0000   1.0000   1.0000   1.0000
     1.0000   1.0000   1.0000   1.0000   1.0000   1.0000   1.0000   1.0000
     1.0000   1.0000   1.0000   1.0000   1.0000   1.0000   1.0000   1.0000
     1.0000   1.0000   1.0000   1.0000   1.0000   1.0000   1.0000   1.0000
     1.0000   0.0000   0.0000   0.0000   0.0000   0.0000   0.0000   0.0000
     0.0000   0.0000   0.0000   0.0000

          k = 0.4162-0.2324 0.0459 ( 19139 PWs)   bands (ev):

  -101.4200 -93.4802 -64.6858 -64.6316 -59.3884 -58.7135 -58.6125 -54.2038
   -54.0343 -53.9657 -29.0008 -28.9468 -28.9186 -28.8537 -28.8184 -28.7593
    -7.8499  -7.6679  -7.3738  -7.1971  -6.5530  -6.4061  -6.3488  -6.1581
     2.3392   2.4604   2.6816   2.8762   3.2073   3.3044   3.5968   3.6687
     4.0139   4.4445   4.8241   5.1271   5.3148   5.5136   5.6993   6.0097
     6.1140   6.2869   6.7155   6.9946   7.1864   7.4642   7.6959   7.9456
     8.1246   8.4291   8.6912   8.9758   9.0944   9.3530   9.4363   9.6740
    10.1216  12.3081  12.7688  13.0508  13.1360  13.4398  14.0121  14.4848
    15.9961  16.4856  17.8319  18.6486

     occupation numbers 
     1.0000   1.0000   1.0000   1.0000   1.0000   1.0000   1.0000   1.0000
     1.0000   1.0000   1.0000   1.0000   1.0000   1.0000   1.0000   1.0000
     1.0000   1.0000   1.0000   1.0000   1.0000   1.0000   1.0000   1.0000
     1.0000   1.0000   1.0000   1.0000   1.0000   1.0000   1.0000   1.0000
     1.0000   1.0000   1.0000   1.0000   1.0000   1.0000   1.0000   1.0000
     1.0000   1.0000   1.0000   1.0000   1.0000   1.0000   1.0000   1.0000
     1.0000   1.0000   1.0000   1.0000   1.0000   1.0000   1.0000   1.0000
     1.0000   0.0000   0.0000   0.0000   0.0000   0.0000   0.0000   0.0000
     0.0000   0.0000   0.0000   0.0000

          k = 0.4148-0.2324 0.1883 ( 19144 PWs)   bands (ev):

  -101.4200 -93.4801 -64.6858 -64.6319 -59.3884 -58.7135 -58.6125 -54.2038
   -54.0343 -53.9657 -28.9990 -28.9517 -28.9136 -28.8630 -28.8073 -28.7630
    -7.8394  -7.6170  -7.3599  -7.2254  -6.5871  -6.4490  -6.3091  -6.1742
     2.3564   2.4897   2.6878   2.8642   3.1949   3.3043   3.6444   3.7762
     4.0001   4.4063   4.7829   4.8971   5.1582   5.4640   5.6611   5.9956
     6.1616   6.2653   6.6598   7.1349   7.4360   7.6381   7.8649   8.1238
     8.2147   8.3546   8.5837   8.7192   9.0107   9.2858   9.4846   9.8360
     9.9940  12.3125  12.6587  12.8652  13.2919  13.5870  14.0570  14.3287
    15.9166  16.3031  18.2638  18.7675

     occupation numbers 
     1.0000   1.0000   1.0000   1.0000   1.0000   1.0000   1.0000   1.0000
     1.0000   1.0000   1.0000   1.0000   1.0000   1.0000   1.0000   1.0000
     1.0000   1.0000   1.0000   1.0000   1.0000   1.0000   1.0000   1.0000
     1.0000   1.0000   1.0000   1.0000   1.0000   1.0000   1.0000   1.0000
     1.0000   1.0000   1.0000   1.0000   1.0000   1.0000   1.0000   1.0000
     1.0000   1.0000   1.0000   1.0000   1.0000   1.0000   1.0000   1.0000
     1.0000   1.0000   1.0000   1.0000   1.0000   1.0000   1.0000   1.0000
     1.0000   0.0000   0.0000   0.0000   0.0000   0.0000   0.0000   0.0000
     0.0000   0.0000   0.0000   0.0000

          k = 0.4134-0.2324 0.3308 ( 19126 PWs)   bands (ev):

  -101.4200 -93.4801 -64.6858 -64.6322 -59.3884 -58.7135 -58.6125 -54.2038
   -54.0343 -53.9657 -28.9960 -28.9583 -28.9085 -28.8704 -28.7953 -28.7688
    -7.7736  -7.5865  -7.3745  -7.2885  -6.5598  -6.5026  -6.2993  -6.1806
     2.3935   2.5009   2.6915   2.8634   3.1583   3.3201   3.7332   3.7985
     3.9961   4.4266   4.5372   4.8043   4.9902   5.3893   5.5385   6.1593
     6.4314   6.4811   6.8158   7.0302   7.3652   7.4881   7.6313   8.0092
     8.3804   8.5621   8.6872   8.8774   9.0309   9.2579   9.4950   9.8488
     9.9886  12.2193  12.5539  12.7317  13.4365  13.7234  14.0128  14.2281
    15.8070  16.0073  18.8037  18.8913

     occupation numbers 
     1.0000   1.0000   1.0000   1.0000   1.0000   1.0000   1.0000   1.0000
     1.0000   1.0000   1.0000   1.0000   1.0000   1.0000   1.0000   1.0000
     1.0000   1.0000   1.0000   1.0000   1.0000   1.0000   1.0000   1.0000
     1.0000   1.0000   1.0000   1.0000   1.0000   1.0000   1.0000   1.0000
     1.0000   1.0000   1.0000   1.0000   1.0000   1.0000   1.0000   1.0000
     1.0000   1.0000   1.0000   1.0000   1.0000   1.0000   1.0000   1.0000
     1.0000   1.0000   1.0000   1.0000   1.0000   1.0000   1.0000   1.0000
     1.0000   0.0000   0.0000   0.0000   0.0000   0.0000   0.0000   0.0000
     0.0000   0.0000   0.0000   0.0000

          k = 0.4203-0.2324-0.3814 ( 19122 PWs)   bands (ev):

  -101.4200 -93.4801 -64.6857 -64.6321 -59.3884 -58.7135 -58.6125 -54.2038
   -54.0343 -53.9657 -28.9954 -28.9598 -28.9089 -28.8698 -28.7947 -28.7689
    -7.7282  -7.5705  -7.4616  -7.2709  -6.6446  -6.3900  -6.3095  -6.1874
     2.4041   2.4760   2.7099   2.8686   3.1154   3.3268   3.6895   3.8760
     3.9405   4.3980   4.5290   4.8542   4.9557   5.4927   5.6258   6.0487
     6.4711   6.4982   6.7805   6.9252   7.2584   7.5162   7.8110   7.8852
     8.3101   8.5754   8.7864   8.9697   9.0774   9.2355   9.5428   9.7563
    10.0548  12.1719  12.5173  12.8336  13.4303  13.7586  13.8765  14.3224
    15.7688  15.8486  18.5285  19.2266

     occupation numbers 
     1.0000   1.0000   1.0000   1.0000   1.0000   1.0000   1.0000   1.0000
     1.0000   1.0000   1.0000   1.0000   1.0000   1.0000   1.0000   1.0000
     1.0000   1.0000   1.0000   1.0000   1.0000   1.0000   1.0000   1.0000
     1.0000   1.0000   1.0000   1.0000   1.0000   1.0000   1.0000   1.0000
     1.0000   1.0000   1.0000   1.0000   1.0000   1.0000   1.0000   1.0000
     1.0000   1.0000   1.0000   1.0000   1.0000   1.0000   1.0000   1.0000
     1.0000   1.0000   1.0000   1.0000   1.0000   1.0000   1.0000   1.0000
     1.0000   0.0000   0.0000   0.0000   0.0000   0.0000   0.0000   0.0000
     0.0000   0.0000   0.0000   0.0000

          k = 0.4189-0.2324-0.2390 ( 19141 PWs)   bands (ev):

  -101.4200 -93.4802 -64.6857 -64.6318 -59.3884 -58.7135 -58.6125 -54.2038
   -54.0343 -53.9657 -28.9981 -28.9544 -28.9141 -28.8617 -28.8065 -28.7627
    -7.7405  -7.6352  -7.4745  -7.2157  -6.6573  -6.3313  -6.2826  -6.2193
     2.3840   2.4521   2.7133   2.8748   3.0996   3.3146   3.6233   3.7636
     3.9951   4.3952   4.7464   4.9928   5.2226   5.4102   5.6417   6.0894
     6.2282   6.3345   6.6449   6.9340   7.4178   7.5359   7.6907   8.0963
     8.2915   8.4467   8.6222   8.9288   9.0506   9.2994   9.5764   9.7051
    10.1039  12.1909  12.5754  13.0547  13.3426  13.6329  13.8531  14.4682
    15.7693  16.0012  18.1261  19.0619

     occupation numbers 
     1.0000   1.0000   1.0000   1.0000   1.0000   1.0000   1.0000   1.0000
     1.0000   1.0000   1.0000   1.0000   1.0000   1.0000   1.0000   1.0000
     1.0000   1.0000   1.0000   1.0000   1.0000   1.0000   1.0000   1.0000
     1.0000   1.0000   1.0000   1.0000   1.0000   1.0000   1.0000   1.0000
     1.0000   1.0000   1.0000   1.0000   1.0000   1.0000   1.0000   1.0000
     1.0000   1.0000   1.0000   1.0000   1.0000   1.0000   1.0000   1.0000
     1.0000   1.0000   1.0000   1.0000   1.0000   1.0000   1.0000   1.0000
     1.0000   0.0000   0.0000   0.0000   0.0000   0.0000   0.0000   0.0000
     0.0000   0.0000   0.0000   0.0000

          k = 0.4176-0.2324-0.0965 ( 19129 PWs)   bands (ev):

  -101.4200 -93.4802 -64.6858 -64.6315 -59.3884 -58.7135 -58.6125 -54.2038
   -54.0343 -53.9657 -29.0005 -28.9481 -28.9188 -28.8529 -28.8182 -28.7592
    -7.7886  -7.7032  -7.4164  -7.1959  -6.5778  -6.3811  -6.3057  -6.1838
     2.3563   2.4450   2.6896   2.8829   3.1634   3.2957   3.5924   3.6548
     4.0204   4.4580   4.8134   5.1084   5.3789   5.5422   5.7344   5.8325
     6.1310   6.5068   6.6385   7.0399   7.1793   7.3384   7.6359   7.8929
     8.2041   8.4172   8.6741   9.0420   9.1684   9.3437   9.4797   9.6612
    10.1587  12.2307  12.6972  13.0851  13.2615  13.4685  13.9245  14.5384
    15.9062  16.3103  17.8327  18.7725

     occupation numbers 
     1.0000   1.0000   1.0000   1.0000   1.0000   1.0000   1.0000   1.0000
     1.0000   1.0000   1.0000   1.0000   1.0000   1.0000   1.0000   1.0000
     1.0000   1.0000   1.0000   1.0000   1.0000   1.0000   1.0000   1.0000
     1.0000   1.0000   1.0000   1.0000   1.0000   1.0000   1.0000   1.0000
     1.0000   1.0000   1.0000   1.0000   1.0000   1.0000   1.0000   1.0000
     1.0000   1.0000   1.0000   1.0000   1.0000   1.0000   1.0000   1.0000
     1.0000   1.0000   1.0000   1.0000   1.0000   1.0000   1.0000   1.0000
     1.0000   0.0000   0.0000   0.0000   0.0000   0.0000   0.0000   0.0000
     0.0000   0.0000   0.0000   0.0000

          k = 0.4163-0.0852 0.0424 ( 19111 PWs)   bands (ev):

  -101.4200 -93.4802 -64.6857 -64.6314 -59.3884 -58.7135 -58.6125 -54.2038
   -54.0343 -53.9657 -29.0013 -28.9479 -28.9192 -28.8525 -28.8182 -28.7589
    -7.9763  -7.5824  -7.3531  -7.1575  -6.5310  -6.4092  -6.3561  -6.1879
     2.4003   2.5295   2.6897   2.8954   3.2655   3.3701   3.6122   3.6671
     3.9557   4.3558   4.7086   4.8324   5.2224   5.5626   5.6794   5.8829
     6.0071   6.1803   6.5970   6.8760   7.1742   7.6217   7.7254   7.9219
     8.2371   8.5423   8.6346   9.1210   9.1788   9.5565   9.7592  10.0302
    10.2317  12.4122  12.7691  12.9255  13.1943  13.3463  13.8638  14.4778
    15.8681  16.4729  18.1648  18.6387

     occupation numbers 
     1.0000   1.0000   1.0000   1.0000   1.0000   1.0000   1.0000   1.0000
     1.0000   1.0000   1.0000   1.0000   1.0000   1.0000   1.0000   1.0000
     1.0000   1.0000   1.0000   1.0000   1.0000   1.0000   1.0000   1.0000
     1.0000   1.0000   1.0000   1.0000   1.0000   1.0000   1.0000   1.0000
     1.0000   1.0000   1.0000   1.0000   1.0000   1.0000   1.0000   1.0000
     1.0000   1.0000   1.0000   1.0000   1.0000   1.0000   1.0000   1.0000
     1.0000   1.0000   1.0000   1.0000   1.0000   1.0000   1.0000   1.0000
     1.0000   0.0000   0.0000   0.0000   0.0000   0.0000   0.0000   0.0000
     0.0000   0.0000   0.0000   0.0000

          k = 0.4149-0.0852 0.1848 ( 19125 PWs)   bands (ev):

  -101.4200 -93.4801 -64.6857 -64.6318 -59.3884 -58.7135 -58.6125 -54.2038
   -54.0343 -53.9657 -28.9987 -28.9522 -28.9143 -28.8623 -28.8073 -28.7631
    -7.9624  -7.5586  -7.2741  -7.1558  -6.6417  -6.5326  -6.3029  -6.1362
     2.4199   2.5682   2.7042   2.8672   3.2498   3.3690   3.6571   3.7768
     3.9791   4.3024   4.4967   4.9568   5.1508   5.2918   5.6589   5.9601
     6.0789   6.1613   6.4225   7.1295   7.2077   7.5333   7.7753   8.1465
     8.2888   8.5093   8.8991   8.9323   9.0564   9.4974   9.7811  10.0887
    10.1298  12.3674  12.7513  12.9770  13.1663  13.4762  13.9132  14.3444
    15.8489  16.2971  18.3708  18.7866

     occupation numbers 
     1.0000   1.0000   1.0000   1.0000   1.0000   1.0000   1.0000   1.0000
     1.0000   1.0000   1.0000   1.0000   1.0000   1.0000   1.0000   1.0000
     1.0000   1.0000   1.0000   1.0000   1.0000   1.0000   1.0000   1.0000
     1.0000   1.0000   1.0000   1.0000   1.0000   1.0000   1.0000   1.0000
     1.0000   1.0000   1.0000   1.0000   1.0000   1.0000   1.0000   1.0000
     1.0000   1.0000   1.0000   1.0000   1.0000   1.0000   1.0000   1.0000
     1.0000   1.0000   1.0000   1.0000   1.0000   1.0000   1.0000   1.0000
     1.0000   0.0000   0.0000   0.0000   0.0000   0.0000   0.0000   0.0000
     0.0000   0.0000   0.0000   0.0000

          k = 0.4135-0.0852 0.3273 ( 19116 PWs)   bands (ev):

  -101.4200 -93.4801 -64.6857 -64.6321 -59.3884 -58.7135 -58.6125 -54.2038
   -54.0343 -53.9657 -28.9953 -28.9576 -28.9088 -28.8706 -28.7961 -28.7694
    -7.8769  -7.5803  -7.2571  -7.1616  -6.6929  -6.6325  -6.2698  -6.0997
     2.4464   2.6033   2.7134   2.8505   3.2086   3.4246   3.7524   3.8011
     4.0099   4.2864   4.3276   4.7845   4.8055   5.4252   5.5617   6.1227
     6.2138   6.4221   6.7180   7.0313   7.1473   7.2254   7.3900   8.0131
     8.5538   8.6909   8.8868   9.1575   9.3102   9.4363   9.8000  10.0020
    10.1352  12.2893  12.6833  12.8389  13.2985  13.5708  14.0177  14.1909
    15.7565  15.9702  18.8734  19.0252

     occupation numbers 
     1.0000   1.0000   1.0000   1.0000   1.0000   1.0000   1.0000   1.0000
     1.0000   1.0000   1.0000   1.0000   1.0000   1.0000   1.0000   1.0000
     1.0000   1.0000   1.0000   1.0000   1.0000   1.0000   1.0000   1.0000
     1.0000   1.0000   1.0000   1.0000   1.0000   1.0000   1.0000   1.0000
     1.0000   1.0000   1.0000   1.0000   1.0000   1.0000   1.0000   1.0000
     1.0000   1.0000   1.0000   1.0000   1.0000   1.0000   1.0000   1.0000
     1.0000   1.0000   1.0000   1.0000   1.0000   1.0000   1.0000   1.0000
     1.0000   0.0000   0.0000   0.0000   0.0000   0.0000   0.0000   0.0000
     0.0000   0.0000   0.0000   0.0000

          k = 0.4204-0.0852-0.3849 ( 19112 PWs)   bands (ev):

  -101.4200 -93.4801 -64.6857 -64.6320 -59.3884 -58.7135 -58.6125 -54.2038
   -54.0343 -53.9657 -28.9950 -28.9584 -28.9090 -28.8703 -28.7958 -28.7694
    -7.7766  -7.6317  -7.3636  -7.1566  -6.7404  -6.5330  -6.2659  -6.0984
     2.4391   2.5916   2.7257   2.8520   3.1879   3.4600   3.6625   3.8610
     3.9713   4.3349   4.4877   4.6316   4.7315   5.3249   5.7089   6.0904
     6.2199   6.4988   6.7320   6.7889   7.1255   7.3134   7.5678   7.9965
     8.4922   8.6486   8.9395   9.1510   9.3799   9.5060   9.8177   9.9674
    10.1437  12.2733  12.6549  12.8847  13.2711  13.6132  13.9147  14.2719
    15.6815  15.8097  18.8265  19.1662

     occupation numbers 
     1.0000   1.0000   1.0000   1.0000   1.0000   1.0000   1.0000   1.0000
     1.0000   1.0000   1.0000   1.0000   1.0000   1.0000   1.0000   1.0000
     1.0000   1.0000   1.0000   1.0000   1.0000   1.0000   1.0000   1.0000
     1.0000   1.0000   1.0000   1.0000   1.0000   1.0000   1.0000   1.0000
     1.0000   1.0000   1.0000   1.0000   1.0000   1.0000   1.0000   1.0000
     1.0000   1.0000   1.0000   1.0000   1.0000   1.0000   1.0000   1.0000
     1.0000   1.0000   1.0000   1.0000   1.0000   1.0000   1.0000   1.0000
     1.0000   0.0000   0.0000   0.0000   0.0000   0.0000   0.0000   0.0000
     0.0000   0.0000   0.0000   0.0000

          k = 0.4190-0.0852-0.2425 ( 19126 PWs)   bands (ev):

  -101.4200 -93.4801 -64.6857 -64.6317 -59.3884 -58.7135 -58.6125 -54.2038
   -54.0343 -53.9657 -28.9983 -28.9537 -28.9145 -28.8615 -28.8070 -28.7629
    -7.7852  -7.6540  -7.4494  -7.1553  -6.6654  -6.4087  -6.2955  -6.1422
     2.4175   2.5431   2.7319   2.8697   3.2001   3.4045   3.5510   3.8428
     3.9556   4.4283   4.6771   4.8641   4.9547   5.0495   5.5969   5.9706
     6.1047   6.3967   6.6086   6.8622   7.3282   7.6049   7.8026   8.1201
     8.3014   8.4248   8.6737   8.9594   9.3977   9.6000   9.8344   9.9612
    10.2006  12.3310  12.6801  12.9682  13.1969  13.5675  13.8322  14.4181
    15.6349  15.9780  18.5407  18.9904

     occupation numbers 
     1.0000   1.0000   1.0000   1.0000   1.0000   1.0000   1.0000   1.0000
     1.0000   1.0000   1.0000   1.0000   1.0000   1.0000   1.0000   1.0000
     1.0000   1.0000   1.0000   1.0000   1.0000   1.0000   1.0000   1.0000
     1.0000   1.0000   1.0000   1.0000   1.0000   1.0000   1.0000   1.0000
     1.0000   1.0000   1.0000   1.0000   1.0000   1.0000   1.0000   1.0000
     1.0000   1.0000   1.0000   1.0000   1.0000   1.0000   1.0000   1.0000
     1.0000   1.0000   1.0000   1.0000   1.0000   1.0000   1.0000   1.0000
     1.0000   0.0000   0.0000   0.0000   0.0000   0.0000   0.0000   0.0000
     0.0000   0.0000   0.0000   0.0000

          k = 0.4176-0.0852-0.1000 ( 19137 PWs)   bands (ev):

  -101.4200 -93.4802 -64.6857 -64.6314 -59.3884 -58.7135 -58.6125 -54.2038
   -54.0343 -53.9657 -29.0012 -28.9485 -28.9193 -28.8520 -28.8182 -28.7588
    -7.9028  -7.6295  -7.4185  -7.1600  -6.5290  -6.3958  -6.3023  -6.2115
     2.4056   2.5130   2.7054   2.8984   3.2659   3.3323   3.5571   3.7207
     3.9573   4.4766   4.5711   5.0065   5.1896   5.2987   5.5284   5.9140
     6.0672   6.3330   6.6022   6.9130   7.3818   7.5676   7.7718   7.8580
     8.2117   8.3081   8.6066   9.1588   9.3829   9.5893   9.8020   9.9711
    10.2621  12.3850  12.7057  12.9230  13.1681  13.4499  13.8505  14.5051
    15.7471  16.2833  18.3611  18.6850

     occupation numbers 
     1.0000   1.0000   1.0000   1.0000   1.0000   1.0000   1.0000   1.0000
     1.0000   1.0000   1.0000   1.0000   1.0000   1.0000   1.0000   1.0000
     1.0000   1.0000   1.0000   1.0000   1.0000   1.0000   1.0000   1.0000
     1.0000   1.0000   1.0000   1.0000   1.0000   1.0000   1.0000   1.0000
     1.0000   1.0000   1.0000   1.0000   1.0000   1.0000   1.0000   1.0000
     1.0000   1.0000   1.0000   1.0000   1.0000   1.0000   1.0000   1.0000
     1.0000   1.0000   1.0000   1.0000   1.0000   1.0000   1.0000   1.0000
     1.0000   0.0000   0.0000   0.0000   0.0000   0.0000   0.0000   0.0000
     0.0000   0.0000   0.0000   0.0000

 ------ SPIN DOWN ----------


          k = 0.0827 0.0713 0.0634 ( 19121 PWs)   bands (ev):

  -102.2643 -91.5299 -64.6810 -64.6139 -60.9770 -59.4052 -59.1727 -52.0129
   -51.9650 -51.9320 -28.9998 -28.9280 -28.8983 -28.8351 -28.8034 -28.7385
    -8.4767  -7.4496  -7.1857  -6.9428  -6.5585  -6.4432  -6.2430  -6.0862
     1.0253   2.1702   2.3303   2.7196   2.8490   3.4902   4.1034   4.3841
     4.6111   5.0206   5.4181   5.5550   5.6087   5.9665   6.1176   6.2255
     6.3658   6.7300   6.9522   7.2447   7.4614   7.6125   7.8453   7.9431
     8.1522   8.3609   8.7221   9.3235   9.4187   9.5982   9.9799  10.0487
    12.6505  12.6871  12.9257  13.2216  13.8253  14.2273  15.0632  15.4355
    15.6705  16.0213  17.6125  18.8288

     occupation numbers 
     1.0000   1.0000   1.0000   1.0000   1.0000   1.0000   1.0000   1.0000
     1.0000   1.0000   1.0000   1.0000   1.0000   1.0000   1.0000   1.0000
     1.0000   1.0000   1.0000   1.0000   1.0000   1.0000   1.0000   1.0000
     1.0000   1.0000   1.0000   1.0000   1.0000   1.0000   1.0000   1.0000
     1.0000   1.0000   1.0000   1.0000   1.0000   1.0000   1.0000   1.0000
     1.0000   1.0000   1.0000   1.0000   1.0000   1.0000   1.0000   1.0000
     1.0000   1.0000   1.0000   1.0000   1.0000   1.0000   1.0000   1.0000
     0.0000   0.0000   0.0000   0.0000   0.0000   0.0000   0.0000   0.0000
     0.0000   0.0000   0.0000   0.0000

          k = 0.0814 0.0713 0.2058 ( 19103 PWs)   bands (ev):

  -102.2642 -91.5299 -64.6809 -64.6140 -60.9770 -59.4052 -59.1727 -52.0129
   -51.9650 -51.9320 -28.9977 -28.9334 -28.8931 -28.8440 -28.7927 -28.7425
    -8.3608  -7.5561  -7.1849  -6.9742  -6.5805  -6.4681  -6.1949  -6.0818
     1.0153   2.1604   2.3361   2.7178   2.8106   3.5980   4.1329   4.2899
     4.7248   5.1149   5.3246   5.5112   5.6567   5.9555   6.0459   6.1638
     6.4592   6.8475   6.9928   7.1692   7.3163   7.7135   7.8548   7.9359
     8.1860   8.2910   8.4817   9.3189   9.5089   9.7134   9.8984  10.0208
    12.5422  12.8009  12.9794  13.1229  13.8814  14.1939  14.9892  15.4312
    16.0017  16.2658  17.4857  18.9776

     occupation numbers 
     1.0000   1.0000   1.0000   1.0000   1.0000   1.0000   1.0000   1.0000
     1.0000   1.0000   1.0000   1.0000   1.0000   1.0000   1.0000   1.0000
     1.0000   1.0000   1.0000   1.0000   1.0000   1.0000   1.0000   1.0000
     1.0000   1.0000   1.0000   1.0000   1.0000   1.0000   1.0000   1.0000
     1.0000   1.0000   1.0000   1.0000   1.0000   1.0000   1.0000   1.0000
     1.0000   1.0000   1.0000   1.0000   1.0000   1.0000   1.0000   1.0000
     1.0000   1.0000   1.0000   1.0000   1.0000   1.0000   1.0000   1.0000
     0.0000   0.0000   0.0000   0.0000   0.0000   0.0000   0.0000   0.0000
     0.0000   0.0000   0.0000   0.0000

          k = 0.0800 0.0713 0.3482 ( 19108 PWs)   bands (ev):

  -102.2642 -91.5300 -64.6808 -64.6140 -60.9770 -59.4052 -59.1727 -52.0128
   -51.9650 -51.9320 -28.9953 -28.9382 -28.8875 -28.8522 -28.7825 -28.7482
    -8.1458  -7.7596  -7.2093  -7.0382  -6.5867  -6.4371  -6.1516  -6.0845
     1.0098   2.1405   2.3297   2.7272   2.7570   3.6667   4.1711   4.3499
     4.7497   5.1661   5.2501   5.5570   5.7286   5.8525   6.0495   6.2346
     6.4803   6.7896   6.8868   7.0807   7.1330   7.6363   7.8246   7.9503
     8.2060   8.3157   8.8488   9.3381   9.5611   9.7025   9.8038  10.0018
    12.4241  12.6535  13.0777  13.1652  14.0266  14.1774  14.9445  15.2736
    16.1368  16.4270  17.9461  18.9005

     occupation numbers 
     1.0000   1.0000   1.0000   1.0000   1.0000   1.0000   1.0000   1.0000
     1.0000   1.0000   1.0000   1.0000   1.0000   1.0000   1.0000   1.0000
     1.0000   1.0000   1.0000   1.0000   1.0000   1.0000   1.0000   1.0000
     1.0000   1.0000   1.0000   1.0000   1.0000   1.0000   1.0000   1.0000
     1.0000   1.0000   1.0000   1.0000   1.0000   1.0000   1.0000   1.0000
     1.0000   1.0000   1.0000   1.0000   1.0000   1.0000   1.0000   1.0000
     1.0000   1.0000   1.0000   1.0000   1.0000   1.0000   1.0000   1.0000
     0.0000   0.0000   0.0000   0.0000   0.0000   0.0000   0.0000   0.0000
     0.0000   0.0000   0.0000   0.0000

          k = 0.0869 0.0713-0.3639 ( 19116 PWs)   bands (ev):

  -102.2642 -91.5300 -64.6808 -64.6139 -60.9770 -59.4052 -59.1727 -52.0128
   -51.9650 -51.9320 -28.9955 -28.9376 -28.8875 -28.8523 -28.7827 -28.7482
    -8.0763  -7.8345  -7.2138  -7.0769  -6.5444  -6.4215  -6.1594  -6.0828
     1.0152   2.1420   2.3219   2.7166   2.7457   3.6533   4.2093   4.3959
     4.7007   5.1485   5.3365   5.4721   5.7489   5.8824   5.9749   6.2580
     6.4223   6.5859   6.8981   7.1417   7.3211   7.5547   7.8091   7.9829
     8.2000   8.3663   9.1115   9.3459   9.5390   9.5682   9.8175   9.9618
    12.4224  12.6452  13.0002  13.2587  14.0407  14.2449  14.9794  15.1780
    16.0029  16.2761  18.1597  18.9215

     occupation numbers 
     1.0000   1.0000   1.0000   1.0000   1.0000   1.0000   1.0000   1.0000
     1.0000   1.0000   1.0000   1.0000   1.0000   1.0000   1.0000   1.0000
     1.0000   1.0000   1.0000   1.0000   1.0000   1.0000   1.0000   1.0000
     1.0000   1.0000   1.0000   1.0000   1.0000   1.0000   1.0000   1.0000
     1.0000   1.0000   1.0000   1.0000   1.0000   1.0000   1.0000   1.0000
     1.0000   1.0000   1.0000   1.0000   1.0000   1.0000   1.0000   1.0000
     1.0000   1.0000   1.0000   1.0000   1.0000   1.0000   1.0000   1.0000
     0.0000   0.0000   0.0000   0.0000   0.0000   0.0000   0.0000   0.0000
     0.0000   0.0000   0.0000   0.0000

          k = 0.0855 0.0713-0.2215 ( 19099 PWs)   bands (ev):

  -102.2642 -91.5299 -64.6809 -64.6138 -60.9770 -59.4052 -59.1727 -52.0129
   -51.9650 -51.9320 -28.9980 -28.9323 -28.8932 -28.8442 -28.7932 -28.7426
    -8.3069  -7.6198  -7.1867  -7.0652  -6.5279  -6.3890  -6.1908  -6.1092
     1.0258   2.1690   2.3271   2.7149   2.7567   3.5912   4.2037   4.3316
     4.6229   5.1512   5.4085   5.4754   5.6443   5.8137   6.0071   6.2557
     6.4059   6.7148   7.0199   7.1336   7.3369   7.5290   7.8691   8.0638
     8.2540   8.4158   8.9482   9.3534   9.4412   9.5424   9.8556   9.9727
    12.5423  12.7813  12.9043  13.2428  13.9308  14.3011  15.0435  15.2653
    15.7295  16.0222  17.7250  19.1451

     occupation numbers 
     1.0000   1.0000   1.0000   1.0000   1.0000   1.0000   1.0000   1.0000
     1.0000   1.0000   1.0000   1.0000   1.0000   1.0000   1.0000   1.0000
     1.0000   1.0000   1.0000   1.0000   1.0000   1.0000   1.0000   1.0000
     1.0000   1.0000   1.0000   1.0000   1.0000   1.0000   1.0000   1.0000
     1.0000   1.0000   1.0000   1.0000   1.0000   1.0000   1.0000   1.0000
     1.0000   1.0000   1.0000   1.0000   1.0000   1.0000   1.0000   1.0000
     1.0000   1.0000   1.0000   1.0000   1.0000   1.0000   1.0000   1.0000
     0.0000   0.0000   0.0000   0.0000   0.0000   0.0000   0.0000   0.0000
     0.0000   0.0000   0.0000   0.0000

          k = 0.0841 0.0713-0.0791 ( 19110 PWs)   bands (ev):

  -102.2643 -91.5299 -64.6810 -64.6139 -60.9770 -59.4052 -59.1727 -52.0129
   -51.9650 -51.9320 -29.0000 -28.9274 -28.8984 -28.8352 -28.8037 -28.7386
    -8.4576  -7.4747  -7.1830  -6.9952  -6.5388  -6.3910  -6.2299  -6.1127
     1.0304   2.1776   2.3282   2.7150   2.8189   3.4929   4.1622   4.3400
     4.5697   5.1407   5.3216   5.4866   5.6584   5.9552   6.1306   6.2666
     6.3817   6.7038   6.8934   7.1466   7.4362   7.5138   7.8541   8.0767
     8.2804   8.4526   8.8476   9.3221   9.4023   9.5170   9.9262  10.0439
    12.6445  12.6948  12.9124  13.2563  13.8495  14.2784  15.0610  15.3853
    15.5628  15.9030  17.6941  18.8759

     occupation numbers 
     1.0000   1.0000   1.0000   1.0000   1.0000   1.0000   1.0000   1.0000
     1.0000   1.0000   1.0000   1.0000   1.0000   1.0000   1.0000   1.0000
     1.0000   1.0000   1.0000   1.0000   1.0000   1.0000   1.0000   1.0000
     1.0000   1.0000   1.0000   1.0000   1.0000   1.0000   1.0000   1.0000
     1.0000   1.0000   1.0000   1.0000   1.0000   1.0000   1.0000   1.0000
     1.0000   1.0000   1.0000   1.0000   1.0000   1.0000   1.0000   1.0000
     1.0000   1.0000   1.0000   1.0000   1.0000   1.0000   1.0000   1.0000
     0.0000   0.0000   0.0000   0.0000   0.0000   0.0000   0.0000   0.0000
     0.0000   0.0000   0.0000   0.0000

          k = 0.0828 0.2185 0.0599 ( 19145 PWs)   bands (ev):

  -102.2643 -91.5299 -64.6809 -64.6139 -60.9770 -59.4052 -59.1727 -52.0129
   -51.9650 -51.9320 -28.9997 -28.9277 -28.8979 -28.8362 -28.8037 -28.7389
    -8.3213  -7.4862  -7.2129  -7.0245  -6.6773  -6.4031  -6.2955  -6.0341
     1.0790   2.1953   2.3801   2.7860   2.8603   3.7119   4.2456   4.3570
     4.7297   5.0361   5.2605   5.4542   5.6176   5.7694   6.0334   6.0792
     6.3500   6.7053   6.9042   7.1491   7.3754   7.7877   7.9302   8.1471
     8.3712   8.5032   8.7876   9.0830   9.2142   9.3262   9.7901   9.9486
    12.6755  12.7504  13.0108  13.1788  13.8175  14.2691  15.0883  15.4469
    15.7504  16.0529  17.9724  18.4228

     occupation numbers 
     1.0000   1.0000   1.0000   1.0000   1.0000   1.0000   1.0000   1.0000
     1.0000   1.0000   1.0000   1.0000   1.0000   1.0000   1.0000   1.0000
     1.0000   1.0000   1.0000   1.0000   1.0000   1.0000   1.0000   1.0000
     1.0000   1.0000   1.0000   1.0000   1.0000   1.0000   1.0000   1.0000
     1.0000   1.0000   1.0000   1.0000   1.0000   1.0000   1.0000   1.0000
     1.0000   1.0000   1.0000   1.0000   1.0000   1.0000   1.0000   1.0000
     1.0000   1.0000   1.0000   1.0000   1.0000   1.0000   1.0000   1.0000
     0.0000   0.0000   0.0000   0.0000   0.0000   0.0000   0.0000   0.0000
     0.0000   0.0000   0.0000   0.0000

          k = 0.0814 0.2185 0.2023 ( 19115 PWs)   bands (ev):

  -102.2642 -91.5300 -64.6808 -64.6140 -60.9770 -59.4052 -59.1727 -52.0129
   -51.9650 -51.9320 -28.9978 -28.9344 -28.8928 -28.8444 -28.7924 -28.7423
    -8.2116  -7.5942  -7.2142  -7.0124  -6.6109  -6.5127  -6.2662  -6.0517
     1.0681   2.1818   2.3866   2.7820   2.8646   3.8041   4.1643   4.3936
     4.8311   5.0515   5.2234   5.3703   5.6121   5.8520   5.9338   6.1004
     6.4303   6.7344   6.9312   7.2333   7.4954   7.7394   7.8910   7.9539
     8.2139   8.4754   8.6602   9.1080   9.3208   9.4364   9.7098   9.9409
    12.5980  12.7649  13.0445  13.1430  13.8368  14.2619  14.9991  15.4286
    16.0222  16.3086  17.9229  18.4751

     occupation numbers 
     1.0000   1.0000   1.0000   1.0000   1.0000   1.0000   1.0000   1.0000
     1.0000   1.0000   1.0000   1.0000   1.0000   1.0000   1.0000   1.0000
     1.0000   1.0000   1.0000   1.0000   1.0000   1.0000   1.0000   1.0000
     1.0000   1.0000   1.0000   1.0000   1.0000   1.0000   1.0000   1.0000
     1.0000   1.0000   1.0000   1.0000   1.0000   1.0000   1.0000   1.0000
     1.0000   1.0000   1.0000   1.0000   1.0000   1.0000   1.0000   1.0000
     1.0000   1.0000   1.0000   1.0000   1.0000   1.0000   1.0000   1.0000
     0.0000   0.0000   0.0000   0.0000   0.0000   0.0000   0.0000   0.0000
     0.0000   0.0000   0.0000   0.0000

          k = 0.0800 0.2185 0.3447 ( 19130 PWs)   bands (ev):

  -102.2642 -91.5300 -64.6807 -64.6140 -60.9770 -59.4052 -59.1727 -52.0128
   -51.9650 -51.9320 -28.9959 -28.9398 -28.8875 -28.8521 -28.7815 -28.7477
    -8.0186  -7.7463  -7.2460  -7.0399  -6.6065  -6.5218  -6.2176  -6.0943
     1.0575   2.1789   2.3843   2.7777   2.8472   3.8493   4.2024   4.4386
     4.7658   5.0696   5.1317   5.4218   5.6229   5.8315   6.0551   6.2668
     6.4894   6.7511   6.8785   7.1965   7.3832   7.6027   7.8253   7.9143
     8.0333   8.3410   8.9220   9.2042   9.4199   9.4594   9.6794   9.9066
    12.4554  12.5966  13.1593  13.2368  13.9589  14.2475  14.9727  15.2708
    16.1887  16.4407  18.2382  18.4727

     occupation numbers 
     1.0000   1.0000   1.0000   1.0000   1.0000   1.0000   1.0000   1.0000
     1.0000   1.0000   1.0000   1.0000   1.0000   1.0000   1.0000   1.0000
     1.0000   1.0000   1.0000   1.0000   1.0000   1.0000   1.0000   1.0000
     1.0000   1.0000   1.0000   1.0000   1.0000   1.0000   1.0000   1.0000
     1.0000   1.0000   1.0000   1.0000   1.0000   1.0000   1.0000   1.0000
     1.0000   1.0000   1.0000   1.0000   1.0000   1.0000   1.0000   1.0000
     1.0000   1.0000   1.0000   1.0000   1.0000   1.0000   1.0000   1.0000
     0.0000   0.0000   0.0000   0.0000   0.0000   0.0000   0.0000   0.0000
     0.0000   0.0000   0.0000   0.0000

          k = 0.0869 0.2185-0.3674 ( 19119 PWs)   bands (ev):

  -102.2642 -91.5300 -64.6808 -64.6139 -60.9770 -59.4052 -59.1727 -52.0128
   -51.9650 -51.9320 -28.9963 -28.9387 -28.8874 -28.8525 -28.7820 -28.7477
    -8.0011  -7.7315  -7.2568  -7.1023  -6.6274  -6.4557  -6.1994  -6.1156
     1.0585   2.1984   2.3766   2.7506   2.8372   3.8391   4.2117   4.4716
     4.7849   5.0145   5.1405   5.4014   5.6836   5.9024   6.0510   6.2539
     6.3297   6.6741   6.9964   7.2086   7.4082   7.5405   7.7578   7.9138
     8.2173   8.2650   9.0474   9.2467   9.3021   9.4987   9.7333   9.8122
    12.4376  12.5777  13.1280  13.3311  14.0806  14.2313  15.0160  15.1765
    16.0966  16.2802  18.1978  18.7695

     occupation numbers 
     1.0000   1.0000   1.0000   1.0000   1.0000   1.0000   1.0000   1.0000
     1.0000   1.0000   1.0000   1.0000   1.0000   1.0000   1.0000   1.0000
     1.0000   1.0000   1.0000   1.0000   1.0000   1.0000   1.0000   1.0000
     1.0000   1.0000   1.0000   1.0000   1.0000   1.0000   1.0000   1.0000
     1.0000   1.0000   1.0000   1.0000   1.0000   1.0000   1.0000   1.0000
     1.0000   1.0000   1.0000   1.0000   1.0000   1.0000   1.0000   1.0000
     1.0000   1.0000   1.0000   1.0000   1.0000   1.0000   1.0000   1.0000
     0.0000   0.0000   0.0000   0.0000   0.0000   0.0000   0.0000   0.0000
     0.0000   0.0000   0.0000   0.0000

          k = 0.0856 0.2185-0.2250 ( 19106 PWs)   bands (ev):

  -102.2642 -91.5300 -64.6808 -64.6139 -60.9770 -59.4052 -59.1727 -52.0129
   -51.9650 -51.9320 -28.9985 -28.9322 -28.8928 -28.8451 -28.7933 -28.7426
    -8.1869  -7.5481  -7.2367  -7.1352  -6.6490  -6.3689  -6.2684  -6.0783
     1.0695   2.2216   2.3731   2.7592   2.8182   3.7818   4.1894   4.4967
     4.7502   5.0273   5.1610   5.3974   5.6601   5.8007   5.9770   6.2630
     6.3408   6.6805   6.8744   7.2849   7.3879   7.6705   7.7660   8.1401
     8.3210   8.4277   8.9635   9.1224   9.1794   9.4315   9.7417   9.8465
    12.5659  12.7085  13.0396  13.3053  14.0290  14.2585  15.1155  15.2523
    15.8223  16.0086  18.0083  18.7318

     occupation numbers 
     1.0000   1.0000   1.0000   1.0000   1.0000   1.0000   1.0000   1.0000
     1.0000   1.0000   1.0000   1.0000   1.0000   1.0000   1.0000   1.0000
     1.0000   1.0000   1.0000   1.0000   1.0000   1.0000   1.0000   1.0000
     1.0000   1.0000   1.0000   1.0000   1.0000   1.0000   1.0000   1.0000
     1.0000   1.0000   1.0000   1.0000   1.0000   1.0000   1.0000   1.0000
     1.0000   1.0000   1.0000   1.0000   1.0000   1.0000   1.0000   1.0000
     1.0000   1.0000   1.0000   1.0000   1.0000   1.0000   1.0000   1.0000
     0.0000   0.0000   0.0000   0.0000   0.0000   0.0000   0.0000   0.0000
     0.0000   0.0000   0.0000   0.0000

          k = 0.0842 0.2185-0.0826 ( 19142 PWs)   bands (ev):

  -102.2643 -91.5299 -64.6809 -64.6139 -60.9770 -59.4052 -59.1727 -52.0129
   -51.9650 -51.9320 -29.0000 -28.9265 -28.8981 -28.8365 -28.8041 -28.7390
    -8.3108  -7.4557  -7.2327  -7.0848  -6.6739  -6.3506  -6.2961  -6.0491
     1.0793   2.2155   2.3742   2.7872   2.8283   3.7021   4.2407   4.4174
     4.7143   5.0226   5.1783   5.4185   5.6550   5.8002   5.9899   6.1885
     6.4958   6.6428   6.7518   7.1512   7.3738   7.7466   7.9054   8.1948
     8.4164   8.5923   8.7915   9.0974   9.1412   9.3709   9.7837   9.9120
    12.6460  12.7599  12.9960  13.2575  13.8979  14.2755  15.1709  15.3503
    15.6501  15.9086  18.0207  18.4989

     occupation numbers 
     1.0000   1.0000   1.0000   1.0000   1.0000   1.0000   1.0000   1.0000
     1.0000   1.0000   1.0000   1.0000   1.0000   1.0000   1.0000   1.0000
     1.0000   1.0000   1.0000   1.0000   1.0000   1.0000   1.0000   1.0000
     1.0000   1.0000   1.0000   1.0000   1.0000   1.0000   1.0000   1.0000
     1.0000   1.0000   1.0000   1.0000   1.0000   1.0000   1.0000   1.0000
     1.0000   1.0000   1.0000   1.0000   1.0000   1.0000   1.0000   1.0000
     1.0000   1.0000   1.0000   1.0000   1.0000   1.0000   1.0000   1.0000
     0.0000   0.0000   0.0000   0.0000   0.0000   0.0000   0.0000   0.0000
     0.0000   0.0000   0.0000   0.0000

          k = 0.0829 0.3657 0.0564 ( 19138 PWs)   bands (ev):

  -102.2643 -91.5299 -64.6808 -64.6140 -60.9770 -59.4052 -59.1727 -52.0129
   -51.9650 -51.9320 -28.9998 -28.9268 -28.8974 -28.8375 -28.8041 -28.7393
    -8.0366  -7.6616  -7.2817  -7.0885  -6.6944  -6.4457  -6.3432  -5.9771
     1.1715   2.2452   2.4219   2.8234   2.8672   3.9838   4.1419   4.6458
     4.8342   4.9919   5.1380   5.3408   5.4493   5.6656   5.9324   6.0178
     6.3679   6.6043   6.7773   7.2371   7.5314   7.7477   8.0929   8.2341
     8.4296   8.5951   8.7141   8.9054   9.0340   9.2680   9.4887   9.9067
    12.7150  12.8486  13.0011  13.2511  13.7817  14.3076  15.0723  15.4988
    15.8012  16.0633  18.0528  18.5527

     occupation numbers 
     1.0000   1.0000   1.0000   1.0000   1.0000   1.0000   1.0000   1.0000
     1.0000   1.0000   1.0000   1.0000   1.0000   1.0000   1.0000   1.0000
     1.0000   1.0000   1.0000   1.0000   1.0000   1.0000   1.0000   1.0000
     1.0000   1.0000   1.0000   1.0000   1.0000   1.0000   1.0000   1.0000
     1.0000   1.0000   1.0000   1.0000   1.0000   1.0000   1.0000   1.0000
     1.0000   1.0000   1.0000   1.0000   1.0000   1.0000   1.0000   1.0000
     1.0000   1.0000   1.0000   1.0000   1.0000   1.0000   1.0000   1.0000
     0.0000   0.0000   0.0000   0.0000   0.0000   0.0000   0.0000   0.0000
     0.0000   0.0000   0.0000   0.0000

          k = 0.0815 0.3657 0.1988 ( 19130 PWs)   bands (ev):

  -102.2643 -91.5300 -64.6807 -64.6140 -60.9770 -59.4052 -59.1727 -52.0129
   -51.9650 -51.9320 -28.9984 -28.9343 -28.8923 -28.8452 -28.7924 -28.7423
    -7.9459  -7.6915  -7.2950  -7.0818  -6.6618  -6.5179  -6.3456  -6.0115
     1.1576   2.2456   2.4246   2.8120   2.8870   3.9452   4.2663   4.5842
     4.8252   5.0537   5.2045   5.2515   5.5430   5.7031   5.8095   6.1164
     6.3545   6.6445   6.8377   7.1676   7.5873   7.9024   7.9817   8.1461
     8.1923   8.4404   8.8051   8.9128   9.0747   9.2807   9.4758   9.9111
    12.6476  12.7095  13.0623  13.2819  13.7951  14.3175  14.9895  15.4397
    16.0536  16.3246  18.0463  18.6328

     occupation numbers 
     1.0000   1.0000   1.0000   1.0000   1.0000   1.0000   1.0000   1.0000
     1.0000   1.0000   1.0000   1.0000   1.0000   1.0000   1.0000   1.0000
     1.0000   1.0000   1.0000   1.0000   1.0000   1.0000   1.0000   1.0000
     1.0000   1.0000   1.0000   1.0000   1.0000   1.0000   1.0000   1.0000
     1.0000   1.0000   1.0000   1.0000   1.0000   1.0000   1.0000   1.0000
     1.0000   1.0000   1.0000   1.0000   1.0000   1.0000   1.0000   1.0000
     1.0000   1.0000   1.0000   1.0000   1.0000   1.0000   1.0000   1.0000
     0.0000   0.0000   0.0000   0.0000   0.0000   0.0000   0.0000   0.0000
     0.0000   0.0000   0.0000   0.0000

          k = 0.0801 0.3657 0.3413 ( 19128 PWs)   bands (ev):

  -102.2642 -91.5301 -64.6806 -64.6140 -60.9770 -59.4052 -59.1727 -52.0128
   -51.9650 -51.9320 -28.9968 -28.9408 -28.8875 -28.8522 -28.7808 -28.7472
    -7.8371  -7.7125  -7.3065  -7.0513  -6.7081  -6.6378  -6.2489  -6.0711
     1.1442   2.2546   2.4245   2.7895   2.9030   3.9577   4.3468   4.5617
     4.7364   4.9507   5.0723   5.3447   5.5786   5.8482   6.1180   6.2268
     6.5376   6.6488   6.7474   7.1718   7.3897   7.6547   7.7862   7.9988
     8.1667   8.2740   8.8401   9.0825   9.2488   9.3587   9.5254   9.8625
    12.4705  12.5724  13.2210  13.3028  13.9355  14.2916  14.9930  15.2690
    16.2341  16.4441  18.1171  18.6410

     occupation numbers 
     1.0000   1.0000   1.0000   1.0000   1.0000   1.0000   1.0000   1.0000
     1.0000   1.0000   1.0000   1.0000   1.0000   1.0000   1.0000   1.0000
     1.0000   1.0000   1.0000   1.0000   1.0000   1.0000   1.0000   1.0000
     1.0000   1.0000   1.0000   1.0000   1.0000   1.0000   1.0000   1.0000
     1.0000   1.0000   1.0000   1.0000   1.0000   1.0000   1.0000   1.0000
     1.0000   1.0000   1.0000   1.0000   1.0000   1.0000   1.0000   1.0000
     1.0000   1.0000   1.0000   1.0000   1.0000   1.0000   1.0000   1.0000
     0.0000   0.0000   0.0000   0.0000   0.0000   0.0000   0.0000   0.0000
     0.0000   0.0000   0.0000   0.0000

          k = 0.0870 0.3657-0.3709 ( 19114 PWs)   bands (ev):

  -102.2642 -91.5301 -64.6806 -64.6139 -60.9770 -59.4052 -59.1727 -52.0128
   -51.9650 -51.9320 -28.9970 -28.9402 -28.8875 -28.8524 -28.7811 -28.7472
    -7.8833  -7.6322  -7.2816  -7.0934  -6.7946  -6.5937  -6.1973  -6.0975
     1.1448   2.2686   2.4222   2.7713   2.8925   4.0093   4.1962   4.5520
     4.8573   4.9415   5.0251   5.4151   5.7439   5.8589   6.0798   6.1435
     6.3590   6.6592   6.8798   7.1444   7.4187   7.5490   7.8079   8.0120
     8.1617   8.2929   8.8514   9.0791   9.2259   9.4557   9.6106   9.7220
    12.4798  12.5663  13.2410  13.3154  14.0908  14.2420  15.0598  15.1713
    16.1495  16.3076  18.1383  18.5913

     occupation numbers 
     1.0000   1.0000   1.0000   1.0000   1.0000   1.0000   1.0000   1.0000
     1.0000   1.0000   1.0000   1.0000   1.0000   1.0000   1.0000   1.0000
     1.0000   1.0000   1.0000   1.0000   1.0000   1.0000   1.0000   1.0000
     1.0000   1.0000   1.0000   1.0000   1.0000   1.0000   1.0000   1.0000
     1.0000   1.0000   1.0000   1.0000   1.0000   1.0000   1.0000   1.0000
     1.0000   1.0000   1.0000   1.0000   1.0000   1.0000   1.0000   1.0000
     1.0000   1.0000   1.0000   1.0000   1.0000   1.0000   1.0000   1.0000
     0.0000   0.0000   0.0000   0.0000   0.0000   0.0000   0.0000   0.0000
     0.0000   0.0000   0.0000   0.0000

          k = 0.0856 0.3657-0.2285 ( 19110 PWs)   bands (ev):

  -102.2643 -91.5300 -64.6807 -64.6139 -60.9770 -59.4052 -59.1727 -52.0129
   -51.9650 -51.9320 -28.9988 -28.9332 -28.8924 -28.8456 -28.7929 -28.7424
    -7.9800  -7.5972  -7.2612  -7.1462  -6.7692  -6.5062  -6.2593  -6.0325
     1.1585   2.2705   2.4203   2.7800   2.8725   3.9866   4.1189   4.6138
     4.9089   5.0046   5.1225   5.3863   5.6199   5.7108   5.7910   6.1655
     6.3817   6.6471   6.8464   7.0385   7.5215   7.6929   8.0235   8.2184
     8.3250   8.4387   8.7707   8.9994   9.1120   9.3146   9.4509   9.8278
    12.6122  12.7407  13.1256  13.3089  14.0880  14.1981  15.1782  15.2537
    15.8920  16.0176  18.1974  18.4262

     occupation numbers 
     1.0000   1.0000   1.0000   1.0000   1.0000   1.0000   1.0000   1.0000
     1.0000   1.0000   1.0000   1.0000   1.0000   1.0000   1.0000   1.0000
     1.0000   1.0000   1.0000   1.0000   1.0000   1.0000   1.0000   1.0000
     1.0000   1.0000   1.0000   1.0000   1.0000   1.0000   1.0000   1.0000
     1.0000   1.0000   1.0000   1.0000   1.0000   1.0000   1.0000   1.0000
     1.0000   1.0000   1.0000   1.0000   1.0000   1.0000   1.0000   1.0000
     1.0000   1.0000   1.0000   1.0000   1.0000   1.0000   1.0000   1.0000
     0.0000   0.0000   0.0000   0.0000   0.0000   0.0000   0.0000   0.0000
     0.0000   0.0000   0.0000   0.0000

          k = 0.0843 0.3657-0.0860 ( 19143 PWs)   bands (ev):

  -102.2643 -91.5299 -64.6808 -64.6139 -60.9770 -59.4052 -59.1727 -52.0129
   -51.9650 -51.9320 -28.9999 -28.9262 -28.8975 -28.8376 -28.8043 -28.7394
    -8.0452  -7.6267  -7.2770  -7.1079  -6.7265  -6.4687  -6.2917  -5.9854
     1.1718   2.2564   2.4198   2.8024   2.8709   3.9573   4.1398   4.6810
     4.8198   5.0020   5.1294   5.2380   5.5371   5.7135   5.8388   6.1002
     6.5028   6.6080   6.7508   7.0658   7.5039   7.8936   7.9828   8.2061
     8.4531   8.5751   8.7699   8.9341   9.0470   9.2863   9.4687   9.8743
    12.6804  12.8784  13.0415  13.2689  13.8943  14.2687  15.2032  15.3926
    15.7201  15.8991  18.1850  18.3774

     occupation numbers 
     1.0000   1.0000   1.0000   1.0000   1.0000   1.0000   1.0000   1.0000
     1.0000   1.0000   1.0000   1.0000   1.0000   1.0000   1.0000   1.0000
     1.0000   1.0000   1.0000   1.0000   1.0000   1.0000   1.0000   1.0000
     1.0000   1.0000   1.0000   1.0000   1.0000   1.0000   1.0000   1.0000
     1.0000   1.0000   1.0000   1.0000   1.0000   1.0000   1.0000   1.0000
     1.0000   1.0000   1.0000   1.0000   1.0000   1.0000   1.0000   1.0000
     1.0000   1.0000   1.0000   1.0000   1.0000   1.0000   1.0000   1.0000
     0.0000   0.0000   0.0000   0.0000   0.0000   0.0000   0.0000   0.0000
     0.0000   0.0000   0.0000   0.0000

          k = 0.0825-0.3703 0.0738 ( 19135 PWs)   bands (ev):

  -102.2643 -91.5299 -64.6807 -64.6140 -60.9770 -59.4052 -59.1727 -52.0129
   -51.9650 -51.9320 -29.0000 -28.9262 -28.8973 -28.8377 -28.8042 -28.7394
    -8.0047  -7.6808  -7.2932  -7.0765  -6.7123  -6.4891  -6.3004  -5.9779
     1.2081   2.2744   2.4086   2.7912   2.8596   3.9892   4.1311   4.6385
     4.8496   4.9931   5.1585   5.3317   5.4428   5.6223   5.8783   6.0511
     6.4098   6.5938   6.7730   7.2153   7.5346   7.7907   8.1044   8.1964
     8.4724   8.5999   8.7044   8.9028   9.0319   9.2505   9.4879   9.9016
    12.7153  12.8273  13.0351  13.2560  13.7899  14.3048  15.0742  15.4985
    15.8182  16.0467  18.0573  18.5522

     occupation numbers 
     1.0000   1.0000   1.0000   1.0000   1.0000   1.0000   1.0000   1.0000
     1.0000   1.0000   1.0000   1.0000   1.0000   1.0000   1.0000   1.0000
     1.0000   1.0000   1.0000   1.0000   1.0000   1.0000   1.0000   1.0000
     1.0000   1.0000   1.0000   1.0000   1.0000   1.0000   1.0000   1.0000
     1.0000   1.0000   1.0000   1.0000   1.0000   1.0000   1.0000   1.0000
     1.0000   1.0000   1.0000   1.0000   1.0000   1.0000   1.0000   1.0000
     1.0000   1.0000   1.0000   1.0000   1.0000   1.0000   1.0000   1.0000
     0.0000   0.0000   0.0000   0.0000   0.0000   0.0000   0.0000   0.0000
     0.0000   0.0000   0.0000   0.0000

          k = 0.0812-0.3704 0.2163 ( 19117 PWs)   bands (ev):

  -102.2643 -91.5300 -64.6806 -64.6140 -60.9770 -59.4052 -59.1727 -52.0129
   -51.9650 -51.9320 -28.9989 -28.9332 -28.8922 -28.8456 -28.7928 -28.7424
    -7.9515  -7.6125  -7.3367  -7.1095  -6.7512  -6.4108  -6.3706  -6.0144
     1.1921   2.2907   2.4077   2.7880   2.8547   3.9278   4.2785   4.6079
     4.8192   5.0508   5.2105   5.3209   5.5150   5.6348   5.7755   6.1076
     6.3972   6.6362   6.8643   7.1257   7.5700   7.8723   8.0303   8.1049
     8.2645   8.4622   8.8198   8.9106   9.0280   9.2901   9.4697   9.9050
    12.5815  12.7250  13.1140  13.3028  13.8135  14.3178  14.9857  15.4343
    16.0775  16.3066  18.0592  18.7006

     occupation numbers 
     1.0000   1.0000   1.0000   1.0000   1.0000   1.0000   1.0000   1.0000
     1.0000   1.0000   1.0000   1.0000   1.0000   1.0000   1.0000   1.0000
     1.0000   1.0000   1.0000   1.0000   1.0000   1.0000   1.0000   1.0000
     1.0000   1.0000   1.0000   1.0000   1.0000   1.0000   1.0000   1.0000
     1.0000   1.0000   1.0000   1.0000   1.0000   1.0000   1.0000   1.0000
     1.0000   1.0000   1.0000   1.0000   1.0000   1.0000   1.0000   1.0000
     1.0000   1.0000   1.0000   1.0000   1.0000   1.0000   1.0000   1.0000
     0.0000   0.0000   0.0000   0.0000   0.0000   0.0000   0.0000   0.0000
     0.0000   0.0000   0.0000   0.0000

          k = 0.0798-0.3704 0.3587 ( 19109 PWs)   bands (ev):

  -102.2643 -91.5301 -64.6806 -64.6140 -60.9770 -59.4052 -59.1727 -52.0128
   -51.9650 -51.9320 -28.9971 -28.9402 -28.8874 -28.8523 -28.7811 -28.7472
    -7.8691  -7.6068  -7.3170  -7.1160  -6.8247  -6.5134  -6.2583  -6.0743
     1.1801   2.2997   2.4104   2.7591   2.8749   3.9398   4.3513   4.5838
     4.7409   4.9591   5.0515   5.3388   5.5978   5.8265   6.1280   6.2172
     6.5186   6.6723   6.7298   7.1456   7.3548   7.6712   7.8205   7.9826
     8.1756   8.3160   8.8878   9.0060   9.2617   9.3883   9.5029   9.8576
    12.4047  12.6182  13.2412  13.3228  13.9456  14.2875  14.9880  15.2641
    16.2436  16.4356  18.1218  18.7054

     occupation numbers 
     1.0000   1.0000   1.0000   1.0000   1.0000   1.0000   1.0000   1.0000
     1.0000   1.0000   1.0000   1.0000   1.0000   1.0000   1.0000   1.0000
     1.0000   1.0000   1.0000   1.0000   1.0000   1.0000   1.0000   1.0000
     1.0000   1.0000   1.0000   1.0000   1.0000   1.0000   1.0000   1.0000
     1.0000   1.0000   1.0000   1.0000   1.0000   1.0000   1.0000   1.0000
     1.0000   1.0000   1.0000   1.0000   1.0000   1.0000   1.0000   1.0000
     1.0000   1.0000   1.0000   1.0000   1.0000   1.0000   1.0000   1.0000
     0.0000   0.0000   0.0000   0.0000   0.0000   0.0000   0.0000   0.0000
     0.0000   0.0000   0.0000   0.0000

          k = 0.0867-0.3703-0.3535 ( 19100 PWs)   bands (ev):

  -102.2643 -91.5301 -64.6806 -64.6140 -60.9770 -59.4052 -59.1727 -52.0128
   -51.9650 -51.9320 -28.9969 -28.9408 -28.8875 -28.8522 -28.7808 -28.7471
    -7.8290  -7.6856  -7.2670  -7.0878  -6.8342  -6.5842  -6.1899  -6.1022
     1.1834   2.2956   2.4140   2.7587   2.8684   3.9798   4.2252   4.5443
     4.8517   4.8988   5.0260   5.4225   5.7164   5.8757   6.0829   6.1829
     6.3433   6.6219   6.9387   7.1160   7.4723   7.5326   7.8055   7.9699
     8.1686   8.3170   8.8866   9.0178   9.2423   9.4536   9.6465   9.7029
    12.4621  12.6130  13.2221  13.3151  14.0743  14.2463  15.0625  15.1643
    16.1188  16.3349  18.1313  18.5884

     occupation numbers 
     1.0000   1.0000   1.0000   1.0000   1.0000   1.0000   1.0000   1.0000
     1.0000   1.0000   1.0000   1.0000   1.0000   1.0000   1.0000   1.0000
     1.0000   1.0000   1.0000   1.0000   1.0000   1.0000   1.0000   1.0000
     1.0000   1.0000   1.0000   1.0000   1.0000   1.0000   1.0000   1.0000
     1.0000   1.0000   1.0000   1.0000   1.0000   1.0000   1.0000   1.0000
     1.0000   1.0000   1.0000   1.0000   1.0000   1.0000   1.0000   1.0000
     1.0000   1.0000   1.0000   1.0000   1.0000   1.0000   1.0000   1.0000
     0.0000   0.0000   0.0000   0.0000   0.0000   0.0000   0.0000   0.0000
     0.0000   0.0000   0.0000   0.0000

          k = 0.0853-0.3703-0.2110 ( 19106 PWs)   bands (ev):

  -102.2643 -91.5300 -64.6807 -64.6139 -60.9770 -59.4052 -59.1727 -52.0129
   -51.9650 -51.9320 -28.9985 -28.9343 -28.8925 -28.8452 -28.7925 -28.7423
    -7.8965  -7.7278  -7.2593  -7.0614  -6.7702  -6.5699  -6.2397  -6.0332
     1.1997   2.2812   2.4146   2.7616   2.8700   3.9665   4.1435   4.5872
     4.8917   4.9714   5.1112   5.3660   5.6394   5.7386   5.8107   6.1941
     6.3514   6.5715   6.8450   7.1273   7.5556   7.7260   7.9804   8.1709
     8.3516   8.4408   8.8114   8.9636   9.1295   9.2630   9.4966   9.8241
    12.6302  12.7883  13.1018  13.2762  14.0505  14.2104  15.1842  15.2417
    15.8450  16.0607  18.1858  18.4022

     occupation numbers 
     1.0000   1.0000   1.0000   1.0000   1.0000   1.0000   1.0000   1.0000
     1.0000   1.0000   1.0000   1.0000   1.0000   1.0000   1.0000   1.0000
     1.0000   1.0000   1.0000   1.0000   1.0000   1.0000   1.0000   1.0000
     1.0000   1.0000   1.0000   1.0000   1.0000   1.0000   1.0000   1.0000
     1.0000   1.0000   1.0000   1.0000   1.0000   1.0000   1.0000   1.0000
     1.0000   1.0000   1.0000   1.0000   1.0000   1.0000   1.0000   1.0000
     1.0000   1.0000   1.0000   1.0000   1.0000   1.0000   1.0000   1.0000
     0.0000   0.0000   0.0000   0.0000   0.0000   0.0000   0.0000   0.0000
     0.0000   0.0000   0.0000   0.0000

          k = 0.0839-0.3703-0.0686 ( 19116 PWs)   bands (ev):

  -102.2643 -91.5299 -64.6808 -64.6139 -60.9770 -59.4052 -59.1727 -52.0129
   -51.9650 -51.9320 -28.9999 -28.9268 -28.8974 -28.8374 -28.8042 -28.7393
    -7.9844  -7.7229  -7.2631  -7.0577  -6.7194  -6.5397  -6.2635  -5.9846
     1.2124   2.2693   2.4118   2.7653   2.8817   3.9778   4.1188   4.6391
     4.8292   4.9846   5.1336   5.2567   5.5414   5.7119   5.8190   6.1096
     6.4616   6.6035   6.7645   7.0825   7.5100   7.9491   7.9960   8.1920
     8.4230   8.5958   8.7845   8.9316   9.0715   9.2204   9.4913   9.8695
    12.6880  12.9100  13.0507  13.2369  13.8803  14.2621  15.1966  15.3947
    15.7129  15.9044  18.1818  18.3502

     occupation numbers 
     1.0000   1.0000   1.0000   1.0000   1.0000   1.0000   1.0000   1.0000
     1.0000   1.0000   1.0000   1.0000   1.0000   1.0000   1.0000   1.0000
     1.0000   1.0000   1.0000   1.0000   1.0000   1.0000   1.0000   1.0000
     1.0000   1.0000   1.0000   1.0000   1.0000   1.0000   1.0000   1.0000
     1.0000   1.0000   1.0000   1.0000   1.0000   1.0000   1.0000   1.0000
     1.0000   1.0000   1.0000   1.0000   1.0000   1.0000   1.0000   1.0000
     1.0000   1.0000   1.0000   1.0000   1.0000   1.0000   1.0000   1.0000
     0.0000   0.0000   0.0000   0.0000   0.0000   0.0000   0.0000   0.0000
     0.0000   0.0000   0.0000   0.0000

          k = 0.0826-0.2231 0.0703 ( 19121 PWs)   bands (ev):

  -102.2643 -91.5299 -64.6808 -64.6139 -60.9770 -59.4052 -59.1727 -52.0129
   -51.9650 -51.9320 -29.0002 -28.9265 -28.8978 -28.8366 -28.8040 -28.7390
    -8.2975  -7.4595  -7.2491  -7.0092  -6.7302  -6.4515  -6.2353  -6.0351
     1.1522   2.2381   2.3656   2.7255   2.8434   3.7165   4.1946   4.3989
     4.7680   5.0049   5.2746   5.4409   5.5977   5.7315   5.9530   6.1061
     6.4383   6.6598   6.8882   7.1909   7.3206   7.8156   7.9906   8.0904
     8.3618   8.6464   8.7776   9.0403   9.1888   9.3053   9.7833   9.9438
    12.6631  12.7663  13.0107  13.2144  13.8282  14.2636  15.0900  15.4550
    15.7781  16.0252  17.9650  18.4511

     occupation numbers 
     1.0000   1.0000   1.0000   1.0000   1.0000   1.0000   1.0000   1.0000
     1.0000   1.0000   1.0000   1.0000   1.0000   1.0000   1.0000   1.0000
     1.0000   1.0000   1.0000   1.0000   1.0000   1.0000   1.0000   1.0000
     1.0000   1.0000   1.0000   1.0000   1.0000   1.0000   1.0000   1.0000
     1.0000   1.0000   1.0000   1.0000   1.0000   1.0000   1.0000   1.0000
     1.0000   1.0000   1.0000   1.0000   1.0000   1.0000   1.0000   1.0000
     1.0000   1.0000   1.0000   1.0000   1.0000   1.0000   1.0000   1.0000
     0.0000   0.0000   0.0000   0.0000   0.0000   0.0000   0.0000   0.0000
     0.0000   0.0000   0.0000   0.0000

          k = 0.0812-0.2231 0.2128 ( 19126 PWs)   bands (ev):

  -102.2643 -91.5300 -64.6807 -64.6140 -60.9770 -59.4052 -59.1727 -52.0129
   -51.9650 -51.9320 -28.9987 -28.9321 -28.8926 -28.8451 -28.7932 -28.7426
    -8.2018  -7.4719  -7.2832  -7.0668  -6.7468  -6.4199  -6.2375  -6.0589
     1.1371   2.2645   2.3574   2.7472   2.7833   3.8081   4.1440   4.4458
     4.8125   5.0488   5.2662   5.4034   5.6206   5.7560   5.8859   6.0834
     6.4955   6.6860   6.9844   7.1734   7.4611   7.7347   7.8285   8.0194
     8.1964   8.5772   8.7466   9.0765   9.2703   9.4274   9.6926   9.9375
    12.5146  12.7600  13.0791  13.2378  13.8749  14.2615  14.9895  15.4203
    16.0728  16.2718  17.9736  18.5247

     occupation numbers 
     1.0000   1.0000   1.0000   1.0000   1.0000   1.0000   1.0000   1.0000
     1.0000   1.0000   1.0000   1.0000   1.0000   1.0000   1.0000   1.0000
     1.0000   1.0000   1.0000   1.0000   1.0000   1.0000   1.0000   1.0000
     1.0000   1.0000   1.0000   1.0000   1.0000   1.0000   1.0000   1.0000
     1.0000   1.0000   1.0000   1.0000   1.0000   1.0000   1.0000   1.0000
     1.0000   1.0000   1.0000   1.0000   1.0000   1.0000   1.0000   1.0000
     1.0000   1.0000   1.0000   1.0000   1.0000   1.0000   1.0000   1.0000
     0.0000   0.0000   0.0000   0.0000   0.0000   0.0000   0.0000   0.0000
     0.0000   0.0000   0.0000   0.0000

          k = 0.0798-0.2232 0.3552 ( 19099 PWs)   bands (ev):

  -102.2643 -91.5300 -64.6807 -64.6140 -60.9770 -59.4052 -59.1727 -52.0128
   -51.9650 -51.9320 -28.9965 -28.9386 -28.8874 -28.8524 -28.7820 -28.7477
    -8.0273  -7.6383  -7.2703  -7.1115  -6.7404  -6.3960  -6.2185  -6.1017
     1.1295   2.2635   2.3582   2.7143   2.7916   3.8421   4.2012   4.4606
     4.7554   5.0542   5.1798   5.3826   5.6839   5.8312   5.9552   6.2852
     6.4986   6.7136   6.8596   7.1904   7.3784   7.5985   7.8083   7.8913
     8.0785   8.4384   8.9506   9.1610   9.4038   9.5020   9.6361   9.9090
    12.3690  12.6347  13.2305  13.2466  13.9833  14.2409  14.9638  15.2630
    16.1960  16.4285  18.3119  18.5149

     occupation numbers 
     1.0000   1.0000   1.0000   1.0000   1.0000   1.0000   1.0000   1.0000
     1.0000   1.0000   1.0000   1.0000   1.0000   1.0000   1.0000   1.0000
     1.0000   1.0000   1.0000   1.0000   1.0000   1.0000   1.0000   1.0000
     1.0000   1.0000   1.0000   1.0000   1.0000   1.0000   1.0000   1.0000
     1.0000   1.0000   1.0000   1.0000   1.0000   1.0000   1.0000   1.0000
     1.0000   1.0000   1.0000   1.0000   1.0000   1.0000   1.0000   1.0000
     1.0000   1.0000   1.0000   1.0000   1.0000   1.0000   1.0000   1.0000
     0.0000   0.0000   0.0000   0.0000   0.0000   0.0000   0.0000   0.0000
     0.0000   0.0000   0.0000   0.0000

          k = 0.0867-0.2231-0.3570 ( 19128 PWs)   bands (ev):

  -102.2643 -91.5300 -64.6807 -64.6139 -60.9770 -59.4052 -59.1727 -52.0128
   -51.9650 -51.9320 -28.9961 -28.9398 -28.8876 -28.8521 -28.7815 -28.7477
    -7.9320  -7.7820  -7.2560  -7.1025  -6.6751  -6.4448  -6.1861  -6.1244
     1.1363   2.2410   2.3707   2.7143   2.7964   3.8134   4.2421   4.4603
     4.7417   4.9585   5.1858   5.3736   5.7005   5.8883   6.0331   6.2566
     6.3204   6.6666   7.0899   7.2002   7.3621   7.6169   7.7624   7.9352
     8.1272   8.3003   9.0509   9.2099   9.3513   9.4916   9.7302   9.8226
    12.4397  12.6185  13.1449  13.2902  14.0437  14.2427  15.0204  15.1675
    16.0430  16.3243  18.1652  18.7791

     occupation numbers 
     1.0000   1.0000   1.0000   1.0000   1.0000   1.0000   1.0000   1.0000
     1.0000   1.0000   1.0000   1.0000   1.0000   1.0000   1.0000   1.0000
     1.0000   1.0000   1.0000   1.0000   1.0000   1.0000   1.0000   1.0000
     1.0000   1.0000   1.0000   1.0000   1.0000   1.0000   1.0000   1.0000
     1.0000   1.0000   1.0000   1.0000   1.0000   1.0000   1.0000   1.0000
     1.0000   1.0000   1.0000   1.0000   1.0000   1.0000   1.0000   1.0000
     1.0000   1.0000   1.0000   1.0000   1.0000   1.0000   1.0000   1.0000
     0.0000   0.0000   0.0000   0.0000   0.0000   0.0000   0.0000   0.0000
     0.0000   0.0000   0.0000   0.0000

          k = 0.0854-0.2231-0.2145 ( 19100 PWs)   bands (ev):

  -102.2643 -91.5300 -64.6808 -64.6139 -60.9770 -59.4052 -59.1727 -52.0129
   -51.9650 -51.9320 -28.9980 -28.9345 -28.8929 -28.8443 -28.7924 -28.7423
    -8.1343  -7.6500  -7.2275  -7.0586  -6.6322  -6.4744  -6.2302  -6.0770
     1.1524   2.2248   2.3795   2.7023   2.8325   3.7649   4.2016   4.4684
     4.7430   4.9694   5.1449   5.3843   5.6709   5.7630   6.0338   6.2636
     6.2892   6.6406   6.9070   7.3930   7.4642   7.6422   7.8075   8.1061
     8.3400   8.3884   8.9327   9.0969   9.2201   9.4258   9.7681   9.8376
    12.6190  12.7630  13.0376  13.2182  13.9747  14.2608  15.1352  15.2193
    15.7641  16.0622  17.9720  18.6941

     occupation numbers 
     1.0000   1.0000   1.0000   1.0000   1.0000   1.0000   1.0000   1.0000
     1.0000   1.0000   1.0000   1.0000   1.0000   1.0000   1.0000   1.0000
     1.0000   1.0000   1.0000   1.0000   1.0000   1.0000   1.0000   1.0000
     1.0000   1.0000   1.0000   1.0000   1.0000   1.0000   1.0000   1.0000
     1.0000   1.0000   1.0000   1.0000   1.0000   1.0000   1.0000   1.0000
     1.0000   1.0000   1.0000   1.0000   1.0000   1.0000   1.0000   1.0000
     1.0000   1.0000   1.0000   1.0000   1.0000   1.0000   1.0000   1.0000
     0.0000   0.0000   0.0000   0.0000   0.0000   0.0000   0.0000   0.0000
     0.0000   0.0000   0.0000   0.0000

          k = 0.0840-0.2231-0.0721 ( 19118 PWs)   bands (ev):

  -102.2643 -91.5299 -64.6809 -64.6139 -60.9770 -59.4052 -59.1727 -52.0129
   -51.9650 -51.9320 -28.9999 -28.9278 -28.8978 -28.8360 -28.8038 -28.7389
    -8.2751  -7.5385  -7.2122  -7.0151  -6.6820  -6.4589  -6.2410  -6.0435
     1.1608   2.2212   2.3751   2.6979   2.8705   3.7043   4.2141   4.3973
     4.7568   4.9692   5.2007   5.4045   5.6147   5.8180   5.9374   6.2249
     6.4137   6.6447   6.7416   7.2224   7.4287   7.7674   7.9357   8.2363
     8.4090   8.5603   8.8146   9.0467   9.1605   9.3478   9.7978   9.9026
    12.6635  12.8043  13.0300  13.1935  13.8694  14.2635  15.1708  15.3361
    15.6454  15.9172  17.9954  18.4868

     occupation numbers 
     1.0000   1.0000   1.0000   1.0000   1.0000   1.0000   1.0000   1.0000
     1.0000   1.0000   1.0000   1.0000   1.0000   1.0000   1.0000   1.0000
     1.0000   1.0000   1.0000   1.0000   1.0000   1.0000   1.0000   1.0000
     1.0000   1.0000   1.0000   1.0000   1.0000   1.0000   1.0000   1.0000
     1.0000   1.0000   1.0000   1.0000   1.0000   1.0000   1.0000   1.0000
     1.0000   1.0000   1.0000   1.0000   1.0000   1.0000   1.0000   1.0000
     1.0000   1.0000   1.0000   1.0000   1.0000   1.0000   1.0000   1.0000
     0.0000   0.0000   0.0000   0.0000   0.0000   0.0000   0.0000   0.0000
     0.0000   0.0000   0.0000   0.0000

          k = 0.0827-0.0759 0.0668 ( 19108 PWs)   bands (ev):

  -102.2643 -91.5299 -64.6810 -64.6139 -60.9770 -59.4052 -59.1727 -52.0129
   -51.9650 -51.9320 -29.0001 -28.9274 -28.8983 -28.8353 -28.8035 -28.7386
    -8.4683  -7.4312  -7.2015  -6.9388  -6.5973  -6.4531  -6.2144  -6.0875
     1.0620   2.1866   2.3266   2.6901   2.8395   3.4915   4.1065   4.3706
     4.6304   5.0137   5.4208   5.5355   5.6197   5.9300   6.1299   6.1975
     6.4027   6.7543   6.9093   7.2366   7.4003   7.6800   7.8876   7.9185
     8.1334   8.4305   8.7041   9.3025   9.4222   9.5932   9.9755  10.0453
    12.6351  12.7134  12.9204  13.2354  13.8290  14.2244  15.0629  15.4472
    15.6787  16.0101  17.6091  18.8507

     occupation numbers 
     1.0000   1.0000   1.0000   1.0000   1.0000   1.0000   1.0000   1.0000
     1.0000   1.0000   1.0000   1.0000   1.0000   1.0000   1.0000   1.0000
     1.0000   1.0000   1.0000   1.0000   1.0000   1.0000   1.0000   1.0000
     1.0000   1.0000   1.0000   1.0000   1.0000   1.0000   1.0000   1.0000
     1.0000   1.0000   1.0000   1.0000   1.0000   1.0000   1.0000   1.0000
     1.0000   1.0000   1.0000   1.0000   1.0000   1.0000   1.0000   1.0000
     1.0000   1.0000   1.0000   1.0000   1.0000   1.0000   1.0000   1.0000
     0.0000   0.0000   0.0000   0.0000   0.0000   0.0000   0.0000   0.0000
     0.0000   0.0000   0.0000   0.0000

          k = 0.0813-0.0759 0.2093 ( 19108 PWs)   bands (ev):

  -102.2643 -91.5299 -64.6809 -64.6140 -60.9770 -59.4052 -59.1727 -52.0129
   -51.9650 -51.9320 -28.9981 -28.9323 -28.8931 -28.8443 -28.7931 -28.7427
    -8.3558  -7.5095  -7.2141  -6.9915  -6.6307  -6.4542  -6.1601  -6.0919
     1.0499   2.2004   2.3212   2.7027   2.7655   3.6071   4.1300   4.2997
     4.7295   5.0792   5.3636   5.5403   5.6472   5.9209   6.0332   6.1550
     6.4865   6.8070   7.0106   7.1508   7.3253   7.6737   7.8364   7.9375
     8.1534   8.3537   8.5576   9.2988   9.5055   9.7039   9.8925  10.0173
    12.5058  12.8196  12.9480  13.1894  13.9040  14.1921  14.9829  15.4285
    16.0300  16.2463  17.5052  19.0375

     occupation numbers 
     1.0000   1.0000   1.0000   1.0000   1.0000   1.0000   1.0000   1.0000
     1.0000   1.0000   1.0000   1.0000   1.0000   1.0000   1.0000   1.0000
     1.0000   1.0000   1.0000   1.0000   1.0000   1.0000   1.0000   1.0000
     1.0000   1.0000   1.0000   1.0000   1.0000   1.0000   1.0000   1.0000
     1.0000   1.0000   1.0000   1.0000   1.0000   1.0000   1.0000   1.0000
     1.0000   1.0000   1.0000   1.0000   1.0000   1.0000   1.0000   1.0000
     1.0000   1.0000   1.0000   1.0000   1.0000   1.0000   1.0000   1.0000
     0.0000   0.0000   0.0000   0.0000   0.0000   0.0000   0.0000   0.0000
     0.0000   0.0000   0.0000   0.0000

          k = 0.0799-0.0759 0.3517 ( 19103 PWs)   bands (ev):

  -102.2643 -91.5299 -64.6808 -64.6140 -60.9770 -59.4052 -59.1727 -52.0128
   -51.9650 -51.9320 -28.9956 -28.9376 -28.8874 -28.8523 -28.7827 -28.7482
    -8.1454  -7.7224  -7.2274  -7.0556  -6.6211  -6.4238  -6.1305  -6.0934
     1.0462   2.1811   2.3148   2.7015   2.7237   3.6716   4.1717   4.3559
     4.7410   5.1618   5.2477   5.6215   5.7250   5.8176   6.0071   6.2456
     6.4827   6.7599   6.8675   7.0542   7.2058   7.5954   7.8523   7.9301
     8.1737   8.3917   8.8668   9.3287   9.5632   9.6972   9.7924  10.0041
    12.3915  12.6567  13.1199  13.1649  14.0411  14.1752  14.9409  15.2704
    16.1357  16.4220  17.9882  18.9073

     occupation numbers 
     1.0000   1.0000   1.0000   1.0000   1.0000   1.0000   1.0000   1.0000
     1.0000   1.0000   1.0000   1.0000   1.0000   1.0000   1.0000   1.0000
     1.0000   1.0000   1.0000   1.0000   1.0000   1.0000   1.0000   1.0000
     1.0000   1.0000   1.0000   1.0000   1.0000   1.0000   1.0000   1.0000
     1.0000   1.0000   1.0000   1.0000   1.0000   1.0000   1.0000   1.0000
     1.0000   1.0000   1.0000   1.0000   1.0000   1.0000   1.0000   1.0000
     1.0000   1.0000   1.0000   1.0000   1.0000   1.0000   1.0000   1.0000
     0.0000   0.0000   0.0000   0.0000   0.0000   0.0000   0.0000   0.0000
     0.0000   0.0000   0.0000   0.0000

          k = 0.0868-0.0759-0.3605 ( 19123 PWs)   bands (ev):

  -102.2643 -91.5300 -64.6808 -64.6139 -60.9770 -59.4052 -59.1727 -52.0128
   -51.9650 -51.9320 -28.9954 -28.9382 -28.8875 -28.8521 -28.7825 -28.7482
    -8.0520  -7.8480  -7.2204  -7.0737  -6.5637  -6.4186  -6.1522  -6.0879
     1.0547   2.1588   2.3219   2.6910   2.7312   3.6484   4.2157   4.3954
     4.6841   5.1271   5.3515   5.4837   5.6976   5.8653   6.0117   6.2429
     6.4246   6.5883   6.9017   7.1333   7.3626   7.5723   7.8421   7.9580
     8.1671   8.3794   9.1040   9.3536   9.5419   9.5771   9.8029   9.9697
    12.4369  12.6343  13.0470  13.2179  14.0207  14.2512  14.9818  15.1755
    15.9788  16.2939  18.1360  18.9475

     occupation numbers 
     1.0000   1.0000   1.0000   1.0000   1.0000   1.0000   1.0000   1.0000
     1.0000   1.0000   1.0000   1.0000   1.0000   1.0000   1.0000   1.0000
     1.0000   1.0000   1.0000   1.0000   1.0000   1.0000   1.0000   1.0000
     1.0000   1.0000   1.0000   1.0000   1.0000   1.0000   1.0000   1.0000
     1.0000   1.0000   1.0000   1.0000   1.0000   1.0000   1.0000   1.0000
     1.0000   1.0000   1.0000   1.0000   1.0000   1.0000   1.0000   1.0000
     1.0000   1.0000   1.0000   1.0000   1.0000   1.0000   1.0000   1.0000
     0.0000   0.0000   0.0000   0.0000   0.0000   0.0000   0.0000   0.0000
     0.0000   0.0000   0.0000   0.0000

          k = 0.0854-0.0759-0.2180 ( 19117 PWs)   bands (ev):

  -102.2643 -91.5300 -64.6809 -64.6139 -60.9770 -59.4052 -59.1727 -52.0129
   -51.9650 -51.9320 -28.9978 -28.9335 -28.8932 -28.8438 -28.7928 -28.7425
    -8.2903  -7.6454  -7.1868  -7.0435  -6.5283  -6.4043  -6.2001  -6.1031
     1.0678   2.1630   2.3380   2.6703   2.7779   3.5854   4.2028   4.3192
     4.6275   5.1657   5.3467   5.4926   5.6215   5.7771   6.0497   6.2474
     6.3816   6.7026   7.0639   7.1961   7.2944   7.5759   7.8846   8.0709
     8.2443   8.4137   8.8969   9.3706   9.4502   9.5484   9.8436   9.9819
    12.5767  12.7699  12.9454  13.1893  13.9063  14.2975  15.0514  15.2505
    15.7095  16.0411  17.7097  19.0952

     occupation numbers 
     1.0000   1.0000   1.0000   1.0000   1.0000   1.0000   1.0000   1.0000
     1.0000   1.0000   1.0000   1.0000   1.0000   1.0000   1.0000   1.0000
     1.0000   1.0000   1.0000   1.0000   1.0000   1.0000   1.0000   1.0000
     1.0000   1.0000   1.0000   1.0000   1.0000   1.0000   1.0000   1.0000
     1.0000   1.0000   1.0000   1.0000   1.0000   1.0000   1.0000   1.0000
     1.0000   1.0000   1.0000   1.0000   1.0000   1.0000   1.0000   1.0000
     1.0000   1.0000   1.0000   1.0000   1.0000   1.0000   1.0000   1.0000
     0.0000   0.0000   0.0000   0.0000   0.0000   0.0000   0.0000   0.0000
     0.0000   0.0000   0.0000   0.0000

          k = 0.0841-0.0759-0.0756 ( 19121 PWs)   bands (ev):

  -102.2643 -91.5299 -64.6810 -64.6139 -60.9770 -59.4052 -59.1727 -52.0129
   -51.9650 -51.9320 -28.9999 -28.9281 -28.8983 -28.8350 -28.8035 -28.7385
    -8.4461  -7.4943  -7.1769  -6.9780  -6.5456  -6.4124  -6.2331  -6.1027
     1.0713   2.1725   2.3358   2.6686   2.8432   3.4901   4.1609   4.3159
     4.5871   5.1639   5.3231   5.4610   5.6229   5.9386   6.1229   6.2854
     6.3550   6.7005   6.8513   7.2096   7.4512   7.5575   7.8626   8.1153
     8.3148   8.3802   8.8237   9.3288   9.4135   9.5067   9.9207  10.0476
    12.6606  12.7046  12.9266  13.2324  13.8347  14.2722  15.0634  15.3733
    15.5629  15.9084  17.6870  18.8608

     occupation numbers 
     1.0000   1.0000   1.0000   1.0000   1.0000   1.0000   1.0000   1.0000
     1.0000   1.0000   1.0000   1.0000   1.0000   1.0000   1.0000   1.0000
     1.0000   1.0000   1.0000   1.0000   1.0000   1.0000   1.0000   1.0000
     1.0000   1.0000   1.0000   1.0000   1.0000   1.0000   1.0000   1.0000
     1.0000   1.0000   1.0000   1.0000   1.0000   1.0000   1.0000   1.0000
     1.0000   1.0000   1.0000   1.0000   1.0000   1.0000   1.0000   1.0000
     1.0000   1.0000   1.0000   1.0000   1.0000   1.0000   1.0000   1.0000
     0.0000   0.0000   0.0000   0.0000   0.0000   0.0000   0.0000   0.0000
     0.0000   0.0000   0.0000   0.0000

          k = 0.2495 0.0666 0.0511 ( 19125 PWs)   bands (ev):

  -102.2643 -91.5299 -64.6809 -64.6139 -60.9770 -59.4052 -59.1727 -52.0129
   -51.9650 -51.9320 -29.0002 -28.9283 -28.8989 -28.8353 -28.8040 -28.7387
    -8.3148  -7.4643  -7.1857  -7.0711  -6.5670  -6.3897  -6.2576  -6.2043
     1.0656   2.2090   2.3706   2.8151   2.8437   3.6739   4.1347   4.3112
     4.7435   5.0074   5.2217   5.4855   5.7196   5.7916   5.9987   6.1117
     6.2181   6.5622   6.8387   7.2187   7.4654   7.6124   8.0178   8.1575
     8.4152   8.5563   8.8259   9.0986   9.4060   9.4931   9.9819  10.1315
    12.5796  12.6728  12.9951  13.1974  13.7599  14.3054  15.0828  15.4927
    15.9473  16.2141  17.7841  18.8233

     occupation numbers 
     1.0000   1.0000   1.0000   1.0000   1.0000   1.0000   1.0000   1.0000
     1.0000   1.0000   1.0000   1.0000   1.0000   1.0000   1.0000   1.0000
     1.0000   1.0000   1.0000   1.0000   1.0000   1.0000   1.0000   1.0000
     1.0000   1.0000   1.0000   1.0000   1.0000   1.0000   1.0000   1.0000
     1.0000   1.0000   1.0000   1.0000   1.0000   1.0000   1.0000   1.0000
     1.0000   1.0000   1.0000   1.0000   1.0000   1.0000   1.0000   1.0000
     1.0000   1.0000   1.0000   1.0000   1.0000   1.0000   1.0000   1.0000
     0.0000   0.0000   0.0000   0.0000   0.0000   0.0000   0.0000   0.0000
     0.0000   0.0000   0.0000   0.0000

          k = 0.2482 0.0666 0.1936 ( 19116 PWs)   bands (ev):

  -102.2643 -91.5299 -64.6808 -64.6142 -60.9770 -59.4052 -59.1727 -52.0129
   -51.9650 -51.9320 -28.9981 -28.9337 -28.8935 -28.8445 -28.7930 -28.7428
    -8.2481  -7.4776  -7.2122  -7.0192  -6.6349  -6.5107  -6.2198  -6.1473
     1.0617   2.2123   2.3713   2.8254   2.8486   3.7468   4.1057   4.2994
     4.8077   4.9386   5.2744   5.4647   5.6092   5.7614   5.9183   6.0450
     6.2552   6.7737   7.0355   7.2316   7.4855   7.6172   7.8688   8.0867
     8.3012   8.5056   8.7143   9.2117   9.3751   9.6348  10.0009  10.0731
    12.5271  12.8020  12.9792  13.1240  13.8170  14.1739  15.0669  15.4742
    16.1306  16.4680  17.7081  18.9348

     occupation numbers 
     1.0000   1.0000   1.0000   1.0000   1.0000   1.0000   1.0000   1.0000
     1.0000   1.0000   1.0000   1.0000   1.0000   1.0000   1.0000   1.0000
     1.0000   1.0000   1.0000   1.0000   1.0000   1.0000   1.0000   1.0000
     1.0000   1.0000   1.0000   1.0000   1.0000   1.0000   1.0000   1.0000
     1.0000   1.0000   1.0000   1.0000   1.0000   1.0000   1.0000   1.0000
     1.0000   1.0000   1.0000   1.0000   1.0000   1.0000   1.0000   1.0000
     1.0000   1.0000   1.0000   1.0000   1.0000   1.0000   1.0000   1.0000
     0.0000   0.0000   0.0000   0.0000   0.0000   0.0000   0.0000   0.0000
     0.0000   0.0000   0.0000   0.0000

          k = 0.2468 0.0666 0.3360 ( 19132 PWs)   bands (ev):

  -102.2642 -91.5299 -64.6807 -64.6143 -60.9770 -59.4052 -59.1727 -52.0129
   -51.9650 -51.9320 -28.9957 -28.9384 -28.8878 -28.8527 -28.7826 -28.7485
    -8.0892  -7.5983  -7.2537  -7.0266  -6.7083  -6.5011  -6.2010  -6.1000
     1.0732   2.1896   2.3755   2.8042   2.8618   3.7803   4.1687   4.2973
     4.7058   4.9639   5.1226   5.4137   5.6235   5.7646   5.9858   6.1412
     6.4332   6.8272   6.9695   7.1100   7.2311   7.5618   7.8896   8.0379
     8.4433   8.5736   8.7868   9.2482   9.5258   9.6979   9.8815  10.1136
    12.4646  12.6881  13.0151  13.1783  13.9515  14.1049  15.0738  15.3428
    16.0307  16.3128  18.3310  18.9214

     occupation numbers 
     1.0000   1.0000   1.0000   1.0000   1.0000   1.0000   1.0000   1.0000
     1.0000   1.0000   1.0000   1.0000   1.0000   1.0000   1.0000   1.0000
     1.0000   1.0000   1.0000   1.0000   1.0000   1.0000   1.0000   1.0000
     1.0000   1.0000   1.0000   1.0000   1.0000   1.0000   1.0000   1.0000
     1.0000   1.0000   1.0000   1.0000   1.0000   1.0000   1.0000   1.0000
     1.0000   1.0000   1.0000   1.0000   1.0000   1.0000   1.0000   1.0000
     1.0000   1.0000   1.0000   1.0000   1.0000   1.0000   1.0000   1.0000
     0.0000   0.0000   0.0000   0.0000   0.0000   0.0000   0.0000   0.0000
     0.0000   0.0000   0.0000   0.0000

          k = 0.2537 0.0667-0.3762 ( 19123 PWs)   bands (ev):

  -102.2642 -91.5299 -64.6807 -64.6142 -60.9770 -59.4052 -59.1727 -52.0128
   -51.9650 -51.9320 -28.9959 -28.9379 -28.8878 -28.8529 -28.7830 -28.7485
    -7.9357  -7.7711  -7.2811  -7.0676  -6.6769  -6.4407  -6.2231  -6.0749
     1.0889   2.1646   2.3764   2.7827   2.8577   3.7413   4.2887   4.3802
     4.6006   4.9159   5.0889   5.3851   5.5189   5.8463   5.9333   6.1703
     6.4111   6.6525   7.0039   7.2116   7.4296   7.5941   7.8061   8.0074
     8.4534   8.6206   8.8981   9.3362   9.5255   9.6533   9.8901  10.0886
    12.5009  12.6332  12.9430  13.3177  13.9091  14.2456  15.1064  15.1867
    15.8226  16.0215  18.5915  19.1677

     occupation numbers 
     1.0000   1.0000   1.0000   1.0000   1.0000   1.0000   1.0000   1.0000
     1.0000   1.0000   1.0000   1.0000   1.0000   1.0000   1.0000   1.0000
     1.0000   1.0000   1.0000   1.0000   1.0000   1.0000   1.0000   1.0000
     1.0000   1.0000   1.0000   1.0000   1.0000   1.0000   1.0000   1.0000
     1.0000   1.0000   1.0000   1.0000   1.0000   1.0000   1.0000   1.0000
     1.0000   1.0000   1.0000   1.0000   1.0000   1.0000   1.0000   1.0000
     1.0000   1.0000   1.0000   1.0000   1.0000   1.0000   1.0000   1.0000
     0.0000   0.0000   0.0000   0.0000   0.0000   0.0000   0.0000   0.0000
     0.0000   0.0000   0.0000   0.0000

          k = 0.2523 0.0667-0.2337 ( 19129 PWs)   bands (ev):

  -102.2642 -91.5299 -64.6809 -64.6139 -60.9770 -59.4052 -59.1727 -52.0129
   -51.9650 -51.9320 -28.9983 -28.9327 -28.8938 -28.8445 -28.7936 -28.7428
    -8.0954  -7.6660  -7.2596  -7.1002  -6.5704  -6.3972  -6.2642  -6.1036
     1.0924   2.1687   2.3794   2.7868   2.8252   3.7028   4.2946   4.4426
     4.5884   4.9288   5.2024   5.2399   5.4863   5.7727   5.8318   6.1525
     6.5406   6.6624   6.9578   7.2102   7.5643   7.6324   7.9280   8.1928
     8.3276   8.6041   8.8853   9.2888   9.4164   9.5904   9.8735  10.1085
    12.5743  12.7292  12.9140  13.3123  13.8407  14.3738  15.0481  15.2654
    15.7081  15.8279  18.2106  19.1793

     occupation numbers 
     1.0000   1.0000   1.0000   1.0000   1.0000   1.0000   1.0000   1.0000
     1.0000   1.0000   1.0000   1.0000   1.0000   1.0000   1.0000   1.0000
     1.0000   1.0000   1.0000   1.0000   1.0000   1.0000   1.0000   1.0000
     1.0000   1.0000   1.0000   1.0000   1.0000   1.0000   1.0000   1.0000
     1.0000   1.0000   1.0000   1.0000   1.0000   1.0000   1.0000   1.0000
     1.0000   1.0000   1.0000   1.0000   1.0000   1.0000   1.0000   1.0000
     1.0000   1.0000   1.0000   1.0000   1.0000   1.0000   1.0000   1.0000
     0.0000   0.0000   0.0000   0.0000   0.0000   0.0000   0.0000   0.0000
     0.0000   0.0000   0.0000   0.0000

          k = 0.2509 0.0667-0.0913 ( 19121 PWs)   bands (ev):

  -102.2643 -91.5299 -64.6809 -64.6138 -60.9770 -59.4052 -59.1727 -52.0129
   -51.9650 -51.9320 -29.0004 -28.9278 -28.8991 -28.8351 -28.8044 -28.7388
    -8.2604  -7.5365  -7.1986  -7.1179  -6.5110  -6.3618  -6.2757  -6.1861
     1.0806   2.1913   2.3772   2.7980   2.8247   3.6630   4.2518   4.2941
     4.6843   5.0033   5.1916   5.3572   5.6309   5.7665   5.9604   6.1849
     6.3706   6.5300   6.9288   7.1579   7.4440   7.5615   8.1397   8.2361
     8.4001   8.6415   8.8272   9.1467   9.3874   9.5203   9.8875  10.1621
    12.5917  12.6873  12.9528  13.2663  13.7889  14.3958  15.0547  15.4564
    15.6768  15.9225  18.0430  18.8587

     occupation numbers 
     1.0000   1.0000   1.0000   1.0000   1.0000   1.0000   1.0000   1.0000
     1.0000   1.0000   1.0000   1.0000   1.0000   1.0000   1.0000   1.0000
     1.0000   1.0000   1.0000   1.0000   1.0000   1.0000   1.0000   1.0000
     1.0000   1.0000   1.0000   1.0000   1.0000   1.0000   1.0000   1.0000
     1.0000   1.0000   1.0000   1.0000   1.0000   1.0000   1.0000   1.0000
     1.0000   1.0000   1.0000   1.0000   1.0000   1.0000   1.0000   1.0000
     1.0000   1.0000   1.0000   1.0000   1.0000   1.0000   1.0000   1.0000
     0.0000   0.0000   0.0000   0.0000   0.0000   0.0000   0.0000   0.0000
     0.0000   0.0000   0.0000   0.0000

          k = 0.2496 0.2139 0.0477 ( 19153 PWs)   bands (ev):

  -102.2642 -91.5299 -64.6811 -64.6139 -60.9770 -59.4052 -59.1727 -52.0129
   -51.9650 -51.9320 -28.9997 -28.9278 -28.8985 -28.8363 -28.8042 -28.7391
    -8.2080  -7.4657  -7.2493  -7.1479  -6.6064  -6.3688  -6.2753  -6.1623
     1.0229   2.2023   2.4068   2.8158   2.8665   3.8060   4.1894   4.3954
     4.7729   5.0312   5.2413   5.4649   5.7360   5.8187   5.8945   6.1188
     6.3022   6.5849   6.9165   7.1865   7.5114   7.6575   7.9858   8.1589
     8.3395   8.5066   8.7944   9.0552   9.1869   9.3401   9.7422   9.9659
    12.5843  12.7615  12.9383  13.1991  13.8919  14.2991  15.0275  15.4841
    16.0051  16.3267  17.9491  18.6248

     occupation numbers 
     1.0000   1.0000   1.0000   1.0000   1.0000   1.0000   1.0000   1.0000
     1.0000   1.0000   1.0000   1.0000   1.0000   1.0000   1.0000   1.0000
     1.0000   1.0000   1.0000   1.0000   1.0000   1.0000   1.0000   1.0000
     1.0000   1.0000   1.0000   1.0000   1.0000   1.0000   1.0000   1.0000
     1.0000   1.0000   1.0000   1.0000   1.0000   1.0000   1.0000   1.0000
     1.0000   1.0000   1.0000   1.0000   1.0000   1.0000   1.0000   1.0000
     1.0000   1.0000   1.0000   1.0000   1.0000   1.0000   1.0000   1.0000
     0.0000   0.0000   0.0000   0.0000   0.0000   0.0000   0.0000   0.0000
     0.0000   0.0000   0.0000   0.0000

          k = 0.2482 0.2138 0.1901 ( 19150 PWs)   bands (ev):

  -102.2642 -91.5300 -64.6810 -64.6142 -60.9770 -59.4052 -59.1727 -52.0129
   -51.9650 -51.9320 -28.9979 -28.9346 -28.8932 -28.8449 -28.7926 -28.7426
    -8.1394  -7.5235  -7.2435  -7.1254  -6.5853  -6.4491  -6.2762  -6.1550
     1.0182   2.1901   2.4136   2.8394   2.8748   3.9029   4.1688   4.3347
     4.8028   5.0012   5.2256   5.5059   5.5959   5.6708   5.9027   6.0795
     6.3969   6.7521   7.0894   7.2067   7.5356   7.7910   7.9167   8.0557
     8.2136   8.4471   8.7229   9.0471   9.1632   9.4402   9.8265   9.8896
    12.5168  12.7878  12.9641  13.1314  13.8614  14.2084  15.0440  15.4721
    16.1767  16.4827  18.0481  18.6534

     occupation numbers 
     1.0000   1.0000   1.0000   1.0000   1.0000   1.0000   1.0000   1.0000
     1.0000   1.0000   1.0000   1.0000   1.0000   1.0000   1.0000   1.0000
     1.0000   1.0000   1.0000   1.0000   1.0000   1.0000   1.0000   1.0000
     1.0000   1.0000   1.0000   1.0000   1.0000   1.0000   1.0000   1.0000
     1.0000   1.0000   1.0000   1.0000   1.0000   1.0000   1.0000   1.0000
     1.0000   1.0000   1.0000   1.0000   1.0000   1.0000   1.0000   1.0000
     1.0000   1.0000   1.0000   1.0000   1.0000   1.0000   1.0000   1.0000
     0.0000   0.0000   0.0000   0.0000   0.0000   0.0000   0.0000   0.0000
     0.0000   0.0000   0.0000   0.0000

          k = 0.2468 0.2138 0.3325 ( 19130 PWs)   bands (ev):

  -102.2642 -91.5300 -64.6809 -64.6143 -60.9770 -59.4052 -59.1727 -52.0129
   -51.9650 -51.9320 -28.9960 -28.9399 -28.8878 -28.8526 -28.7816 -28.7480
    -7.9942  -7.6373  -7.2956  -7.0810  -6.6179  -6.4752  -6.2515  -6.1557
     1.0226   2.1656   2.4209   2.8363   2.8968   3.8984   4.2165   4.3469
     4.7336   4.9415   5.1384   5.3730   5.5700   5.7351   6.0383   6.3296
     6.5596   6.7682   6.9527   7.1731   7.4124   7.6902   7.8119   7.9570
     8.2638   8.5141   8.8106   9.0280   9.3351   9.4972   9.7154  10.0034
    12.4542  12.6011  13.0644  13.2146  13.8389  14.2197  15.0993  15.3447
    16.1301  16.3088  18.4477  18.6871

     occupation numbers 
     1.0000   1.0000   1.0000   1.0000   1.0000   1.0000   1.0000   1.0000
     1.0000   1.0000   1.0000   1.0000   1.0000   1.0000   1.0000   1.0000
     1.0000   1.0000   1.0000   1.0000   1.0000   1.0000   1.0000   1.0000
     1.0000   1.0000   1.0000   1.0000   1.0000   1.0000   1.0000   1.0000
     1.0000   1.0000   1.0000   1.0000   1.0000   1.0000   1.0000   1.0000
     1.0000   1.0000   1.0000   1.0000   1.0000   1.0000   1.0000   1.0000
     1.0000   1.0000   1.0000   1.0000   1.0000   1.0000   1.0000   1.0000
     0.0000   0.0000   0.0000   0.0000   0.0000   0.0000   0.0000   0.0000
     0.0000   0.0000   0.0000   0.0000

          k = 0.2537 0.2139-0.3797 ( 19128 PWs)   bands (ev):

  -102.2642 -91.5300 -64.6810 -64.6141 -60.9770 -59.4052 -59.1727 -52.0128
   -51.9650 -51.9320 -28.9963 -28.9388 -28.8877 -28.8530 -28.7822 -28.7480
    -7.9081  -7.7050  -7.3439  -7.0621  -6.6816  -6.4083  -6.2438  -6.1527
     1.0327   2.1560   2.4234   2.8086   2.8903   3.8452   4.2020   4.4664
     4.7644   4.8234   5.1585   5.3433   5.5754   5.8832   6.0455   6.3310
     6.4421   6.6572   6.9935   7.2748   7.4287   7.5489   7.7370   8.0010
     8.4119   8.4712   8.8797   9.0760   9.3137   9.4973   9.7499   9.9970
    12.4990  12.5556  12.9966  13.3752  13.8663  14.3084  15.1344  15.2259
    15.9411  16.0332  18.2541  19.2216

     occupation numbers 
     1.0000   1.0000   1.0000   1.0000   1.0000   1.0000   1.0000   1.0000
     1.0000   1.0000   1.0000   1.0000   1.0000   1.0000   1.0000   1.0000
     1.0000   1.0000   1.0000   1.0000   1.0000   1.0000   1.0000   1.0000
     1.0000   1.0000   1.0000   1.0000   1.0000   1.0000   1.0000   1.0000
     1.0000   1.0000   1.0000   1.0000   1.0000   1.0000   1.0000   1.0000
     1.0000   1.0000   1.0000   1.0000   1.0000   1.0000   1.0000   1.0000
     1.0000   1.0000   1.0000   1.0000   1.0000   1.0000   1.0000   1.0000
     0.0000   0.0000   0.0000   0.0000   0.0000   0.0000   0.0000   0.0000
     0.0000   0.0000   0.0000   0.0000

          k = 0.2524 0.2139-0.2372 ( 19128 PWs)   bands (ev):

  -102.2642 -91.5300 -64.6811 -64.6139 -60.9770 -59.4052 -59.1727 -52.0129
   -51.9650 -51.9320 -28.9985 -28.9323 -28.8933 -28.8454 -28.7936 -28.7428
    -8.0457  -7.5840  -7.3432  -7.0993  -6.6398  -6.3701  -6.2697  -6.1403
     1.0376   2.1745   2.4202   2.7889   2.8602   3.7990   4.1832   4.5775
     4.7351   4.8690   5.2181   5.3808   5.5407   5.8030   5.9433   6.3292
     6.4196   6.7293   6.9413   7.0488   7.5109   7.6638   7.8121   8.2221
     8.3617   8.5446   8.8580   8.9772   9.2467   9.4594   9.7297   9.9644
    12.5628  12.7422  12.9149  13.3709  13.9241  14.3948  15.0669  15.3308
    15.7537  15.8793  18.0677  19.0772

     occupation numbers 
     1.0000   1.0000   1.0000   1.0000   1.0000   1.0000   1.0000   1.0000
     1.0000   1.0000   1.0000   1.0000   1.0000   1.0000   1.0000   1.0000
     1.0000   1.0000   1.0000   1.0000   1.0000   1.0000   1.0000   1.0000
     1.0000   1.0000   1.0000   1.0000   1.0000   1.0000   1.0000   1.0000
     1.0000   1.0000   1.0000   1.0000   1.0000   1.0000   1.0000   1.0000
     1.0000   1.0000   1.0000   1.0000   1.0000   1.0000   1.0000   1.0000
     1.0000   1.0000   1.0000   1.0000   1.0000   1.0000   1.0000   1.0000
     0.0000   0.0000   0.0000   0.0000   0.0000   0.0000   0.0000   0.0000
     0.0000   0.0000   0.0000   0.0000

          k = 0.2510 0.2139-0.0948 ( 19134 PWs)   bands (ev):

  -102.2642 -91.5299 -64.6812 -64.6137 -60.9770 -59.4052 -59.1727 -52.0129
   -51.9650 -51.9320 -29.0000 -28.9266 -28.8988 -28.8364 -28.8047 -28.7392
    -8.1719  -7.4878  -7.2975  -7.1409  -6.5964  -6.3664  -6.2703  -6.1500
     1.0323   2.1969   2.4104   2.7957   2.8557   3.7627   4.2160   4.4557
     4.7307   5.0839   5.1496   5.3887   5.7180   5.7988   5.9733   6.2465
     6.2921   6.6345   6.8844   7.1730   7.3937   7.6661   7.8534   8.2623
     8.3709   8.6527   8.7535   9.0416   9.2466   9.3707   9.6621  10.0026
    12.6065  12.7792  12.8980  13.3007  13.9258  14.3935  15.0478  15.4244
    15.7666  16.0236  18.0187  18.7463

     occupation numbers 
     1.0000   1.0000   1.0000   1.0000   1.0000   1.0000   1.0000   1.0000
     1.0000   1.0000   1.0000   1.0000   1.0000   1.0000   1.0000   1.0000
     1.0000   1.0000   1.0000   1.0000   1.0000   1.0000   1.0000   1.0000
     1.0000   1.0000   1.0000   1.0000   1.0000   1.0000   1.0000   1.0000
     1.0000   1.0000   1.0000   1.0000   1.0000   1.0000   1.0000   1.0000
     1.0000   1.0000   1.0000   1.0000   1.0000   1.0000   1.0000   1.0000
     1.0000   1.0000   1.0000   1.0000   1.0000   1.0000   1.0000   1.0000
     0.0000   0.0000   0.0000   0.0000   0.0000   0.0000   0.0000   0.0000
     0.0000   0.0000   0.0000   0.0000

          k = 0.2497 0.3611 0.0442 ( 19147 PWs)   bands (ev):

  -102.2642 -91.5299 -64.6813 -64.6139 -60.9770 -59.4052 -59.1727 -52.0129
   -51.9650 -51.9320 -28.9996 -28.9268 -28.8979 -28.8375 -28.8046 -28.7396
    -8.0046  -7.5813  -7.3206  -7.1616  -6.6548  -6.4903  -6.2237  -6.0876
     1.0590   2.2075   2.4388   2.7902   2.8581   3.8391   4.1694   4.6363
     4.8903   5.1895   5.2760   5.3594   5.5538   5.7268   5.9610   6.2086
     6.2841   6.7273   6.8600   7.1217   7.4992   7.8260   7.9088   8.1164
     8.3976   8.4671   8.6869   8.8964   9.0505   9.2356   9.5519   9.7620
    12.6799  12.8058  12.8923  13.2166  14.0156  14.2526  14.9636  15.5003
    16.0618  16.4007  18.0543  18.3849

     occupation numbers 
     1.0000   1.0000   1.0000   1.0000   1.0000   1.0000   1.0000   1.0000
     1.0000   1.0000   1.0000   1.0000   1.0000   1.0000   1.0000   1.0000
     1.0000   1.0000   1.0000   1.0000   1.0000   1.0000   1.0000   1.0000
     1.0000   1.0000   1.0000   1.0000   1.0000   1.0000   1.0000   1.0000
     1.0000   1.0000   1.0000   1.0000   1.0000   1.0000   1.0000   1.0000
     1.0000   1.0000   1.0000   1.0000   1.0000   1.0000   1.0000   1.0000
     1.0000   1.0000   1.0000   1.0000   1.0000   1.0000   1.0000   1.0000
     0.0000   0.0000   0.0000   0.0000   0.0000   0.0000   0.0000   0.0000
     0.0000   0.0000   0.0000   0.0000

          k = 0.2483 0.3611 0.1866 ( 19138 PWs)   bands (ev):

  -102.2642 -91.5300 -64.6812 -64.6141 -60.9770 -59.4052 -59.1727 -52.0129
   -51.9650 -51.9320 -28.9983 -28.9343 -28.8926 -28.8456 -28.7926 -28.7426
    -7.9367  -7.6037  -7.3338  -7.1912  -6.6018  -6.4291  -6.3304  -6.1105
     1.0538   2.2016   2.4460   2.8286   2.8446   3.9173   4.1741   4.5762
     4.8060   5.1016   5.2595   5.4246   5.5703   5.6684   5.8992   6.2429
     6.3862   6.7000   6.9400   7.2690   7.5469   7.7767   8.0220   8.0896
     8.2460   8.5589   8.7342   8.8084   8.9128   9.2550   9.6098   9.7302
    12.5188  12.7363  12.9861  13.1928  13.8765  14.2553  15.0098  15.4755
    16.2068  16.4862  18.2195  18.6103

     occupation numbers 
     1.0000   1.0000   1.0000   1.0000   1.0000   1.0000   1.0000   1.0000
     1.0000   1.0000   1.0000   1.0000   1.0000   1.0000   1.0000   1.0000
     1.0000   1.0000   1.0000   1.0000   1.0000   1.0000   1.0000   1.0000
     1.0000   1.0000   1.0000   1.0000   1.0000   1.0000   1.0000   1.0000
     1.0000   1.0000   1.0000   1.0000   1.0000   1.0000   1.0000   1.0000
     1.0000   1.0000   1.0000   1.0000   1.0000   1.0000   1.0000   1.0000
     1.0000   1.0000   1.0000   1.0000   1.0000   1.0000   1.0000   1.0000
     0.0000   0.0000   0.0000   0.0000   0.0000   0.0000   0.0000   0.0000
     0.0000   0.0000   0.0000   0.0000

          k = 0.2469 0.3610 0.3290 ( 19147 PWs)   bands (ev):

  -102.2642 -91.5300 -64.6811 -64.6142 -60.9770 -59.4052 -59.1727 -52.0129
   -51.9650 -51.9320 -28.9967 -28.9407 -28.8877 -28.8526 -28.7809 -28.7475
    -7.8368  -7.6424  -7.3631  -7.1786  -6.5672  -6.4889  -6.3320  -6.1420
     1.0533   2.1951   2.4527   2.8064   2.8798   3.8443   4.2924   4.5525
     4.6951   5.0161   5.2071   5.2886   5.6859   5.7443   6.1233   6.3240
     6.6001   6.6647   6.9309   7.2680   7.5071   7.6368   7.8262   7.9334
     8.3112   8.3912   8.7340   8.9651   9.0770   9.3543   9.4606   9.9206
    12.3804  12.5934  13.1356  13.2389  13.7796  14.2965  15.1176  15.3535
    16.1642  16.3062  18.2009  19.0890

     occupation numbers 
     1.0000   1.0000   1.0000   1.0000   1.0000   1.0000   1.0000   1.0000
     1.0000   1.0000   1.0000   1.0000   1.0000   1.0000   1.0000   1.0000
     1.0000   1.0000   1.0000   1.0000   1.0000   1.0000   1.0000   1.0000
     1.0000   1.0000   1.0000   1.0000   1.0000   1.0000   1.0000   1.0000
     1.0000   1.0000   1.0000   1.0000   1.0000   1.0000   1.0000   1.0000
     1.0000   1.0000   1.0000   1.0000   1.0000   1.0000   1.0000   1.0000
     1.0000   1.0000   1.0000   1.0000   1.0000   1.0000   1.0000   1.0000
     0.0000   0.0000   0.0000   0.0000   0.0000   0.0000   0.0000   0.0000
     0.0000   0.0000   0.0000   0.0000

          k = 0.2538 0.3611-0.3831 ( 19129 PWs)   bands (ev):

  -102.2642 -91.5300 -64.6812 -64.6141 -60.9770 -59.4052 -59.1727 -52.0128
   -51.9650 -51.9320 -28.9969 -28.9401 -28.8878 -28.8528 -28.7812 -28.7474
    -7.8480  -7.5982  -7.3984  -7.1050  -6.7363  -6.4542  -6.2467  -6.1650
     1.0586   2.1993   2.4558   2.7787   2.8702   3.7734   4.2325   4.6259
     4.6999   5.0487   5.2636   5.3021   5.7653   5.8988   6.1645   6.2457
     6.3357   6.6508   7.0877   7.2584   7.4186   7.5735   7.7318   8.0422
     8.2566   8.3354   8.7261   8.9583   9.1823   9.3860   9.5259   9.9283
    12.4140  12.6018  13.0747  13.3780  13.8303  14.3630  15.1561  15.2922
    15.9386  16.0861  18.0167  19.2484

     occupation numbers 
     1.0000   1.0000   1.0000   1.0000   1.0000   1.0000   1.0000   1.0000
     1.0000   1.0000   1.0000   1.0000   1.0000   1.0000   1.0000   1.0000
     1.0000   1.0000   1.0000   1.0000   1.0000   1.0000   1.0000   1.0000
     1.0000   1.0000   1.0000   1.0000   1.0000   1.0000   1.0000   1.0000
     1.0000   1.0000   1.0000   1.0000   1.0000   1.0000   1.0000   1.0000
     1.0000   1.0000   1.0000   1.0000   1.0000   1.0000   1.0000   1.0000
     1.0000   1.0000   1.0000   1.0000   1.0000   1.0000   1.0000   1.0000
     0.0000   0.0000   0.0000   0.0000   0.0000   0.0000   0.0000   0.0000
     0.0000   0.0000   0.0000   0.0000

          k = 0.2524 0.3611-0.2407 ( 19133 PWs)   bands (ev):

  -102.2642 -91.5300 -64.6813 -64.6138 -60.9770 -59.4052 -59.1727 -52.0129
   -51.9650 -51.9320 -28.9986 -28.9331 -28.8929 -28.8459 -28.7931 -28.7426
    -7.9354  -7.5555  -7.3718  -7.0987  -6.7823  -6.4438  -6.2298  -6.1218
     1.0642   2.2112   2.4506   2.7616   2.8446   3.7374   4.1818   4.7376
     4.7995   5.0207   5.3402   5.4804   5.5954   5.8515   5.9974   6.2527
     6.3676   6.6519   6.8630   7.1887   7.4309   7.5698   7.8874   8.2048
     8.3300   8.5254   8.6041   8.8220   9.1067   9.4321   9.5260   9.8326
    12.5620  12.7478  13.0061  13.3579  13.9782  14.4039  15.0826  15.3996
    15.8035  15.9055  17.8708  18.9750

     occupation numbers 
     1.0000   1.0000   1.0000   1.0000   1.0000   1.0000   1.0000   1.0000
     1.0000   1.0000   1.0000   1.0000   1.0000   1.0000   1.0000   1.0000
     1.0000   1.0000   1.0000   1.0000   1.0000   1.0000   1.0000   1.0000
     1.0000   1.0000   1.0000   1.0000   1.0000   1.0000   1.0000   1.0000
     1.0000   1.0000   1.0000   1.0000   1.0000   1.0000   1.0000   1.0000
     1.0000   1.0000   1.0000   1.0000   1.0000   1.0000   1.0000   1.0000
     1.0000   1.0000   1.0000   1.0000   1.0000   1.0000   1.0000   1.0000
     0.0000   0.0000   0.0000   0.0000   0.0000   0.0000   0.0000   0.0000
     0.0000   0.0000   0.0000   0.0000

          k = 0.2510 0.3611-0.0983 ( 19135 PWs)   bands (ev):

  -102.2642 -91.5299 -64.6814 -64.6137 -60.9770 -59.4052 -59.1727 -52.0129
   -51.9650 -51.9320 -28.9997 -28.9261 -28.8982 -28.8376 -28.8049 -28.7396
    -8.0005  -7.5662  -7.3247  -7.1455  -6.7043  -6.4911  -6.2061  -6.0874
     1.0641   2.2131   2.4398   2.7658   2.8531   3.7476   4.1959   4.7428
     4.8581   5.0758   5.2621   5.4330   5.6384   5.7962   5.9424   6.2433
     6.3467   6.6447   6.8914   7.0705   7.4778   7.6426   7.9771   8.1191
     8.2882   8.4287   8.7323   8.9819   9.0999   9.3021   9.4967   9.8156
    12.6644  12.8245  12.9475  13.2797  14.0636  14.3315  15.0235  15.4360
    15.8593  16.0965  17.8650  18.6260

     occupation numbers 
     1.0000   1.0000   1.0000   1.0000   1.0000   1.0000   1.0000   1.0000
     1.0000   1.0000   1.0000   1.0000   1.0000   1.0000   1.0000   1.0000
     1.0000   1.0000   1.0000   1.0000   1.0000   1.0000   1.0000   1.0000
     1.0000   1.0000   1.0000   1.0000   1.0000   1.0000   1.0000   1.0000
     1.0000   1.0000   1.0000   1.0000   1.0000   1.0000   1.0000   1.0000
     1.0000   1.0000   1.0000   1.0000   1.0000   1.0000   1.0000   1.0000
     1.0000   1.0000   1.0000   1.0000   1.0000   1.0000   1.0000   1.0000
     0.0000   0.0000   0.0000   0.0000   0.0000   0.0000   0.0000   0.0000
     0.0000   0.0000   0.0000   0.0000

          k = 0.2493-0.3750 0.0616 ( 19129 PWs)   bands (ev):

  -102.2643 -91.5299 -64.6813 -64.6139 -60.9770 -59.4052 -59.1727 -52.0129
   -51.9650 -51.9320 -29.0000 -28.9262 -28.8978 -28.8378 -28.8047 -28.7397
    -7.8946  -7.7138  -7.3104  -7.1199  -6.6722  -6.5477  -6.1896  -6.0887
     1.1325   2.2329   2.4291   2.7374   2.8544   3.8561   4.1450   4.6104
     4.9311   5.1962   5.2352   5.3423   5.5404   5.6976   5.9627   6.1550
     6.3419   6.7101   6.8784   7.1123   7.5211   7.8263   7.9870   8.1132
     8.4014   8.4652   8.6856   8.9337   9.0152   9.1806   9.5642   9.7528
    12.6672  12.8150  12.9420  13.2186  14.0229  14.2365  14.9619  15.4978
    16.0572  16.3981  18.0494  18.3856

     occupation numbers 
     1.0000   1.0000   1.0000   1.0000   1.0000   1.0000   1.0000   1.0000
     1.0000   1.0000   1.0000   1.0000   1.0000   1.0000   1.0000   1.0000
     1.0000   1.0000   1.0000   1.0000   1.0000   1.0000   1.0000   1.0000
     1.0000   1.0000   1.0000   1.0000   1.0000   1.0000   1.0000   1.0000
     1.0000   1.0000   1.0000   1.0000   1.0000   1.0000   1.0000   1.0000
     1.0000   1.0000   1.0000   1.0000   1.0000   1.0000   1.0000   1.0000
     1.0000   1.0000   1.0000   1.0000   1.0000   1.0000   1.0000   1.0000
     0.0000   0.0000   0.0000   0.0000   0.0000   0.0000   0.0000   0.0000
     0.0000   0.0000   0.0000   0.0000

          k = 0.2480-0.3750 0.2040 ( 19124 PWs)   bands (ev):

  -102.2643 -91.5300 -64.6811 -64.6141 -60.9770 -59.4052 -59.1727 -52.0129
   -51.9650 -51.9320 -28.9989 -28.9331 -28.8925 -28.8459 -28.7930 -28.7427
    -7.8623  -7.6368  -7.3745  -7.1671  -6.6523  -6.4842  -6.2639  -6.1091
     1.1275   2.2447   2.4311   2.7723   2.8224   3.9133   4.1944   4.5445
     4.8432   5.0932   5.2366   5.3685   5.5706   5.7086   5.8581   6.2344
     6.4269   6.6467   6.9715   7.2647   7.5114   7.8404   8.0442   8.0754
     8.2635   8.5591   8.7535   8.8451   8.8868   9.1942   9.6086   9.7349
    12.4750  12.7612  13.0322  13.2175  13.8830  14.2543  15.0075  15.4701
    16.1876  16.4873  18.2577  18.5899

     occupation numbers 
     1.0000   1.0000   1.0000   1.0000   1.0000   1.0000   1.0000   1.0000
     1.0000   1.0000   1.0000   1.0000   1.0000   1.0000   1.0000   1.0000
     1.0000   1.0000   1.0000   1.0000   1.0000   1.0000   1.0000   1.0000
     1.0000   1.0000   1.0000   1.0000   1.0000   1.0000   1.0000   1.0000
     1.0000   1.0000   1.0000   1.0000   1.0000   1.0000   1.0000   1.0000
     1.0000   1.0000   1.0000   1.0000   1.0000   1.0000   1.0000   1.0000
     1.0000   1.0000   1.0000   1.0000   1.0000   1.0000   1.0000   1.0000
     0.0000   0.0000   0.0000   0.0000   0.0000   0.0000   0.0000   0.0000
     0.0000   0.0000   0.0000   0.0000

          k = 0.2466-0.3750 0.3465 ( 19136 PWs)   bands (ev):

  -102.2643 -91.5300 -64.6811 -64.6142 -60.9770 -59.4052 -59.1727 -52.0129
   -51.9650 -51.9320 -28.9972 -28.9401 -28.8876 -28.8527 -28.7812 -28.7475
    -7.8080  -7.5465  -7.4432  -7.2062  -6.6885  -6.3964  -6.3365  -6.1388
     1.1278   2.2569   2.4346   2.7510   2.8337   3.8310   4.3386   4.5102
     4.7202   4.9926   5.1947   5.2717   5.7038   5.7573   6.0851   6.3520
     6.5823   6.6167   6.9656   7.2315   7.4817   7.7384   7.7943   7.9181
     8.3207   8.4373   8.8102   8.8688   9.1345   9.3019   9.4539   9.9272
    12.3193  12.6499  13.1502  13.2650  13.7827  14.2969  15.1216  15.3455
    16.1195  16.3366  18.2126  19.1383

     occupation numbers 
     1.0000   1.0000   1.0000   1.0000   1.0000   1.0000   1.0000   1.0000
     1.0000   1.0000   1.0000   1.0000   1.0000   1.0000   1.0000   1.0000
     1.0000   1.0000   1.0000   1.0000   1.0000   1.0000   1.0000   1.0000
     1.0000   1.0000   1.0000   1.0000   1.0000   1.0000   1.0000   1.0000
     1.0000   1.0000   1.0000   1.0000   1.0000   1.0000   1.0000   1.0000
     1.0000   1.0000   1.0000   1.0000   1.0000   1.0000   1.0000   1.0000
     1.0000   1.0000   1.0000   1.0000   1.0000   1.0000   1.0000   1.0000
     0.0000   0.0000   0.0000   0.0000   0.0000   0.0000   0.0000   0.0000
     0.0000   0.0000   0.0000   0.0000

          k = 0.2535-0.3750-0.3657 ( 19116 PWs)   bands (ev):

  -102.2643 -91.5301 -64.6811 -64.6141 -60.9770 -59.4052 -59.1727 -52.0128
   -51.9650 -51.9320 -28.9969 -28.9406 -28.8878 -28.8526 -28.7809 -28.7474
    -7.7950  -7.5856  -7.4006  -7.1662  -6.7840  -6.4219  -6.2415  -6.1696
     1.1325   2.2622   2.4384   2.7305   2.8219   3.7600   4.2505   4.5895
     4.7084   5.0400   5.2473   5.3032   5.8103   5.9018   6.1127   6.2157
     6.3301   6.6248   7.1211   7.3229   7.4470   7.5110   7.7477   8.0308
     8.2978   8.3368   8.7717   8.8846   9.2230   9.3827   9.5029   9.9339
    12.3781  12.6592  13.0734  13.3796  13.8194  14.3611  15.1608  15.2818
    15.9067  16.1195  18.0236  19.2498

     occupation numbers 
     1.0000   1.0000   1.0000   1.0000   1.0000   1.0000   1.0000   1.0000
     1.0000   1.0000   1.0000   1.0000   1.0000   1.0000   1.0000   1.0000
     1.0000   1.0000   1.0000   1.0000   1.0000   1.0000   1.0000   1.0000
     1.0000   1.0000   1.0000   1.0000   1.0000   1.0000   1.0000   1.0000
     1.0000   1.0000   1.0000   1.0000   1.0000   1.0000   1.0000   1.0000
     1.0000   1.0000   1.0000   1.0000   1.0000   1.0000   1.0000   1.0000
     1.0000   1.0000   1.0000   1.0000   1.0000   1.0000   1.0000   1.0000
     0.0000   0.0000   0.0000   0.0000   0.0000   0.0000   0.0000   0.0000
     0.0000   0.0000   0.0000   0.0000

          k = 0.2521-0.3750-0.2233 ( 19128 PWs)   bands (ev):

  -102.2643 -91.5300 -64.6812 -64.6138 -60.9770 -59.4052 -59.1727 -52.0129
   -51.9650 -51.9320 -28.9985 -28.9342 -28.8929 -28.8455 -28.7927 -28.7425
    -7.8314  -7.6722  -7.3399  -7.1042  -6.8142  -6.4496  -6.2001  -6.1398
     1.1382   2.2537   2.4373   2.7227   2.8131   3.7273   4.1771   4.7221
     4.7997   5.0153   5.3229   5.4546   5.5726   5.9160   5.9815   6.2031
     6.3754   6.5963   6.8875   7.2569   7.4996   7.5826   7.8343   8.2448
     8.3418   8.4931   8.5862   8.8307   9.1225   9.4228   9.5217   9.8330
    12.5689  12.7790  13.0103  13.3309  13.9603  14.4002  15.0769  15.3854
    15.8076  15.9221  17.8688  18.9690

     occupation numbers 
     1.0000   1.0000   1.0000   1.0000   1.0000   1.0000   1.0000   1.0000
     1.0000   1.0000   1.0000   1.0000   1.0000   1.0000   1.0000   1.0000
     1.0000   1.0000   1.0000   1.0000   1.0000   1.0000   1.0000   1.0000
     1.0000   1.0000   1.0000   1.0000   1.0000   1.0000   1.0000   1.0000
     1.0000   1.0000   1.0000   1.0000   1.0000   1.0000   1.0000   1.0000
     1.0000   1.0000   1.0000   1.0000   1.0000   1.0000   1.0000   1.0000
     1.0000   1.0000   1.0000   1.0000   1.0000   1.0000   1.0000   1.0000
     0.0000   0.0000   0.0000   0.0000   0.0000   0.0000   0.0000   0.0000
     0.0000   0.0000   0.0000   0.0000

          k = 0.2507-0.3750-0.0808 ( 19114 PWs)   bands (ev):

  -102.2643 -91.5299 -64.6813 -64.6137 -60.9770 -59.4052 -59.1727 -52.0129
   -51.9650 -51.9320 -28.9998 -28.9268 -28.8980 -28.8373 -28.8047 -28.7396
    -7.8764  -7.7286  -7.2992  -7.1033  -6.7378  -6.5172  -6.1781  -6.0972
     1.1385   2.2366   2.4314   2.7169   2.8483   3.7503   4.1740   4.7142
     4.9047   5.0457   5.2253   5.4729   5.6096   5.7821   5.9291   6.1864
     6.3522   6.6489   6.9061   7.1203   7.5268   7.6546   7.9513   8.1288
     8.3335   8.3964   8.7509   8.9924   9.0895   9.2573   9.5096   9.8100
    12.6733  12.8393  12.9898  13.2381  14.0613  14.3154  15.0172  15.4348
    15.8655  16.0971  17.8501  18.6312

     occupation numbers 
     1.0000   1.0000   1.0000   1.0000   1.0000   1.0000   1.0000   1.0000
     1.0000   1.0000   1.0000   1.0000   1.0000   1.0000   1.0000   1.0000
     1.0000   1.0000   1.0000   1.0000   1.0000   1.0000   1.0000   1.0000
     1.0000   1.0000   1.0000   1.0000   1.0000   1.0000   1.0000   1.0000
     1.0000   1.0000   1.0000   1.0000   1.0000   1.0000   1.0000   1.0000
     1.0000   1.0000   1.0000   1.0000   1.0000   1.0000   1.0000   1.0000
     1.0000   1.0000   1.0000   1.0000   1.0000   1.0000   1.0000   1.0000
     0.0000   0.0000   0.0000   0.0000   0.0000   0.0000   0.0000   0.0000
     0.0000   0.0000   0.0000   0.0000

          k = 0.2494-0.2278 0.0581 ( 19119 PWs)   bands (ev):

  -102.2643 -91.5299 -64.6810 -64.6139 -60.9770 -59.4052 -59.1727 -52.0129
   -51.9650 -51.9320 -29.0005 -28.9267 -28.8982 -28.8367 -28.8045 -28.7393
    -8.1285  -7.5449  -7.2568  -7.0837  -6.6874  -6.4599  -6.1883  -6.1593
     1.1721   2.2532   2.3856   2.7085   2.8616   3.8367   4.1454   4.3545
     4.7957   5.0326   5.2254   5.4379   5.6633   5.7669   5.9231   6.1164
     6.3080   6.5796   6.8934   7.1913   7.5911   7.6975   8.0079   8.1405
     8.4359   8.5256   8.7644   9.0361   9.1768   9.2853   9.7377   9.9509
    12.5786  12.8090  12.9760  13.2191  13.8908  14.2820  15.0207  15.4773
    15.9950  16.3291  17.9303  18.6377

     occupation numbers 
     1.0000   1.0000   1.0000   1.0000   1.0000   1.0000   1.0000   1.0000
     1.0000   1.0000   1.0000   1.0000   1.0000   1.0000   1.0000   1.0000
     1.0000   1.0000   1.0000   1.0000   1.0000   1.0000   1.0000   1.0000
     1.0000   1.0000   1.0000   1.0000   1.0000   1.0000   1.0000   1.0000
     1.0000   1.0000   1.0000   1.0000   1.0000   1.0000   1.0000   1.0000
     1.0000   1.0000   1.0000   1.0000   1.0000   1.0000   1.0000   1.0000
     1.0000   1.0000   1.0000   1.0000   1.0000   1.0000   1.0000   1.0000
     0.0000   0.0000   0.0000   0.0000   0.0000   0.0000   0.0000   0.0000
     0.0000   0.0000   0.0000   0.0000

          k = 0.2480-0.2278 0.2005 ( 19110 PWs)   bands (ev):

  -102.2643 -91.5300 -64.6809 -64.6142 -60.9770 -59.4052 -59.1727 -52.0129
   -51.9650 -51.9320 -28.9990 -28.9323 -28.8929 -28.8455 -28.7934 -28.7429
    -8.0761  -7.4816  -7.3146  -7.0997  -6.7228  -6.4813  -6.1983  -6.1492
     1.1693   2.2737   2.3834   2.7385   2.8174   3.9071   4.1660   4.3275
     4.8216   4.9960   5.2276   5.4132   5.5434   5.7241   5.8677   6.1100
     6.3899   6.6862   7.0835   7.2566   7.5524   7.7641   7.9533   8.0298
     8.2419   8.5356   8.7505   9.0554   9.1396   9.3747   9.8188   9.8832
    12.4500  12.8108  13.0343  13.2045  13.8780  14.2079  15.0361  15.4593
    16.1403  16.4836  18.1145  18.6680

     occupation numbers 
     1.0000   1.0000   1.0000   1.0000   1.0000   1.0000   1.0000   1.0000
     1.0000   1.0000   1.0000   1.0000   1.0000   1.0000   1.0000   1.0000
     1.0000   1.0000   1.0000   1.0000   1.0000   1.0000   1.0000   1.0000
     1.0000   1.0000   1.0000   1.0000   1.0000   1.0000   1.0000   1.0000
     1.0000   1.0000   1.0000   1.0000   1.0000   1.0000   1.0000   1.0000
     1.0000   1.0000   1.0000   1.0000   1.0000   1.0000   1.0000   1.0000
     1.0000   1.0000   1.0000   1.0000   1.0000   1.0000   1.0000   1.0000
     0.0000   0.0000   0.0000   0.0000   0.0000   0.0000   0.0000   0.0000
     0.0000   0.0000   0.0000   0.0000

          k = 0.2466-0.2278 0.3430 ( 19097 PWs)   bands (ev):

  -102.2643 -91.5300 -64.6808 -64.6143 -60.9770 -59.4052 -59.1727 -52.0129
   -51.9650 -51.9320 -28.9969 -28.9386 -28.8876 -28.8528 -28.7822 -28.7480
    -7.9483  -7.4979  -7.3887  -7.1368  -6.7655  -6.4364  -6.2084  -6.1527
     1.1758   2.2885   2.3836   2.7171   2.8098   3.8647   4.2528   4.3662
     4.7343   4.9023   5.1282   5.3305   5.6219   5.7631   5.9547   6.3670
     6.4963   6.7205   6.9474   7.1763   7.4313   7.7030   7.8389   7.9727
     8.2507   8.6075   8.8405   9.0206   9.3259   9.4741   9.6800  10.0149
    12.3394  12.6915  13.1207  13.2490  13.8448  14.2278  15.1052  15.3318
    16.0544  16.3479  18.4857  18.7879

     occupation numbers 
     1.0000   1.0000   1.0000   1.0000   1.0000   1.0000   1.0000   1.0000
     1.0000   1.0000   1.0000   1.0000   1.0000   1.0000   1.0000   1.0000
     1.0000   1.0000   1.0000   1.0000   1.0000   1.0000   1.0000   1.0000
     1.0000   1.0000   1.0000   1.0000   1.0000   1.0000   1.0000   1.0000
     1.0000   1.0000   1.0000   1.0000   1.0000   1.0000   1.0000   1.0000
     1.0000   1.0000   1.0000   1.0000   1.0000   1.0000   1.0000   1.0000
     1.0000   1.0000   1.0000   1.0000   1.0000   1.0000   1.0000   1.0000
     0.0000   0.0000   0.0000   0.0000   0.0000   0.0000   0.0000   0.0000
     0.0000   0.0000   0.0000   0.0000

          k = 0.2535-0.2277-0.3692 ( 19132 PWs)   bands (ev):

  -102.2643 -91.5300 -64.6809 -64.6141 -60.9770 -59.4052 -59.1727 -52.0129
   -51.9650 -51.9320 -28.9964 -28.9398 -28.8879 -28.8525 -28.7817 -28.7479
    -7.8192  -7.6690  -7.3914  -7.1284  -6.7642  -6.3835  -6.2047  -6.1707
     1.1835   2.2847   2.3883   2.7007   2.8016   3.8057   4.2271   4.4762
     4.7126   4.8104   5.1355   5.3595   5.6275   5.8492   5.9864   6.2720
     6.4442   6.6674   7.0056   7.2546   7.4660   7.6433   7.7279   8.0388
     8.3326   8.5979   8.8197   9.0650   9.3471   9.5136   9.7014  10.0092
    12.4092  12.6843  13.0090  13.3680  13.8388  14.3106  15.1461  15.2100
    15.8647  16.1030  18.2702  19.2434

     occupation numbers 
     1.0000   1.0000   1.0000   1.0000   1.0000   1.0000   1.0000   1.0000
     1.0000   1.0000   1.0000   1.0000   1.0000   1.0000   1.0000   1.0000
     1.0000   1.0000   1.0000   1.0000   1.0000   1.0000   1.0000   1.0000
     1.0000   1.0000   1.0000   1.0000   1.0000   1.0000   1.0000   1.0000
     1.0000   1.0000   1.0000   1.0000   1.0000   1.0000   1.0000   1.0000
     1.0000   1.0000   1.0000   1.0000   1.0000   1.0000   1.0000   1.0000
     1.0000   1.0000   1.0000   1.0000   1.0000   1.0000   1.0000   1.0000
     0.0000   0.0000   0.0000   0.0000   0.0000   0.0000   0.0000   0.0000
     0.0000   0.0000   0.0000   0.0000

          k = 0.2522-0.2278-0.2268 ( 19115 PWs)   bands (ev):

  -102.2643 -91.5300 -64.6810 -64.6139 -60.9770 -59.4052 -59.1727 -52.0129
   -51.9650 -51.9320 -28.9983 -28.9346 -28.8933 -28.8446 -28.7928 -28.7425
    -7.9252  -7.6715  -7.3521  -7.1046  -6.7079  -6.3702  -6.2129  -6.1725
     1.1868   2.2672   2.3938   2.7035   2.7952   3.7810   4.1739   4.5663
     4.7252   4.8236   5.2039   5.3900   5.4856   5.8010   5.9555   6.3047
     6.3382   6.7228   7.0112   7.1332   7.5714   7.6949   7.7830   8.2772
     8.3917   8.5143   8.7765   8.9989   9.2723   9.4794   9.6951   9.9644
    12.5723  12.8326  12.9069  13.3133  13.8857  14.3876  15.0577  15.3078
    15.7755  15.8913  18.0539  19.0562

     occupation numbers 
     1.0000   1.0000   1.0000   1.0000   1.0000   1.0000   1.0000   1.0000
     1.0000   1.0000   1.0000   1.0000   1.0000   1.0000   1.0000   1.0000
     1.0000   1.0000   1.0000   1.0000   1.0000   1.0000   1.0000   1.0000
     1.0000   1.0000   1.0000   1.0000   1.0000   1.0000   1.0000   1.0000
     1.0000   1.0000   1.0000   1.0000   1.0000   1.0000   1.0000   1.0000
     1.0000   1.0000   1.0000   1.0000   1.0000   1.0000   1.0000   1.0000
     1.0000   1.0000   1.0000   1.0000   1.0000   1.0000   1.0000   1.0000
     0.0000   0.0000   0.0000   0.0000   0.0000   0.0000   0.0000   0.0000
     0.0000   0.0000   0.0000   0.0000

          k = 0.2508-0.2278-0.0843 ( 19118 PWs)   bands (ev):

  -102.2643 -91.5299 -64.6811 -64.6137 -60.9770 -59.4052 -59.1727 -52.0129
   -51.9650 -51.9320 -29.0002 -28.9280 -28.8984 -28.8360 -28.8044 -28.7391
    -8.0753  -7.6089  -7.2814  -7.0944  -6.6668  -6.4114  -6.1933  -6.1741
     1.1820   2.2507   2.3910   2.6926   2.8447   3.7821   4.1608   4.4421
     4.7181   5.0536   5.1341   5.4197   5.6569   5.7703   5.9786   6.1795
     6.2935   6.6029   6.8965   7.3015   7.4772   7.6724   7.8546   8.2421
     8.4530   8.6265   8.7450   9.0376   9.2198   9.3674   9.6468   9.9952
    12.6263  12.8236  12.9502  13.2402  13.9048  14.3744  15.0400  15.4121
    15.7833  16.0243  17.9774  18.7549

     occupation numbers 
     1.0000   1.0000   1.0000   1.0000   1.0000   1.0000   1.0000   1.0000
     1.0000   1.0000   1.0000   1.0000   1.0000   1.0000   1.0000   1.0000
     1.0000   1.0000   1.0000   1.0000   1.0000   1.0000   1.0000   1.0000
     1.0000   1.0000   1.0000   1.0000   1.0000   1.0000   1.0000   1.0000
     1.0000   1.0000   1.0000   1.0000   1.0000   1.0000   1.0000   1.0000
     1.0000   1.0000   1.0000   1.0000   1.0000   1.0000   1.0000   1.0000
     1.0000   1.0000   1.0000   1.0000   1.0000   1.0000   1.0000   1.0000
     0.0000   0.0000   0.0000   0.0000   0.0000   0.0000   0.0000   0.0000
     0.0000   0.0000   0.0000   0.0000

          k = 0.2495-0.0806 0.0546 ( 19115 PWs)   bands (ev):

  -102.2643 -91.5299 -64.6808 -64.6139 -60.9770 -59.4052 -59.1727 -52.0129
   -51.9650 -51.9320 -29.0006 -28.9278 -28.8988 -28.8355 -28.8041 -28.7388
    -8.2879  -7.4739  -7.1951  -7.0507  -6.6249  -6.4154  -6.2299  -6.1893
     1.1420   2.2303   2.3627   2.7408   2.8619   3.6782   4.1355   4.2798
     4.7704   4.9804   5.2198   5.4778   5.6805   5.7695   6.0247   6.0933
     6.2288   6.5545   6.8393   7.2207   7.5061   7.6007   8.0361   8.1571
     8.4462   8.5890   8.7934   9.1051   9.3645   9.5103   9.9690  10.1249
    12.5660  12.7149  13.0055  13.2100  13.7554  14.3004  15.0770  15.4881
    15.9412  16.2213  17.7742  18.8373

     occupation numbers 
     1.0000   1.0000   1.0000   1.0000   1.0000   1.0000   1.0000   1.0000
     1.0000   1.0000   1.0000   1.0000   1.0000   1.0000   1.0000   1.0000
     1.0000   1.0000   1.0000   1.0000   1.0000   1.0000   1.0000   1.0000
     1.0000   1.0000   1.0000   1.0000   1.0000   1.0000   1.0000   1.0000
     1.0000   1.0000   1.0000   1.0000   1.0000   1.0000   1.0000   1.0000
     1.0000   1.0000   1.0000   1.0000   1.0000   1.0000   1.0000   1.0000
     1.0000   1.0000   1.0000   1.0000   1.0000   1.0000   1.0000   1.0000
     0.0000   0.0000   0.0000   0.0000   0.0000   0.0000   0.0000   0.0000
     0.0000   0.0000   0.0000   0.0000

          k = 0.2481-0.0806 0.1971 ( 19106 PWs)   bands (ev):

  -102.2643 -91.5299 -64.6807 -64.6142 -60.9770 -59.4052 -59.1727 -52.0129
   -51.9650 -51.9320 -28.9986 -28.9326 -28.8934 -28.8448 -28.7934 -28.7429
    -8.2255  -7.4461  -7.2363  -7.0133  -6.7098  -6.5210  -6.1880  -6.1429
     1.1398   2.2489   2.3592   2.7643   2.8282   3.7488   4.1096   4.2914
     4.8045   4.9424   5.2959   5.4561   5.5586   5.7252   5.9497   6.0505
     6.2446   6.7556   7.0428   7.2239   7.5061   7.6173   7.8656   8.0543
     8.3695   8.4734   8.7786   9.2218   9.3397   9.6274   9.9919  10.0667
    12.4894  12.8401  12.9718  13.1774  13.8278  14.1752  15.0603  15.4671
    16.1121  16.4693  17.7395  18.9823

     occupation numbers 
     1.0000   1.0000   1.0000   1.0000   1.0000   1.0000   1.0000   1.0000
     1.0000   1.0000   1.0000   1.0000   1.0000   1.0000   1.0000   1.0000
     1.0000   1.0000   1.0000   1.0000   1.0000   1.0000   1.0000   1.0000
     1.0000   1.0000   1.0000   1.0000   1.0000   1.0000   1.0000   1.0000
     1.0000   1.0000   1.0000   1.0000   1.0000   1.0000   1.0000   1.0000
     1.0000   1.0000   1.0000   1.0000   1.0000   1.0000   1.0000   1.0000
     1.0000   1.0000   1.0000   1.0000   1.0000   1.0000   1.0000   1.0000
     0.0000   0.0000   0.0000   0.0000   0.0000   0.0000   0.0000   0.0000
     0.0000   0.0000   0.0000   0.0000

          k = 0.2467-0.0806 0.3395 ( 19113 PWs)   bands (ev):

  -102.2643 -91.5299 -64.6806 -64.6143 -60.9770 -59.4052 -59.1727 -52.0129
   -51.9650 -51.9320 -28.9961 -28.9378 -28.8877 -28.8528 -28.7829 -28.7485
    -8.0707  -7.5401  -7.2901  -7.0501  -6.7564  -6.5095  -6.1775  -6.0969
     1.1529   2.2483   2.3571   2.7426   2.8167   3.7760   4.1687   4.3118
     4.6888   4.9836   5.1037   5.3893   5.6534   5.7975   5.9347   6.1336
     6.3987   6.8207   6.9460   7.1339   7.2617   7.5454   7.8878   8.0429
     8.4664   8.5886   8.8160   9.2440   9.5113   9.7043   9.8619  10.1168
    12.4170  12.7121  13.0611  13.1860  13.9471  14.1206  15.0750  15.3388
    15.9961  16.3245  18.3741  18.9907

     occupation numbers 
     1.0000   1.0000   1.0000   1.0000   1.0000   1.0000   1.0000   1.0000
     1.0000   1.0000   1.0000   1.0000   1.0000   1.0000   1.0000   1.0000
     1.0000   1.0000   1.0000   1.0000   1.0000   1.0000   1.0000   1.0000
     1.0000   1.0000   1.0000   1.0000   1.0000   1.0000   1.0000   1.0000
     1.0000   1.0000   1.0000   1.0000   1.0000   1.0000   1.0000   1.0000
     1.0000   1.0000   1.0000   1.0000   1.0000   1.0000   1.0000   1.0000
     1.0000   1.0000   1.0000   1.0000   1.0000   1.0000   1.0000   1.0000
     0.0000   0.0000   0.0000   0.0000   0.0000   0.0000   0.0000   0.0000
     0.0000   0.0000   0.0000   0.0000

          k = 0.2536-0.0805-0.3727 ( 19122 PWs)   bands (ev):

  -102.2643 -91.5300 -64.6807 -64.6142 -60.9770 -59.4052 -59.1727 -52.0129
   -51.9650 -51.9320 -28.9959 -28.9385 -28.8879 -28.8526 -28.7827 -28.7484
    -7.9008  -7.7517  -7.3117  -7.0840  -6.7106  -6.4456  -6.2024  -6.0774
     1.1668   2.2273   2.3589   2.7300   2.8087   3.7303   4.2985   4.3797
     4.5843   4.9284   5.0316   5.3913   5.6368   5.7212   5.9359   6.1501
     6.4267   6.6620   6.9545   7.2450   7.4286   7.6610   7.7937   8.0260
     8.4167   8.6858   8.8569   9.3392   9.5340   9.6682   9.8639  10.0920
    12.4769  12.6653  12.9673  13.3089  13.8871  14.2538  15.1108  15.1846
    15.7898  16.0461  18.5969  19.1985

     occupation numbers 
     1.0000   1.0000   1.0000   1.0000   1.0000   1.0000   1.0000   1.0000
     1.0000   1.0000   1.0000   1.0000   1.0000   1.0000   1.0000   1.0000
     1.0000   1.0000   1.0000   1.0000   1.0000   1.0000   1.0000   1.0000
     1.0000   1.0000   1.0000   1.0000   1.0000   1.0000   1.0000   1.0000
     1.0000   1.0000   1.0000   1.0000   1.0000   1.0000   1.0000   1.0000
     1.0000   1.0000   1.0000   1.0000   1.0000   1.0000   1.0000   1.0000
     1.0000   1.0000   1.0000   1.0000   1.0000   1.0000   1.0000   1.0000
     0.0000   0.0000   0.0000   0.0000   0.0000   0.0000   0.0000   0.0000
     0.0000   0.0000   0.0000   0.0000

          k = 0.2522-0.0805-0.2302 ( 19109 PWs)   bands (ev):

  -102.2643 -91.5300 -64.6808 -64.6139 -60.9770 -59.4052 -59.1727 -52.0129
   -51.9650 -51.9320 -28.9982 -28.9339 -28.8938 -28.8441 -28.7932 -28.7427
    -8.0533  -7.6797  -7.2869  -7.0920  -6.6134  -6.3858  -6.2471  -6.1108
     1.1686   2.2143   2.3685   2.7488   2.7822   3.6988   4.2860   4.4382
     4.5970   4.8914   5.1532   5.2687   5.4878   5.7540   5.8340   6.1480
     6.4855   6.6974   6.9989   7.2581   7.5420   7.6347   7.9488   8.2192
     8.3141   8.6369   8.8362   9.2824   9.4385   9.6022   9.8546  10.1047
    12.5819  12.7593  12.9295  13.2800  13.8178  14.3711  15.0468  15.2517
    15.7320  15.8202  18.1946  19.1542

     occupation numbers 
     1.0000   1.0000   1.0000   1.0000   1.0000   1.0000   1.0000   1.0000
     1.0000   1.0000   1.0000   1.0000   1.0000   1.0000   1.0000   1.0000
     1.0000   1.0000   1.0000   1.0000   1.0000   1.0000   1.0000   1.0000
     1.0000   1.0000   1.0000   1.0000   1.0000   1.0000   1.0000   1.0000
     1.0000   1.0000   1.0000   1.0000   1.0000   1.0000   1.0000   1.0000
     1.0000   1.0000   1.0000   1.0000   1.0000   1.0000   1.0000   1.0000
     1.0000   1.0000   1.0000   1.0000   1.0000   1.0000   1.0000   1.0000
     0.0000   0.0000   0.0000   0.0000   0.0000   0.0000   0.0000   0.0000
     0.0000   0.0000   0.0000   0.0000

          k = 0.2508-0.0806-0.0878 ( 19128 PWs)   bands (ev):

  -102.2643 -91.5300 -64.6809 -64.6138 -60.9770 -59.4052 -59.1727 -52.0129
   -51.9650 -51.9320 -29.0004 -28.9285 -28.8990 -28.8349 -28.8042 -28.7387
    -8.2281  -7.5570  -7.2214  -7.0913  -6.5668  -6.3402  -6.2738  -6.1816
     1.1569   2.2170   2.3696   2.7297   2.8321   3.6719   4.2088   4.3074
     4.6979   4.9661   5.1730   5.3717   5.6058   5.7410   5.9847   6.1809
     6.3156   6.5351   6.9787   7.2181   7.4288   7.5560   8.1456   8.2648
     8.4345   8.6361   8.7937   9.1502   9.3629   9.5427   9.8720  10.1579
    12.6025  12.7092  12.9828  13.2357  13.7728  14.3899  15.0546  15.4380
    15.6934  15.9223  18.0197  18.8588

     occupation numbers 
     1.0000   1.0000   1.0000   1.0000   1.0000   1.0000   1.0000   1.0000
     1.0000   1.0000   1.0000   1.0000   1.0000   1.0000   1.0000   1.0000
     1.0000   1.0000   1.0000   1.0000   1.0000   1.0000   1.0000   1.0000
     1.0000   1.0000   1.0000   1.0000   1.0000   1.0000   1.0000   1.0000
     1.0000   1.0000   1.0000   1.0000   1.0000   1.0000   1.0000   1.0000
     1.0000   1.0000   1.0000   1.0000   1.0000   1.0000   1.0000   1.0000
     1.0000   1.0000   1.0000   1.0000   1.0000   1.0000   1.0000   1.0000
     0.0000   0.0000   0.0000   0.0000   0.0000   0.0000   0.0000   0.0000
     0.0000   0.0000   0.0000   0.0000

          k = 0.4163 0.0620 0.0389 ( 19125 PWs)   bands (ev):

  -102.2643 -91.5299 -64.6808 -64.6138 -60.9770 -59.4052 -59.1727 -52.0129
   -51.9650 -51.9320 -29.0007 -28.9288 -28.8996 -28.8353 -28.8046 -28.7389
    -8.0181  -7.5395  -7.3449  -7.1275  -6.6084  -6.4126  -6.2968  -6.1748
     1.1601   2.2303   2.4073   2.8268   2.8846   3.9428   4.1530   4.2752
     4.6547   4.9522   5.0662   5.4263   5.6728   5.7640   5.8881   6.0350
     6.1208   6.5203   6.8448   7.2321   7.5250   7.7453   7.9324   8.1426
     8.4747   8.6381   8.7687   9.2113   9.4653   9.6325   9.9223  10.2336
    12.5323  12.6938  13.1123  13.1670  13.6301  14.3619  15.2024  15.3363
    15.9401  16.5488  18.2007  18.6592

     occupation numbers 
     1.0000   1.0000   1.0000   1.0000   1.0000   1.0000   1.0000   1.0000
     1.0000   1.0000   1.0000   1.0000   1.0000   1.0000   1.0000   1.0000
     1.0000   1.0000   1.0000   1.0000   1.0000   1.0000   1.0000   1.0000
     1.0000   1.0000   1.0000   1.0000   1.0000   1.0000   1.0000   1.0000
     1.0000   1.0000   1.0000   1.0000   1.0000   1.0000   1.0000   1.0000
     1.0000   1.0000   1.0000   1.0000   1.0000   1.0000   1.0000   1.0000
     1.0000   1.0000   1.0000   1.0000   1.0000   1.0000   1.0000   1.0000
     0.0000   0.0000   0.0000   0.0000   0.0000   0.0000   0.0000   0.0000
     0.0000   0.0000   0.0000   0.0000

          k = 0.4149 0.0620 0.1813 ( 19137 PWs)   bands (ev):

  -102.2643 -91.5299 -64.6806 -64.6143 -60.9770 -59.4052 -59.1727 -52.0129
   -51.9650 -51.9320 -28.9985 -28.9341 -28.8941 -28.8448 -28.7934 -28.7430
    -7.9939  -7.5237  -7.2622  -7.1469  -6.6898  -6.4753  -6.3182  -6.1258
     1.1695   2.2519   2.4069   2.8229   2.9231   3.9664   4.1693   4.2013
     4.7320   4.8921   5.1582   5.2908   5.3651   5.6929   5.9071   6.0496
     6.2746   6.5227   7.0139   7.3038   7.5894   7.6245   7.8715   8.2161
     8.5290   8.6867   8.9362   9.0214   9.4378   9.6168  10.0126  10.1264
    12.4944  12.8280  13.0191  13.1571  13.7235  14.2384  15.2153  15.3502
    15.9256  16.3964  18.3898  18.8141

     occupation numbers 
     1.0000   1.0000   1.0000   1.0000   1.0000   1.0000   1.0000   1.0000
     1.0000   1.0000   1.0000   1.0000   1.0000   1.0000   1.0000   1.0000
     1.0000   1.0000   1.0000   1.0000   1.0000   1.0000   1.0000   1.0000
     1.0000   1.0000   1.0000   1.0000   1.0000   1.0000   1.0000   1.0000
     1.0000   1.0000   1.0000   1.0000   1.0000   1.0000   1.0000   1.0000
     1.0000   1.0000   1.0000   1.0000   1.0000   1.0000   1.0000   1.0000
     1.0000   1.0000   1.0000   1.0000   1.0000   1.0000   1.0000   1.0000
     0.0000   0.0000   0.0000   0.0000   0.0000   0.0000   0.0000   0.0000
     0.0000   0.0000   0.0000   0.0000

          k = 0.4136 0.0620 0.3238 ( 19120 PWs)   bands (ev):

  -102.2643 -91.5299 -64.6805 -64.6146 -60.9770 -59.4052 -59.1727 -52.0129
   -51.9650 -51.9320 -28.9962 -28.9387 -28.8881 -28.8532 -28.7829 -28.7487
    -7.9016  -7.5588  -7.2771  -7.1088  -6.7213  -6.6044  -6.2836  -6.0901
     1.1909   2.2530   2.4115   2.8357   2.9562   3.9898   4.1374   4.2006
     4.5976   4.7674   5.0653   5.1758   5.4540   5.7637   5.9345   6.2511
     6.4303   6.6496   7.0150   7.0977   7.2518   7.5086   8.0229   8.1839
     8.6208   8.7465   9.0866   9.2012   9.4049   9.6443  10.0029  10.0994
    12.4839  12.7380  13.0317  13.1406  13.9387  14.0861  15.1962  15.3351
    15.8365  16.0818  18.8908  19.0069

     occupation numbers 
     1.0000   1.0000   1.0000   1.0000   1.0000   1.0000   1.0000   1.0000
     1.0000   1.0000   1.0000   1.0000   1.0000   1.0000   1.0000   1.0000
     1.0000   1.0000   1.0000   1.0000   1.0000   1.0000   1.0000   1.0000
     1.0000   1.0000   1.0000   1.0000   1.0000   1.0000   1.0000   1.0000
     1.0000   1.0000   1.0000   1.0000   1.0000   1.0000   1.0000   1.0000
     1.0000   1.0000   1.0000   1.0000   1.0000   1.0000   1.0000   1.0000
     1.0000   1.0000   1.0000   1.0000   1.0000   1.0000   1.0000   1.0000
     0.0000   0.0000   0.0000   0.0000   0.0000   0.0000   0.0000   0.0000
     0.0000   0.0000   0.0000   0.0000

          k = 0.4205 0.0620-0.3884 ( 19116 PWs)   bands (ev):

  -102.2643 -91.5299 -64.6806 -64.6145 -60.9770 -59.4052 -59.1727 -52.0129
   -51.9650 -51.9320 -28.9964 -28.9382 -28.8881 -28.8534 -28.7832 -28.7487
    -7.8012  -7.6306  -7.3681  -7.0805  -6.7473  -6.5508  -6.2897  -6.0739
     1.2014   2.2314   2.4160   2.8400   2.9466   3.9295   4.1907   4.3659
     4.4965   4.6896   4.9695   5.1824   5.4528   5.7954   5.9106   6.2995
     6.5241   6.6578   6.8186   7.2125   7.3317   7.5247   7.9952   8.1680
     8.5086   8.8077   9.0885   9.2516   9.4131   9.6977   9.9545  10.1396
    12.4886  12.7245  12.9971  13.2298  13.8887  14.1675  15.1892  15.2762
    15.7770  15.9115  18.7892  19.1874

     occupation numbers 
     1.0000   1.0000   1.0000   1.0000   1.0000   1.0000   1.0000   1.0000
     1.0000   1.0000   1.0000   1.0000   1.0000   1.0000   1.0000   1.0000
     1.0000   1.0000   1.0000   1.0000   1.0000   1.0000   1.0000   1.0000
     1.0000   1.0000   1.0000   1.0000   1.0000   1.0000   1.0000   1.0000
     1.0000   1.0000   1.0000   1.0000   1.0000   1.0000   1.0000   1.0000
     1.0000   1.0000   1.0000   1.0000   1.0000   1.0000   1.0000   1.0000
     1.0000   1.0000   1.0000   1.0000   1.0000   1.0000   1.0000   1.0000
     0.0000   0.0000   0.0000   0.0000   0.0000   0.0000   0.0000   0.0000
     0.0000   0.0000   0.0000   0.0000

          k = 0.4191 0.0620-0.2460 ( 19107 PWs)   bands (ev):

  -102.2643 -91.5299 -64.6807 -64.6141 -60.9770 -59.4052 -59.1727 -52.0129
   -51.9650 -51.9320 -28.9989 -28.9330 -28.8941 -28.8450 -28.7939 -28.7431
    -7.8332  -7.6479  -7.4170  -7.0911  -6.6790  -6.4593  -6.3083  -6.0931
     1.1896   2.2124   2.4151   2.8350   2.9018   3.9013   4.2125   4.4773
     4.6536   4.7293   4.9052   5.2568   5.4003   5.6248   5.8840   6.1397
     6.4635   6.6629   6.8832   7.2931   7.6573   7.7827   7.8810   8.1614
     8.4093   8.5781   8.8589   9.2286   9.4332   9.7634   9.8893  10.2106
    12.5052  12.8430  12.9429  13.2906  13.7227  14.3237  15.1292  15.3729
    15.6535  16.0892  18.5421  18.9702

     occupation numbers 
     1.0000   1.0000   1.0000   1.0000   1.0000   1.0000   1.0000   1.0000
     1.0000   1.0000   1.0000   1.0000   1.0000   1.0000   1.0000   1.0000
     1.0000   1.0000   1.0000   1.0000   1.0000   1.0000   1.0000   1.0000
     1.0000   1.0000   1.0000   1.0000   1.0000   1.0000   1.0000   1.0000
     1.0000   1.0000   1.0000   1.0000   1.0000   1.0000   1.0000   1.0000
     1.0000   1.0000   1.0000   1.0000   1.0000   1.0000   1.0000   1.0000
     1.0000   1.0000   1.0000   1.0000   1.0000   1.0000   1.0000   1.0000
     0.0000   0.0000   0.0000   0.0000   0.0000   0.0000   0.0000   0.0000
     0.0000   0.0000   0.0000   0.0000

          k = 0.4177 0.0620-0.1035 ( 19129 PWs)   bands (ev):

  -102.2643 -91.5299 -64.6808 -64.6138 -60.9770 -59.4052 -59.1727 -52.0129
   -51.9650 -51.9320 -29.0009 -28.9282 -28.8997 -28.8353 -28.8049 -28.7390
    -7.9547  -7.5962  -7.3986  -7.1088  -6.5733  -6.4667  -6.2613  -6.1597
     1.1698   2.2126   2.4106   2.8360   2.8719   3.9180   4.1614   4.3870
     4.6173   4.9231   4.9743   5.4225   5.5504   5.7416   5.8346   6.1007
     6.2313   6.5656   6.8487   7.3961   7.5111   7.7178   7.9543   8.1761
     8.3526   8.5778   8.7343   9.2867   9.4636   9.7345   9.8512  10.2684
    12.5423  12.7075  13.0345  13.2499  13.6514  14.4007  15.1438  15.3735
    15.7813  16.3690  18.3928  18.7016

     occupation numbers 
     1.0000   1.0000   1.0000   1.0000   1.0000   1.0000   1.0000   1.0000
     1.0000   1.0000   1.0000   1.0000   1.0000   1.0000   1.0000   1.0000
     1.0000   1.0000   1.0000   1.0000   1.0000   1.0000   1.0000   1.0000
     1.0000   1.0000   1.0000   1.0000   1.0000   1.0000   1.0000   1.0000
     1.0000   1.0000   1.0000   1.0000   1.0000   1.0000   1.0000   1.0000
     1.0000   1.0000   1.0000   1.0000   1.0000   1.0000   1.0000   1.0000
     1.0000   1.0000   1.0000   1.0000   1.0000   1.0000   1.0000   1.0000
     0.0000   0.0000   0.0000   0.0000   0.0000   0.0000   0.0000   0.0000
     0.0000   0.0000   0.0000   0.0000

          k = 0.4164 0.2092 0.0354 ( 19145 PWs)   bands (ev):

  -102.2643 -91.5299 -64.6814 -64.6138 -60.9770 -59.4052 -59.1727 -52.0129
   -51.9650 -51.9320 -29.0000 -28.9281 -28.8990 -28.8363 -28.8048 -28.7393
    -7.9844  -7.4913  -7.4233  -7.1571  -6.5844  -6.3870  -6.3319  -6.1625
     1.0544   2.2035   2.4271   2.7879   2.8629   3.7463   4.1650   4.5654
     4.9274   4.9966   5.2183   5.4784   5.7012   5.8156   5.8968   6.1193
     6.2453   6.6429   6.9253   7.1194   7.4324   7.5055   7.9333   8.1528
     8.4649   8.5310   8.8458   9.0358   9.2414   9.3713   9.6273  10.1346
    12.5459  12.7383  12.9728  13.1779  13.7795  14.4161  15.1294  15.3418
    16.1148  16.5819  17.8793  18.6629

     occupation numbers 
     1.0000   1.0000   1.0000   1.0000   1.0000   1.0000   1.0000   1.0000
     1.0000   1.0000   1.0000   1.0000   1.0000   1.0000   1.0000   1.0000
     1.0000   1.0000   1.0000   1.0000   1.0000   1.0000   1.0000   1.0000
     1.0000   1.0000   1.0000   1.0000   1.0000   1.0000   1.0000   1.0000
     1.0000   1.0000   1.0000   1.0000   1.0000   1.0000   1.0000   1.0000
     1.0000   1.0000   1.0000   1.0000   1.0000   1.0000   1.0000   1.0000
     1.0000   1.0000   1.0000   1.0000   1.0000   1.0000   1.0000   1.0000
     0.0000   0.0000   0.0000   0.0000   0.0000   0.0000   0.0000   0.0000
     0.0000   0.0000   0.0000   0.0000

          k = 0.4150 0.2092 0.1779 ( 19157 PWs)   bands (ev):

  -102.2642 -91.5300 -64.6812 -64.6142 -60.9770 -59.4052 -59.1727 -52.0129
   -51.9650 -51.9320 -28.9982 -28.9347 -28.8936 -28.8452 -28.7929 -28.7428
    -7.9534  -7.4928  -7.3557  -7.2252  -6.5889  -6.3818  -6.3318  -6.2006
     1.0588   2.2181   2.4285   2.7861   2.8929   3.8415   4.1803   4.4582
     4.7947   5.0560   5.1886   5.2793   5.5049   5.7356   5.9910   6.1189
     6.3489   6.7359   6.9587   7.2857   7.5680   7.6915   7.9886   8.1995
     8.3152   8.5387   8.8323   8.9632   9.1560   9.3417   9.7797  10.0156
    12.4751  12.7486  12.9915  13.1469  13.8251  14.2553  15.1482  15.3885
    16.0718  16.3994  18.2837  18.7936

     occupation numbers 
     1.0000   1.0000   1.0000   1.0000   1.0000   1.0000   1.0000   1.0000
     1.0000   1.0000   1.0000   1.0000   1.0000   1.0000   1.0000   1.0000
     1.0000   1.0000   1.0000   1.0000   1.0000   1.0000   1.0000   1.0000
     1.0000   1.0000   1.0000   1.0000   1.0000   1.0000   1.0000   1.0000
     1.0000   1.0000   1.0000   1.0000   1.0000   1.0000   1.0000   1.0000
     1.0000   1.0000   1.0000   1.0000   1.0000   1.0000   1.0000   1.0000
     1.0000   1.0000   1.0000   1.0000   1.0000   1.0000   1.0000   1.0000
     0.0000   0.0000   0.0000   0.0000   0.0000   0.0000   0.0000   0.0000
     0.0000   0.0000   0.0000   0.0000

          k = 0.4136 0.2092 0.3203 ( 19148 PWs)   bands (ev):

  -102.2642 -91.5300 -64.6811 -64.6145 -60.9770 -59.4052 -59.1727 -52.0129
   -51.9650 -51.9320 -28.9963 -28.9399 -28.8881 -28.8530 -28.7818 -28.7482
    -7.8691  -7.5382  -7.3613  -7.2291  -6.5651  -6.4590  -6.3136  -6.2023
     1.0727   2.2052   2.4388   2.8120   2.9110   3.9338   4.1466   4.4224
     4.6131   4.9433   5.0617   5.2303   5.4419   5.7654   6.1006   6.3861
     6.4803   6.8392   6.9310   7.1671   7.4566   7.6750   8.0002   8.0819
     8.4779   8.5878   8.9278   9.0072   9.1423   9.3531   9.8552   9.9663
    12.4593  12.5859  13.0549  13.1495  13.9401  14.0997  15.1656  15.3768
    15.9782  16.0930  18.7612  18.9741

     occupation numbers 
     1.0000   1.0000   1.0000   1.0000   1.0000   1.0000   1.0000   1.0000
     1.0000   1.0000   1.0000   1.0000   1.0000   1.0000   1.0000   1.0000
     1.0000   1.0000   1.0000   1.0000   1.0000   1.0000   1.0000   1.0000
     1.0000   1.0000   1.0000   1.0000   1.0000   1.0000   1.0000   1.0000
     1.0000   1.0000   1.0000   1.0000   1.0000   1.0000   1.0000   1.0000
     1.0000   1.0000   1.0000   1.0000   1.0000   1.0000   1.0000   1.0000
     1.0000   1.0000   1.0000   1.0000   1.0000   1.0000   1.0000   1.0000
     0.0000   0.0000   0.0000   0.0000   0.0000   0.0000   0.0000   0.0000
     0.0000   0.0000   0.0000   0.0000

          k = 0.4205 0.2092-0.3919 ( 19143 PWs)   bands (ev):

  -102.2642 -91.5300 -64.6811 -64.6144 -60.9770 -59.4052 -59.1727 -52.0129
   -51.9650 -51.9320 -28.9967 -28.9388 -28.8880 -28.8534 -28.7823 -28.7483
    -7.8056  -7.5817  -7.4459  -7.1502  -6.6329  -6.4277  -6.3103  -6.1821
     1.0824   2.1799   2.4483   2.8247   2.8970   3.8590   4.1922   4.4882
     4.6082   4.8434   5.0918   5.2285   5.4482   5.8480   6.0606   6.4624
     6.5541   6.7031   6.8266   7.3281   7.4032   7.6496   7.9183   8.0705
     8.4105   8.6896   8.9295   9.0269   9.1746   9.4086   9.7815  10.0347
    12.4593  12.5973  13.0002  13.2726  13.8616  14.2103  15.1999  15.2998
    15.8649  15.9831  18.5011  19.2939

     occupation numbers 
     1.0000   1.0000   1.0000   1.0000   1.0000   1.0000   1.0000   1.0000
     1.0000   1.0000   1.0000   1.0000   1.0000   1.0000   1.0000   1.0000
     1.0000   1.0000   1.0000   1.0000   1.0000   1.0000   1.0000   1.0000
     1.0000   1.0000   1.0000   1.0000   1.0000   1.0000   1.0000   1.0000
     1.0000   1.0000   1.0000   1.0000   1.0000   1.0000   1.0000   1.0000
     1.0000   1.0000   1.0000   1.0000   1.0000   1.0000   1.0000   1.0000
     1.0000   1.0000   1.0000   1.0000   1.0000   1.0000   1.0000   1.0000
     0.0000   0.0000   0.0000   0.0000   0.0000   0.0000   0.0000   0.0000
     0.0000   0.0000   0.0000   0.0000

          k = 0.4191 0.2092-0.2494 ( 19114 PWs)   bands (ev):

  -102.2642 -91.5300 -64.6813 -64.6140 -60.9770 -59.4052 -59.1727 -52.0129
   -51.9650 -51.9320 -28.9988 -28.9324 -28.8936 -28.8458 -28.7938 -28.7430
    -7.8531  -7.5919  -7.4531  -7.1060  -6.6592  -6.4101  -6.2922  -6.1625
     1.0769   2.1706   2.4474   2.8061   2.8703   3.7645   4.1915   4.5752
     4.8295   4.9075   5.1372   5.2936   5.5477   5.7090   5.9939   6.3096
     6.4339   6.6599   6.8637   7.2278   7.5970   7.7270   7.8009   8.1601
     8.3447   8.6448   8.8561   8.9417   9.1739   9.4884   9.6632  10.1059
    12.5032  12.7524  12.9357  13.3253  13.7831  14.3837  15.1266  15.3624
    15.8007  16.1270  18.1389  19.1006

     occupation numbers 
     1.0000   1.0000   1.0000   1.0000   1.0000   1.0000   1.0000   1.0000
     1.0000   1.0000   1.0000   1.0000   1.0000   1.0000   1.0000   1.0000
     1.0000   1.0000   1.0000   1.0000   1.0000   1.0000   1.0000   1.0000
     1.0000   1.0000   1.0000   1.0000   1.0000   1.0000   1.0000   1.0000
     1.0000   1.0000   1.0000   1.0000   1.0000   1.0000   1.0000   1.0000
     1.0000   1.0000   1.0000   1.0000   1.0000   1.0000   1.0000   1.0000
     1.0000   1.0000   1.0000   1.0000   1.0000   1.0000   1.0000   1.0000
     0.0000   0.0000   0.0000   0.0000   0.0000   0.0000   0.0000   0.0000
     0.0000   0.0000   0.0000   0.0000

          k = 0.4178 0.2092-0.1070 ( 19114 PWs)   bands (ev):

  -102.2642 -91.5299 -64.6814 -64.6137 -60.9770 -59.4052 -59.1727 -52.0129
   -51.9650 -51.9320 -29.0003 -28.9268 -28.8992 -28.8366 -28.8052 -28.7395
    -7.9422  -7.5578  -7.4310  -7.1172  -6.6041  -6.4220  -6.2991  -6.1475
     1.0628   2.1819   2.4360   2.7975   2.8520   3.7211   4.1614   4.6306
     4.8495   5.0658   5.1712   5.4735   5.6204   5.8267   5.9587   6.1861
     6.2391   6.6091   6.9585   7.1808   7.3455   7.4937   7.8903   8.1244
     8.4883   8.6235   8.7788   9.0392   9.2354   9.4542   9.5787  10.1699
    12.5847  12.7343  12.9228  13.2587  13.7885  14.4701  15.1165  15.3223
    15.9802  16.4055  17.8884  18.7998

     occupation numbers 
     1.0000   1.0000   1.0000   1.0000   1.0000   1.0000   1.0000   1.0000
     1.0000   1.0000   1.0000   1.0000   1.0000   1.0000   1.0000   1.0000
     1.0000   1.0000   1.0000   1.0000   1.0000   1.0000   1.0000   1.0000
     1.0000   1.0000   1.0000   1.0000   1.0000   1.0000   1.0000   1.0000
     1.0000   1.0000   1.0000   1.0000   1.0000   1.0000   1.0000   1.0000
     1.0000   1.0000   1.0000   1.0000   1.0000   1.0000   1.0000   1.0000
     1.0000   1.0000   1.0000   1.0000   1.0000   1.0000   1.0000   1.0000
     0.0000   0.0000   0.0000   0.0000   0.0000   0.0000   0.0000   0.0000
     0.0000   0.0000   0.0000   0.0000

          k = 0.4165 0.3564 0.0319 ( 19142 PWs)   bands (ev):

  -102.2642 -91.5299 -64.6819 -64.6137 -60.9770 -59.4052 -59.1727 -52.0129
   -51.9650 -51.9320 -28.9995 -28.9268 -28.8984 -28.8375 -28.8051 -28.7398
    -7.9187  -7.5420  -7.3978  -7.1740  -6.6317  -6.4714  -6.2997  -6.0909
     0.9937   2.1761   2.4411   2.7571   2.8148   3.6016   4.2321   4.7465
     5.0230   5.2887   5.4111   5.4851   5.6916   5.8675   6.0083   6.1920
     6.3359   6.7341   6.9046   6.9971   7.4444   7.5611   7.7526   8.0175
     8.2965   8.5907   8.6728   8.8754   9.1046   9.1962   9.4048  10.0112
    12.5947  12.7625  12.8523  13.2136  13.9317  14.4272  15.0678  15.3634
    16.2225  16.6100  17.5982  18.7256

     occupation numbers 
     1.0000   1.0000   1.0000   1.0000   1.0000   1.0000   1.0000   1.0000
     1.0000   1.0000   1.0000   1.0000   1.0000   1.0000   1.0000   1.0000
     1.0000   1.0000   1.0000   1.0000   1.0000   1.0000   1.0000   1.0000
     1.0000   1.0000   1.0000   1.0000   1.0000   1.0000   1.0000   1.0000
     1.0000   1.0000   1.0000   1.0000   1.0000   1.0000   1.0000   1.0000
     1.0000   1.0000   1.0000   1.0000   1.0000   1.0000   1.0000   1.0000
     1.0000   1.0000   1.0000   1.0000   1.0000   1.0000   1.0000   1.0000
     0.0000   0.0000   0.0000   0.0000   0.0000   0.0000   0.0000   0.0000
     0.0000   0.0000   0.0000   0.0000

          k = 0.4151 0.3564 0.1744 ( 19148 PWs)   bands (ev):

  -102.2642 -91.5300 -64.6818 -64.6141 -60.9770 -59.4052 -59.1727 -52.0129
   -51.9650 -51.9320 -28.9982 -28.9342 -28.8931 -28.8459 -28.7929 -28.7428
    -7.8802  -7.5172  -7.4090  -7.2440  -6.5679  -6.4526  -6.2845  -6.1744
     0.9965   2.1823   2.4462   2.7672   2.8246   3.7355   4.1688   4.6119
     4.9281   5.2053   5.2450   5.3810   5.6805   5.8568   6.0223   6.2332
     6.4046   6.7866   6.9825   7.0845   7.6307   7.7851   7.9771   8.1729
     8.1975   8.4517   8.7301   8.7828   8.9798   9.0649   9.5716   9.8607
    12.4604  12.6622  12.9470  13.1983  13.9425  14.2393  15.1150  15.4084
    16.1589  16.4058  18.1445  18.7995

     occupation numbers 
     1.0000   1.0000   1.0000   1.0000   1.0000   1.0000   1.0000   1.0000
     1.0000   1.0000   1.0000   1.0000   1.0000   1.0000   1.0000   1.0000
     1.0000   1.0000   1.0000   1.0000   1.0000   1.0000   1.0000   1.0000
     1.0000   1.0000   1.0000   1.0000   1.0000   1.0000   1.0000   1.0000
     1.0000   1.0000   1.0000   1.0000   1.0000   1.0000   1.0000   1.0000
     1.0000   1.0000   1.0000   1.0000   1.0000   1.0000   1.0000   1.0000
     1.0000   1.0000   1.0000   1.0000   1.0000   1.0000   1.0000   1.0000
     0.0000   0.0000   0.0000   0.0000   0.0000   0.0000   0.0000   0.0000
     0.0000   0.0000   0.0000   0.0000

          k = 0.4137 0.3564 0.3168 ( 19168 PWs)   bands (ev):

  -102.2642 -91.5300 -64.6817 -64.6144 -60.9770 -59.4052 -59.1727 -52.0129
   -51.9650 -51.9320 -28.9967 -28.9405 -28.8880 -28.8530 -28.7810 -28.7478
    -7.8170  -7.5328  -7.3995  -7.3044  -6.5014  -6.3761  -6.3316  -6.2717
     1.0039   2.1755   2.4576   2.7803   2.8365   3.8450   4.1028   4.4734
     4.8313   5.0697   5.1922   5.3673   5.5182   5.8923   6.1693   6.3932
     6.5176   6.7785   7.0365   7.1845   7.6315   7.8178   7.9438   8.0899
     8.3664   8.5160   8.6774   8.8110   8.9079   9.0729   9.6578   9.8354
    12.3871  12.5083  12.9764  13.2386  13.9384  14.1199  15.1623  15.4037
    16.0396  16.1415  18.6690  18.9128

     occupation numbers 
     1.0000   1.0000   1.0000   1.0000   1.0000   1.0000   1.0000   1.0000
     1.0000   1.0000   1.0000   1.0000   1.0000   1.0000   1.0000   1.0000
     1.0000   1.0000   1.0000   1.0000   1.0000   1.0000   1.0000   1.0000
     1.0000   1.0000   1.0000   1.0000   1.0000   1.0000   1.0000   1.0000
     1.0000   1.0000   1.0000   1.0000   1.0000   1.0000   1.0000   1.0000
     1.0000   1.0000   1.0000   1.0000   1.0000   1.0000   1.0000   1.0000
     1.0000   1.0000   1.0000   1.0000   1.0000   1.0000   1.0000   1.0000
     0.0000   0.0000   0.0000   0.0000   0.0000   0.0000   0.0000   0.0000
     0.0000   0.0000   0.0000   0.0000

          k = 0.4206 0.3565-0.3954 ( 19169 PWs)   bands (ev):

  -102.2642 -91.5300 -64.6817 -64.6143 -60.9770 -59.4052 -59.1727 -52.0129
   -51.9650 -51.9320 -28.9969 -28.9400 -28.8880 -28.8532 -28.7813 -28.7478
    -7.8046  -7.5393  -7.4437  -7.2391  -6.5688  -6.3807  -6.3086  -6.2503
     1.0089   2.1652   2.4660   2.7729   2.8332   3.7404   4.1848   4.4619
     4.8613   5.0292   5.2100   5.4345   5.5458   5.9485   6.2422   6.3251
     6.5020   6.6532   7.0686   7.3057   7.5452   7.7353   7.8815   8.1138
     8.1890   8.5430   8.6896   8.8682   8.9886   9.1591   9.5847   9.9258
    12.4072  12.5103  12.9552  13.3358  13.8328  14.2432  15.1930  15.3600
    15.9264  16.0374  18.3295  19.3021

     occupation numbers 
     1.0000   1.0000   1.0000   1.0000   1.0000   1.0000   1.0000   1.0000
     1.0000   1.0000   1.0000   1.0000   1.0000   1.0000   1.0000   1.0000
     1.0000   1.0000   1.0000   1.0000   1.0000   1.0000   1.0000   1.0000
     1.0000   1.0000   1.0000   1.0000   1.0000   1.0000   1.0000   1.0000
     1.0000   1.0000   1.0000   1.0000   1.0000   1.0000   1.0000   1.0000
     1.0000   1.0000   1.0000   1.0000   1.0000   1.0000   1.0000   1.0000
     1.0000   1.0000   1.0000   1.0000   1.0000   1.0000   1.0000   1.0000
     0.0000   0.0000   0.0000   0.0000   0.0000   0.0000   0.0000   0.0000
     0.0000   0.0000   0.0000   0.0000

          k = 0.4192 0.3564-0.2529 ( 19142 PWs)   bands (ev):

  -102.2642 -91.5300 -64.6818 -64.6139 -60.9770 -59.4052 -59.1727 -52.0129
   -51.9650 -51.9320 -28.9986 -28.9330 -28.8931 -28.8462 -28.7933 -28.7429
    -7.8564  -7.5561  -7.4262  -7.1538  -6.6818  -6.4090  -6.2953  -6.1526
     1.0059   2.1643   2.4626   2.7508   2.8187   3.6130   4.2408   4.6046
     4.9667   5.1107   5.2993   5.4878   5.7484   5.9229   6.0762   6.2927
     6.4858   6.5585   6.8885   7.1332   7.5532   7.6713   7.8325   8.0713
     8.2933   8.4757   8.6539   8.8186   9.0759   9.2592   9.4762   9.9889
    12.5263  12.6105  12.9585  13.3466  13.8366  14.4216  15.1214  15.3875
    15.9245  16.1343  17.8726  19.1817

     occupation numbers 
     1.0000   1.0000   1.0000   1.0000   1.0000   1.0000   1.0000   1.0000
     1.0000   1.0000   1.0000   1.0000   1.0000   1.0000   1.0000   1.0000
     1.0000   1.0000   1.0000   1.0000   1.0000   1.0000   1.0000   1.0000
     1.0000   1.0000   1.0000   1.0000   1.0000   1.0000   1.0000   1.0000
     1.0000   1.0000   1.0000   1.0000   1.0000   1.0000   1.0000   1.0000
     1.0000   1.0000   1.0000   1.0000   1.0000   1.0000   1.0000   1.0000
     1.0000   1.0000   1.0000   1.0000   1.0000   1.0000   1.0000   1.0000
     0.0000   0.0000   0.0000   0.0000   0.0000   0.0000   0.0000   0.0000
     0.0000   0.0000   0.0000   0.0000

          k = 0.4178 0.3564-0.1105 ( 19125 PWs)   bands (ev):

  -102.2642 -91.5299 -64.6819 -64.6136 -60.9770 -59.4052 -59.1727 -52.0129
   -51.9650 -51.9320 -28.9997 -28.9261 -28.8986 -28.8376 -28.8053 -28.7399
    -7.9070  -7.5641  -7.3961  -7.1373  -6.6845  -6.4482  -6.3014  -6.0884
     0.9982   2.1685   2.4492   2.7509   2.8089   3.5587   4.2506   4.7487
     5.0454   5.2163   5.3961   5.6050   5.7392   5.8396   6.0642   6.2711
     6.3592   6.5499   6.9255   7.0246   7.3816   7.5106   7.7652   7.8991
     8.3610   8.5650   8.6952   8.9060   9.0639   9.3010   9.3798  10.0576
    12.6542  12.6839  12.8888  13.2652  13.9197  14.5052  15.0792  15.3268
    16.1006  16.4496  17.5388  18.8846

     occupation numbers 
     1.0000   1.0000   1.0000   1.0000   1.0000   1.0000   1.0000   1.0000
     1.0000   1.0000   1.0000   1.0000   1.0000   1.0000   1.0000   1.0000
     1.0000   1.0000   1.0000   1.0000   1.0000   1.0000   1.0000   1.0000
     1.0000   1.0000   1.0000   1.0000   1.0000   1.0000   1.0000   1.0000
     1.0000   1.0000   1.0000   1.0000   1.0000   1.0000   1.0000   1.0000
     1.0000   1.0000   1.0000   1.0000   1.0000   1.0000   1.0000   1.0000
     1.0000   1.0000   1.0000   1.0000   1.0000   1.0000   1.0000   1.0000
     0.0000   0.0000   0.0000   0.0000   0.0000   0.0000   0.0000   0.0000
     0.0000   0.0000   0.0000   0.0000

          k = 0.4161-0.3796 0.0494 ( 19145 PWs)   bands (ev):

  -102.2643 -91.5299 -64.6819 -64.6137 -60.9770 -59.4052 -59.1727 -52.0129
   -51.9650 -51.9320 -28.9998 -28.9262 -28.8984 -28.8377 -28.8052 -28.7399
    -7.8415  -7.6585  -7.3665  -7.1486  -6.6565  -6.4857  -6.2876  -6.0877
     1.0308   2.1747   2.4429   2.7307   2.8260   3.5981   4.2347   4.7350
     5.0423   5.2584   5.3867   5.4550   5.7479   5.8744   6.0170   6.1120
     6.3339   6.7505   6.8917   7.0512   7.4586   7.6142   7.7413   7.9786
     8.3006   8.5953   8.6515   8.8857   9.0967   9.2039   9.3942  10.0067
    12.5979  12.7495  12.8917  13.2186  13.9356  14.4215  15.0652  15.3607
    16.2122  16.6021  17.6007  18.7345

     occupation numbers 
     1.0000   1.0000   1.0000   1.0000   1.0000   1.0000   1.0000   1.0000
     1.0000   1.0000   1.0000   1.0000   1.0000   1.0000   1.0000   1.0000
     1.0000   1.0000   1.0000   1.0000   1.0000   1.0000   1.0000   1.0000
     1.0000   1.0000   1.0000   1.0000   1.0000   1.0000   1.0000   1.0000
     1.0000   1.0000   1.0000   1.0000   1.0000   1.0000   1.0000   1.0000
     1.0000   1.0000   1.0000   1.0000   1.0000   1.0000   1.0000   1.0000
     1.0000   1.0000   1.0000   1.0000   1.0000   1.0000   1.0000   1.0000
     0.0000   0.0000   0.0000   0.0000   0.0000   0.0000   0.0000   0.0000
     0.0000   0.0000   0.0000   0.0000

          k = 0.4147-0.3796 0.1918 ( 19123 PWs)   bands (ev):

  -102.2643 -91.5300 -64.6817 -64.6141 -60.9770 -59.4052 -59.1727 -52.0129
   -51.9650 -51.9320 -28.9987 -28.9330 -28.8929 -28.8462 -28.7933 -28.7429
    -7.8123  -7.6160  -7.3942  -7.2061  -6.5997  -6.4763  -6.2690  -6.1631
     1.0361   2.1823   2.4483   2.7457   2.8245   3.7331   4.1783   4.5919
     4.9662   5.1772   5.2055   5.3504   5.6698   5.9177   6.0099   6.2434
     6.4092   6.7754   6.9350   7.1554   7.6065   7.8323   7.9412   8.1584
     8.2167   8.4543   8.6987   8.8109   8.9616   9.0689   9.5813   9.8491
    12.4345  12.6902  12.9691  13.2162  13.9537  14.2346  15.1252  15.3983
    16.1242  16.4069  18.1484  18.8036

     occupation numbers 
     1.0000   1.0000   1.0000   1.0000   1.0000   1.0000   1.0000   1.0000
     1.0000   1.0000   1.0000   1.0000   1.0000   1.0000   1.0000   1.0000
     1.0000   1.0000   1.0000   1.0000   1.0000   1.0000   1.0000   1.0000
     1.0000   1.0000   1.0000   1.0000   1.0000   1.0000   1.0000   1.0000
     1.0000   1.0000   1.0000   1.0000   1.0000   1.0000   1.0000   1.0000
     1.0000   1.0000   1.0000   1.0000   1.0000   1.0000   1.0000   1.0000
     1.0000   1.0000   1.0000   1.0000   1.0000   1.0000   1.0000   1.0000
     0.0000   0.0000   0.0000   0.0000   0.0000   0.0000   0.0000   0.0000
     0.0000   0.0000   0.0000   0.0000

          k = 0.4134-0.3796 0.3342 ( 19154 PWs)   bands (ev):

  -102.2643 -91.5300 -64.6816 -64.6144 -60.9770 -59.4052 -59.1727 -52.0129
   -51.9650 -51.9320 -28.9970 -28.9399 -28.8879 -28.8531 -28.7813 -28.7478
    -7.7769  -7.5323  -7.4444  -7.2866  -6.5481  -6.4033  -6.2887  -6.2610
     1.0430   2.1945   2.4524   2.7514   2.8224   3.8498   4.1018   4.4595
     4.8824   5.0199   5.1707   5.3694   5.5203   5.8921   6.1634   6.4242
     6.5459   6.7609   6.9547   7.2273   7.6216   7.8118   7.9492   8.1494
     8.3289   8.5291   8.7140   8.7703   8.9223   9.0546   9.6607   9.8326
    12.3311  12.5711  12.9790  13.2533  13.9411  14.1231  15.1816  15.3904
    15.9767  16.1824  18.6847  18.8940

     occupation numbers 
     1.0000   1.0000   1.0000   1.0000   1.0000   1.0000   1.0000   1.0000
     1.0000   1.0000   1.0000   1.0000   1.0000   1.0000   1.0000   1.0000
     1.0000   1.0000   1.0000   1.0000   1.0000   1.0000   1.0000   1.0000
     1.0000   1.0000   1.0000   1.0000   1.0000   1.0000   1.0000   1.0000
     1.0000   1.0000   1.0000   1.0000   1.0000   1.0000   1.0000   1.0000
     1.0000   1.0000   1.0000   1.0000   1.0000   1.0000   1.0000   1.0000
     1.0000   1.0000   1.0000   1.0000   1.0000   1.0000   1.0000   1.0000
     0.0000   0.0000   0.0000   0.0000   0.0000   0.0000   0.0000   0.0000
     0.0000   0.0000   0.0000   0.0000

          k = 0.4203-0.3796-0.3779 ( 19153 PWs)   bands (ev):

  -102.2642 -91.5300 -64.6817 -64.6143 -60.9770 -59.4052 -59.1727 -52.0129
   -51.9650 -51.9320 -28.9968 -28.9405 -28.8881 -28.8530 -28.7810 -28.7477
    -7.7805  -7.5108  -7.4429  -7.2946  -6.5926  -6.3684  -6.3123  -6.2394
     1.0440   2.2025   2.4510   2.7371   2.8152   3.7475   4.1788   4.4467
     4.8878   5.0192   5.1967   5.4667   5.5576   5.9486   6.1898   6.2617
     6.5258   6.6327   7.1125   7.3676   7.4605   7.7773   7.8814   8.0935
     8.2464   8.5714   8.7132   8.8290   8.9884   9.1298   9.5770   9.9339
    12.3820  12.5402  12.9542  13.3369  13.8226  14.2458  15.1821  15.3698
    15.9321  16.0396  18.3433  19.2812

     occupation numbers 
     1.0000   1.0000   1.0000   1.0000   1.0000   1.0000   1.0000   1.0000
     1.0000   1.0000   1.0000   1.0000   1.0000   1.0000   1.0000   1.0000
     1.0000   1.0000   1.0000   1.0000   1.0000   1.0000   1.0000   1.0000
     1.0000   1.0000   1.0000   1.0000   1.0000   1.0000   1.0000   1.0000
     1.0000   1.0000   1.0000   1.0000   1.0000   1.0000   1.0000   1.0000
     1.0000   1.0000   1.0000   1.0000   1.0000   1.0000   1.0000   1.0000
     1.0000   1.0000   1.0000   1.0000   1.0000   1.0000   1.0000   1.0000
     0.0000   0.0000   0.0000   0.0000   0.0000   0.0000   0.0000   0.0000
     0.0000   0.0000   0.0000   0.0000

          k = 0.4189-0.3796-0.2355 ( 19143 PWs)   bands (ev):

  -102.2642 -91.5300 -64.6818 -64.6139 -60.9770 -59.4052 -59.1727 -52.0129
   -51.9650 -51.9320 -28.9983 -28.9342 -28.8932 -28.8458 -28.7929 -28.7428
    -7.8191  -7.5682  -7.4239  -7.1941  -6.6834  -6.4022  -6.2902  -6.1558
     1.0390   2.1988   2.4469   2.7295   2.7935   3.6187   4.2345   4.5833
     4.9780   5.1458   5.2750   5.5152   5.7809   5.8337   6.1312   6.2016
     6.4567   6.5606   6.9100   7.1729   7.5361   7.7277   7.8285   8.1232
     8.2711   8.4727   8.6480   8.8129   9.0752   9.2456   9.4757   9.9931
    12.5349  12.6118  12.9592  13.3298  13.8218  14.4221  15.1085  15.3904
    15.9619  16.1278  17.8759  19.1711

     occupation numbers 
     1.0000   1.0000   1.0000   1.0000   1.0000   1.0000   1.0000   1.0000
     1.0000   1.0000   1.0000   1.0000   1.0000   1.0000   1.0000   1.0000
     1.0000   1.0000   1.0000   1.0000   1.0000   1.0000   1.0000   1.0000
     1.0000   1.0000   1.0000   1.0000   1.0000   1.0000   1.0000   1.0000
     1.0000   1.0000   1.0000   1.0000   1.0000   1.0000   1.0000   1.0000
     1.0000   1.0000   1.0000   1.0000   1.0000   1.0000   1.0000   1.0000
     1.0000   1.0000   1.0000   1.0000   1.0000   1.0000   1.0000   1.0000
     0.0000   0.0000   0.0000   0.0000   0.0000   0.0000   0.0000   0.0000
     0.0000   0.0000   0.0000   0.0000

          k = 0.4175-0.3796-0.0931 ( 19133 PWs)   bands (ev):

  -102.2643 -91.5299 -64.6819 -64.6136 -60.9770 -59.4052 -59.1727 -52.0129
   -51.9650 -51.9320 -28.9996 -28.9268 -28.8985 -28.8374 -28.8052 -28.7398
    -7.8449  -7.6366  -7.3844  -7.1383  -6.6956  -6.4502  -6.2916  -6.0912
     1.0327   2.1828   2.4430   2.7305   2.8001   3.5590   4.2457   4.7379
     5.0527   5.2162   5.4138   5.5870   5.7057   5.8811   6.0508   6.1764
     6.3603   6.5801   6.9413   7.0478   7.3662   7.6145   7.7287   7.9101
     8.3481   8.5452   8.6926   8.8977   9.0849   9.2746   9.3982  10.0565
    12.6262  12.7312  12.8980  13.2407  13.9143  14.5017  15.0718  15.3306
    16.1037  16.4633  17.5311  18.8855

     occupation numbers 
     1.0000   1.0000   1.0000   1.0000   1.0000   1.0000   1.0000   1.0000
     1.0000   1.0000   1.0000   1.0000   1.0000   1.0000   1.0000   1.0000
     1.0000   1.0000   1.0000   1.0000   1.0000   1.0000   1.0000   1.0000
     1.0000   1.0000   1.0000   1.0000   1.0000   1.0000   1.0000   1.0000
     1.0000   1.0000   1.0000   1.0000   1.0000   1.0000   1.0000   1.0000
     1.0000   1.0000   1.0000   1.0000   1.0000   1.0000   1.0000   1.0000
     1.0000   1.0000   1.0000   1.0000   1.0000   1.0000   1.0000   1.0000
     0.0000   0.0000   0.0000   0.0000   0.0000   0.0000   0.0000   0.0000
     0.0000   0.0000   0.0000   0.0000

          k = 0.4162-0.2324 0.0459 ( 19139 PWs)   bands (ev):

  -102.2643 -91.5299 -64.6813 -64.6138 -60.9770 -59.4052 -59.1727 -52.0129
   -51.9650 -51.9320 -29.0005 -28.9269 -28.8989 -28.8367 -28.8051 -28.7395
    -7.8704  -7.6729  -7.3643  -7.1182  -6.6400  -6.3943  -6.3334  -6.1413
     1.1308   2.2113   2.4204   2.7573   2.8585   3.7568   4.1634   4.5255
     4.9285   4.9656   5.2263   5.4019   5.7261   5.7928   5.9551   6.1053
     6.2421   6.6375   6.9320   7.1027   7.4902   7.5821   7.8835   8.1315
     8.4346   8.5621   8.8770   9.0185   9.2585   9.3440   9.6053  10.1296
    12.5451  12.7580  13.0161  13.1873  13.7846  14.4087  15.1242  15.3355
    16.0858  16.5766  17.8704  18.6842

     occupation numbers 
     1.0000   1.0000   1.0000   1.0000   1.0000   1.0000   1.0000   1.0000
     1.0000   1.0000   1.0000   1.0000   1.0000   1.0000   1.0000   1.0000
     1.0000   1.0000   1.0000   1.0000   1.0000   1.0000   1.0000   1.0000
     1.0000   1.0000   1.0000   1.0000   1.0000   1.0000   1.0000   1.0000
     1.0000   1.0000   1.0000   1.0000   1.0000   1.0000   1.0000   1.0000
     1.0000   1.0000   1.0000   1.0000   1.0000   1.0000   1.0000   1.0000
     1.0000   1.0000   1.0000   1.0000   1.0000   1.0000   1.0000   1.0000
     0.0000   0.0000   0.0000   0.0000   0.0000   0.0000   0.0000   0.0000
     0.0000   0.0000   0.0000   0.0000

          k = 0.4148-0.2324 0.1883 ( 19144 PWs)   bands (ev):

  -102.2643 -91.5300 -64.6812 -64.6142 -60.9770 -59.4052 -59.1727 -52.0129
   -51.9650 -51.9320 -28.9991 -28.9324 -28.8934 -28.8459 -28.7938 -28.7431
    -7.8616  -7.6111  -7.3556  -7.1528  -6.6530  -6.4455  -6.3001  -6.1644
     1.1415   2.2242   2.4239   2.7704   2.8620   3.8533   4.1975   4.4056
     4.8117   5.0796   5.0986   5.2468   5.4460   5.8030   6.0141   6.1746
     6.3304   6.7207   6.9815   7.2988   7.5606   7.6981   7.9454   8.1694
     8.3228   8.6120   8.7454   9.0267   9.1792   9.3018   9.7809  10.0004
    12.4333  12.7956  13.0314  13.1817  13.8513  14.2506  15.1719  15.3672
    15.9926  16.4048  18.2833  18.8013

     occupation numbers 
     1.0000   1.0000   1.0000   1.0000   1.0000   1.0000   1.0000   1.0000
     1.0000   1.0000   1.0000   1.0000   1.0000   1.0000   1.0000   1.0000
     1.0000   1.0000   1.0000   1.0000   1.0000   1.0000   1.0000   1.0000
     1.0000   1.0000   1.0000   1.0000   1.0000   1.0000   1.0000   1.0000
     1.0000   1.0000   1.0000   1.0000   1.0000   1.0000   1.0000   1.0000
     1.0000   1.0000   1.0000   1.0000   1.0000   1.0000   1.0000   1.0000
     1.0000   1.0000   1.0000   1.0000   1.0000   1.0000   1.0000   1.0000
     0.0000   0.0000   0.0000   0.0000   0.0000   0.0000   0.0000   0.0000
     0.0000   0.0000   0.0000   0.0000

          k = 0.4134-0.2324 0.3308 ( 19126 PWs)   bands (ev):

  -102.2643 -91.5300 -64.6811 -64.6145 -60.9770 -59.4052 -59.1727 -52.0129
   -51.9650 -51.9320 -28.9970 -28.9387 -28.8879 -28.8533 -28.7823 -28.7483
    -7.8028  -7.5587  -7.3794  -7.2258  -6.6483  -6.4736  -6.2786  -6.1839
     1.1552   2.2462   2.4256   2.7655   2.8656   3.9309   4.1567   4.3927
     4.6777   4.8773   5.0659   5.1960   5.4303   5.7869   6.1100   6.4345
     6.4861   6.7629   6.9178   7.1921   7.4941   7.6291   8.0047   8.0739
     8.5058   8.6196   8.8831   9.0361   9.1586   9.3351   9.8516   9.9592
    12.3697  12.6834  13.0596  13.1822  13.9484  14.1092  15.2122  15.3482
    15.8563  16.1606  18.7914  18.9344

     occupation numbers 
     1.0000   1.0000   1.0000   1.0000   1.0000   1.0000   1.0000   1.0000
     1.0000   1.0000   1.0000   1.0000   1.0000   1.0000   1.0000   1.0000
     1.0000   1.0000   1.0000   1.0000   1.0000   1.0000   1.0000   1.0000
     1.0000   1.0000   1.0000   1.0000   1.0000   1.0000   1.0000   1.0000
     1.0000   1.0000   1.0000   1.0000   1.0000   1.0000   1.0000   1.0000
     1.0000   1.0000   1.0000   1.0000   1.0000   1.0000   1.0000   1.0000
     1.0000   1.0000   1.0000   1.0000   1.0000   1.0000   1.0000   1.0000
     0.0000   0.0000   0.0000   0.0000   0.0000   0.0000   0.0000   0.0000
     0.0000   0.0000   0.0000   0.0000

          k = 0.4203-0.2324-0.3814 ( 19122 PWs)   bands (ev):

  -102.2643 -91.5300 -64.6811 -64.6144 -60.9770 -59.4052 -59.1727 -52.0129
   -51.9650 -51.9320 -28.9965 -28.9399 -28.8882 -28.8530 -28.7818 -28.7482
    -7.7553  -7.5435  -7.4527  -7.2355  -6.6788  -6.4178  -6.2844  -6.1806
     1.1558   2.2583   2.4214   2.7428   2.8650   3.8418   4.2099   4.4333
     4.6832   4.8152   5.0780   5.2580   5.4917   5.8236   5.9719   6.4112
     6.5593   6.6754   6.8742   7.2980   7.4599   7.6600   7.9492   8.1011
     8.4413   8.7169   8.8931   9.0228   9.1919   9.3744   9.7645  10.0442
    12.4202  12.6491  12.9985  13.2759  13.8313  14.2209  15.1735  15.3224
    15.8937  15.9718  18.5408  19.2482

     occupation numbers 
     1.0000   1.0000   1.0000   1.0000   1.0000   1.0000   1.0000   1.0000
     1.0000   1.0000   1.0000   1.0000   1.0000   1.0000   1.0000   1.0000
     1.0000   1.0000   1.0000   1.0000   1.0000   1.0000   1.0000   1.0000
     1.0000   1.0000   1.0000   1.0000   1.0000   1.0000   1.0000   1.0000
     1.0000   1.0000   1.0000   1.0000   1.0000   1.0000   1.0000   1.0000
     1.0000   1.0000   1.0000   1.0000   1.0000   1.0000   1.0000   1.0000
     1.0000   1.0000   1.0000   1.0000   1.0000   1.0000   1.0000   1.0000
     0.0000   0.0000   0.0000   0.0000   0.0000   0.0000   0.0000   0.0000
     0.0000   0.0000   0.0000   0.0000

          k = 0.4189-0.2324-0.2390 ( 19141 PWs)   bands (ev):

  -102.2643 -91.5300 -64.6812 -64.6140 -60.9770 -59.4052 -59.1727 -52.0129
   -51.9650 -51.9320 -28.9984 -28.9348 -28.8937 -28.8450 -28.7930 -28.7428
    -7.7647  -7.6179  -7.4747  -7.1667  -6.6820  -6.3803  -6.2744  -6.1785
     1.1445   2.2467   2.4187   2.7431   2.8330   3.7609   4.1891   4.5306
     4.8285   4.9737   5.1081   5.3523   5.5106   5.6892   5.9703   6.2554
     6.3840   6.6798   6.8555   7.2993   7.6196   7.6821   7.8771   8.2268
     8.3556   8.6132   8.8261   8.9631   9.1761   9.4653   9.6608  10.1064
    12.5127  12.7559  12.9539  13.2891  13.7455  14.3847  15.0988  15.3645
    15.8890  16.1056  18.1533  19.0835

     occupation numbers 
     1.0000   1.0000   1.0000   1.0000   1.0000   1.0000   1.0000   1.0000
     1.0000   1.0000   1.0000   1.0000   1.0000   1.0000   1.0000   1.0000
     1.0000   1.0000   1.0000   1.0000   1.0000   1.0000   1.0000   1.0000
     1.0000   1.0000   1.0000   1.0000   1.0000   1.0000   1.0000   1.0000
     1.0000   1.0000   1.0000   1.0000   1.0000   1.0000   1.0000   1.0000
     1.0000   1.0000   1.0000   1.0000   1.0000   1.0000   1.0000   1.0000
     1.0000   1.0000   1.0000   1.0000   1.0000   1.0000   1.0000   1.0000
     0.0000   0.0000   0.0000   0.0000   0.0000   0.0000   0.0000   0.0000
     0.0000   0.0000   0.0000   0.0000

          k = 0.4176-0.2324-0.0965 ( 19129 PWs)   bands (ev):

  -102.2643 -91.5299 -64.6813 -64.6137 -60.9770 -59.4052 -59.1727 -52.0129
   -51.9650 -51.9320 -29.0002 -28.9282 -28.8990 -28.8361 -28.8049 -28.7393
    -7.8158  -7.6965  -7.4128  -7.1227  -6.6447  -6.3953  -6.2888  -6.1557
     1.1331   2.2215   2.4192   2.7594   2.8235   3.7301   4.1479   4.6259
     4.7930   5.0502   5.2455   5.4485   5.5977   5.8799   5.9292   6.0953
     6.2343   6.6059   7.0335   7.1742   7.3419   7.5446   7.9183   8.1316
     8.4552   8.6594   8.7523   9.0355   9.2427   9.4542   9.5673  10.1659
    12.5872  12.7415  12.9820  13.2038  13.7718  14.4658  15.1012  15.3278
    15.9950  16.4203  17.8747  18.8015

     occupation numbers 
     1.0000   1.0000   1.0000   1.0000   1.0000   1.0000   1.0000   1.0000
     1.0000   1.0000   1.0000   1.0000   1.0000   1.0000   1.0000   1.0000
     1.0000   1.0000   1.0000   1.0000   1.0000   1.0000   1.0000   1.0000
     1.0000   1.0000   1.0000   1.0000   1.0000   1.0000   1.0000   1.0000
     1.0000   1.0000   1.0000   1.0000   1.0000   1.0000   1.0000   1.0000
     1.0000   1.0000   1.0000   1.0000   1.0000   1.0000   1.0000   1.0000
     1.0000   1.0000   1.0000   1.0000   1.0000   1.0000   1.0000   1.0000
     0.0000   0.0000   0.0000   0.0000   0.0000   0.0000   0.0000   0.0000
     0.0000   0.0000   0.0000   0.0000

          k = 0.4163-0.0852 0.0424 ( 19111 PWs)   bands (ev):

  -102.2643 -91.5299 -64.6808 -64.6138 -60.9770 -59.4052 -59.1727 -52.0129
   -51.9650 -51.9320 -29.0010 -28.9282 -28.8995 -28.8355 -28.8048 -28.7390
    -7.9806  -7.5873  -7.3398  -7.1095  -6.6272  -6.4237  -6.3011  -6.1596
     1.1998   2.2414   2.3970   2.8203   2.8716   3.9933   4.1124   4.2508
     4.6465   4.9062   5.1011   5.3991   5.6784   5.7442   5.9257   6.0299
     6.1395   6.5191   6.8457   7.2161   7.5518   7.7334   7.9490   8.1249
     8.4902   8.6092   8.8038   9.2076   9.4549   9.6349   9.9091  10.2322
    12.5268  12.7177  13.1139  13.1848  13.6310  14.3600  15.1992  15.3349
    15.9206  16.5496  18.1769  18.6714

     occupation numbers 
     1.0000   1.0000   1.0000   1.0000   1.0000   1.0000   1.0000   1.0000
     1.0000   1.0000   1.0000   1.0000   1.0000   1.0000   1.0000   1.0000
     1.0000   1.0000   1.0000   1.0000   1.0000   1.0000   1.0000   1.0000
     1.0000   1.0000   1.0000   1.0000   1.0000   1.0000   1.0000   1.0000
     1.0000   1.0000   1.0000   1.0000   1.0000   1.0000   1.0000   1.0000
     1.0000   1.0000   1.0000   1.0000   1.0000   1.0000   1.0000   1.0000
     1.0000   1.0000   1.0000   1.0000   1.0000   1.0000   1.0000   1.0000
     0.0000   0.0000   0.0000   0.0000   0.0000   0.0000   0.0000   0.0000
     0.0000   0.0000   0.0000   0.0000

          k = 0.4149-0.0852 0.1848 ( 19125 PWs)   bands (ev):

  -102.2643 -91.5299 -64.6806 -64.6143 -60.9770 -59.4052 -59.1727 -52.0129
   -51.9650 -51.9320 -28.9990 -28.9330 -28.8939 -28.8452 -28.7938 -28.7431
    -7.9623  -7.5543  -7.2752  -7.1097  -6.7109  -6.5122  -6.3032  -6.1149
     1.2134   2.2591   2.3995   2.8240   2.8964   4.0021   4.1170   4.2190
     4.6989   4.9154   5.1408   5.2575   5.3448   5.7001   5.9253   6.1232
     6.2409   6.5339   7.0231   7.2667   7.5880   7.6453   7.8685   8.1776
     8.5449   8.6907   8.9610   9.0131   9.4391   9.6104  10.0102  10.1198
    12.4720  12.8642  13.0229  13.1755  13.7411  14.2379  15.2319  15.3390
    15.8780  16.4000  18.3840  18.8094

     occupation numbers 
     1.0000   1.0000   1.0000   1.0000   1.0000   1.0000   1.0000   1.0000
     1.0000   1.0000   1.0000   1.0000   1.0000   1.0000   1.0000   1.0000
     1.0000   1.0000   1.0000   1.0000   1.0000   1.0000   1.0000   1.0000
     1.0000   1.0000   1.0000   1.0000   1.0000   1.0000   1.0000   1.0000
     1.0000   1.0000   1.0000   1.0000   1.0000   1.0000   1.0000   1.0000
     1.0000   1.0000   1.0000   1.0000   1.0000   1.0000   1.0000   1.0000
     1.0000   1.0000   1.0000   1.0000   1.0000   1.0000   1.0000   1.0000
     0.0000   0.0000   0.0000   0.0000   0.0000   0.0000   0.0000   0.0000
     0.0000   0.0000   0.0000   0.0000

          k = 0.4135-0.0852 0.3273 ( 19116 PWs)   bands (ev):

  -102.2643 -91.5299 -64.6805 -64.6146 -60.9770 -59.4052 -59.1727 -52.0129
   -51.9650 -51.9320 -28.9965 -28.9381 -28.8880 -28.8534 -28.7831 -28.7488
    -7.8760  -7.5653  -7.2704  -7.1137  -6.7625  -6.6069  -6.2727  -6.0850
     1.2353   2.2749   2.4030   2.8141   2.9277   3.9680   4.1290   4.2544
     4.5754   4.7615   5.0755   5.1433   5.4303   5.7784   5.9862   6.2482
     6.4053   6.6470   7.0012   7.1059   7.2736   7.4781   8.0351   8.1772
     8.6665   8.7145   9.0585   9.2499   9.3928   9.6425   9.9978  10.0961
    12.4493  12.7746  13.0413  13.1496  13.9448  14.0931  15.2254  15.3203
    15.7743  16.1088  18.8689  19.0440

     occupation numbers 
     1.0000   1.0000   1.0000   1.0000   1.0000   1.0000   1.0000   1.0000
     1.0000   1.0000   1.0000   1.0000   1.0000   1.0000   1.0000   1.0000
     1.0000   1.0000   1.0000   1.0000   1.0000   1.0000   1.0000   1.0000
     1.0000   1.0000   1.0000   1.0000   1.0000   1.0000   1.0000   1.0000
     1.0000   1.0000   1.0000   1.0000   1.0000   1.0000   1.0000   1.0000
     1.0000   1.0000   1.0000   1.0000   1.0000   1.0000   1.0000   1.0000
     1.0000   1.0000   1.0000   1.0000   1.0000   1.0000   1.0000   1.0000
     0.0000   0.0000   0.0000   0.0000   0.0000   0.0000   0.0000   0.0000
     0.0000   0.0000   0.0000   0.0000

          k = 0.4204-0.0852-0.3849 ( 19112 PWs)   bands (ev):

  -102.2643 -91.5299 -64.6805 -64.6145 -60.9770 -59.4052 -59.1727 -52.0129
   -51.9650 -51.9320 -28.9963 -28.9387 -28.8882 -28.8532 -28.7829 -28.7487
    -7.7788  -7.6181  -7.3653  -7.1200  -6.7757  -6.5364  -6.2806  -6.0733
     1.2406   2.2728   2.4018   2.7964   2.9306   3.8922   4.2303   4.3815
     4.4827   4.6796   4.9531   5.1941   5.4981   5.7497   5.9059   6.3075
     6.4759   6.6565   6.8189   7.2016   7.3531   7.5597   7.9956   8.1852
     8.5319   8.7999   9.0432   9.2929   9.4150   9.6891   9.9421  10.1413
    12.4733  12.7570  12.9813  13.2388  13.8660  14.1776  15.1744  15.2863
    15.8060  15.8942  18.8334  19.1684

     occupation numbers 
     1.0000   1.0000   1.0000   1.0000   1.0000   1.0000   1.0000   1.0000
     1.0000   1.0000   1.0000   1.0000   1.0000   1.0000   1.0000   1.0000
     1.0000   1.0000   1.0000   1.0000   1.0000   1.0000   1.0000   1.0000
     1.0000   1.0000   1.0000   1.0000   1.0000   1.0000   1.0000   1.0000
     1.0000   1.0000   1.0000   1.0000   1.0000   1.0000   1.0000   1.0000
     1.0000   1.0000   1.0000   1.0000   1.0000   1.0000   1.0000   1.0000
     1.0000   1.0000   1.0000   1.0000   1.0000   1.0000   1.0000   1.0000
     0.0000   0.0000   0.0000   0.0000   0.0000   0.0000   0.0000   0.0000
     0.0000   0.0000   0.0000   0.0000

          k = 0.4190-0.0852-0.2425 ( 19126 PWs)   bands (ev):

  -102.2643 -91.5300 -64.6807 -64.6141 -60.9770 -59.4052 -59.1727 -52.0129
   -51.9650 -51.9320 -28.9986 -28.9342 -28.8942 -28.8446 -28.7935 -28.7429
    -7.7940  -7.6483  -7.4416  -7.1113  -6.7044  -6.4339  -6.3034  -6.0977
     1.2247   2.2559   2.3986   2.7955   2.8884   3.8840   4.2389   4.4422
     4.6285   4.7641   4.9080   5.2867   5.3929   5.6029   5.8772   6.1441
     6.4200   6.6597   6.8747   7.3464   7.6577   7.7471   7.9363   8.1822
     8.4013   8.5810   8.8477   9.2385   9.4360   9.7547   9.8849  10.2064
    12.5071  12.8673  12.9304  13.2810  13.6966  14.3253  15.1142  15.3593
    15.7152  16.0765  18.5538  18.9828

     occupation numbers 
     1.0000   1.0000   1.0000   1.0000   1.0000   1.0000   1.0000   1.0000
     1.0000   1.0000   1.0000   1.0000   1.0000   1.0000   1.0000   1.0000
     1.0000   1.0000   1.0000   1.0000   1.0000   1.0000   1.0000   1.0000
     1.0000   1.0000   1.0000   1.0000   1.0000   1.0000   1.0000   1.0000
     1.0000   1.0000   1.0000   1.0000   1.0000   1.0000   1.0000   1.0000
     1.0000   1.0000   1.0000   1.0000   1.0000   1.0000   1.0000   1.0000
     1.0000   1.0000   1.0000   1.0000   1.0000   1.0000   1.0000   1.0000
     0.0000   0.0000   0.0000   0.0000   0.0000   0.0000   0.0000   0.0000
     0.0000   0.0000   0.0000   0.0000

          k = 0.4176-0.0852-0.1000 ( 19137 PWs)   bands (ev):

  -102.2643 -91.5300 -64.6808 -64.6138 -60.9770 -59.4052 -59.1727 -52.0129
   -51.9650 -51.9320 -29.0008 -28.9288 -28.8996 -28.8351 -28.8048 -28.7389
    -7.9122  -7.6293  -7.4081  -7.1075  -6.6093  -6.4381  -6.2536  -6.1668
     1.2059   2.2403   2.3972   2.8194   2.8514   3.9425   4.1412   4.3726
     4.5944   4.8565   5.0600   5.4252   5.5394   5.7486   5.8342   6.0957
     6.1930   6.5729   6.8640   7.4306   7.5440   7.6534   7.9666   8.1840
     8.3695   8.5840   8.7256   9.2978   9.4521   9.7460   9.8344  10.2645
    12.5466  12.7095  13.0655  13.2257  13.6365  14.4009  15.1380  15.3687
    15.7958  16.3726  18.3711  18.7039

     occupation numbers 
     1.0000   1.0000   1.0000   1.0000   1.0000   1.0000   1.0000   1.0000
     1.0000   1.0000   1.0000   1.0000   1.0000   1.0000   1.0000   1.0000
     1.0000   1.0000   1.0000   1.0000   1.0000   1.0000   1.0000   1.0000
     1.0000   1.0000   1.0000   1.0000   1.0000   1.0000   1.0000   1.0000
     1.0000   1.0000   1.0000   1.0000   1.0000   1.0000   1.0000   1.0000
     1.0000   1.0000   1.0000   1.0000   1.0000   1.0000   1.0000   1.0000
     1.0000   1.0000   1.0000   1.0000   1.0000   1.0000   1.0000   1.0000
     0.0000   0.0000   0.0000   0.0000   0.0000   0.0000   0.0000   0.0000
     0.0000   0.0000   0.0000   0.0000

     the Fermi energy is    11.3027 ev

!    total energy              =   -1281.06861784 Ry
     estimated scf accuracy    <          5.5E-10 Ry
     smearing contrib. (-TS)   =       0.00000005 Ry
     internal energy E=F+TS    =   -1281.06861789 Ry

     The total energy is F=E-TS. E is the sum of the following terms:
     one-electron contribution =    -651.13602594 Ry
     hartree contribution      =     383.37075950 Ry
     xc contribution           =    -219.83489130 Ry
     ewald contribution        =    -793.62184210 Ry
     Hubbard energy            =       0.15338194 Ry

     total magnetization       =     1.00 Bohr mag/cell
     absolute magnetization    =     2.90 Bohr mag/cell

     convergence has been achieved in  22 iterations

     Writing all to output data dir ./tmp/NiCuWO4_AFM/NiCuWO4_AFM.save/ :
     XML data file, charge density, pseudopotentials, collected wavefunctions
 
     init_run     :     11.23s CPU     11.47s WALL (       1 calls)
     electrons    :    634.23s CPU    640.75s WALL (       1 calls)

     Called by init_run:
     wfcinit      :     11.15s CPU     11.37s WALL (       1 calls)
     wfcinit:atom :      0.07s CPU      0.07s WALL (     216 calls)
     wfcinit:wfcr :      8.44s CPU      8.60s WALL (     216 calls)
     potinit      :      0.02s CPU      0.02s WALL (       1 calls)
     hinit0       :      0.03s CPU      0.03s WALL (       1 calls)

     Called by electrons:
     c_bands      :    565.69s CPU    571.22s WALL (      22 calls)
     sum_band     :     67.77s CPU     68.66s WALL (      22 calls)
     v_of_rho     :      0.34s CPU      0.35s WALL (      23 calls)
     v_h          :      0.01s CPU      0.01s WALL (      23 calls)
     v_xc         :      0.33s CPU      0.33s WALL (      23 calls)
     mix_rho      :      0.42s CPU      0.44s WALL (      22 calls)

     Called by c_bands:
     init_us_2    :     13.36s CPU     13.60s WALL (    9936 calls)
     cegterg      :    518.03s CPU    522.73s WALL (    4752 calls)

     Called by sum_band:
     sum_band:wei :      0.47s CPU      0.47s WALL (      22 calls)
     sum_band:loo :     63.58s CPU     64.29s WALL (      22 calls)
     sum_band:buf :      1.34s CPU      1.37s WALL (    4752 calls)
     sum_band:ini :      5.15s CPU      5.21s WALL (    4752 calls)

     Called by *egterg:
     cdiaghg      :     61.77s CPU     62.09s WALL (   19283 calls)
     cegterg:over :     26.96s CPU     27.13s WALL (   14531 calls)
     cegterg:upda :     17.16s CPU     17.39s WALL (   14531 calls)
     cegterg:last :     33.00s CPU     33.22s WALL (    9517 calls)
     h_psi        :    369.33s CPU    373.13s WALL (   19499 calls)
     g_psi        :      1.23s CPU      1.24s WALL (   14531 calls)

     Called by h_psi:
     h_psi:calbec :     43.40s CPU     43.70s WALL (   19499 calls)
     vloc_psi     :    265.93s CPU    268.96s WALL (   19499 calls)
     add_vuspsi   :     41.37s CPU     41.65s WALL (   19499 calls)
     vhpsi        :     16.38s CPU     16.49s WALL (   19499 calls)

     General routines
     calbec       :     60.31s CPU     60.83s WALL (   43966 calls)
     fft          :      0.13s CPU      0.14s WALL (     435 calls)
     ffts         :      0.23s CPU      0.23s WALL (     725 calls)
     fftw         :    299.81s CPU    303.15s WALL ( 1901568 calls)
 
     Parallel routines

     Hubbard U routines
     new_ns       :      3.69s CPU      3.86s WALL (      22 calls)
     vhpsi        :     16.38s CPU     16.49s WALL (   19499 calls)
 
     PWSCF        :  10m47.04s CPU  11m 2.23s WALL

 
   This run was terminated on:   6:48:29  19Nov2025            

=------------------------------------------------------------------------------=
   JOB DONE.
=------------------------------------------------------------------------------=
