
     Program PWSCF v.7.4.1 starts on 19Nov2025 at  6:18:27 
        Git branch: heads/qe-7.4.1
        Last git commit: 500de340b820e1cb8c05f2d8bb8fced102f377c1-dirty
        Last git commit date: Fri Feb 7 14:59:05 2025 +0000
        Last git commit subject: Merge branch 'qe-7.4.1' into 'master'

     This program is part of the open-source Quantum ESPRESSO suite
     for quantum simulation of materials; please cite
         "P. Giannozzi et al., J. Phys.:Condens. Matter 21 395502 (2009);
         "P. Giannozzi et al., J. Phys.:Condens. Matter 29 465901 (2017);
         "P. Giannozzi et al., J. Chem. Phys. 152 154105 (2020);
          URL http://www.quantum-espresso.org", 
     in publications or presentations arising from this work. More details at
     http://www.quantum-espresso.org/quote

     Parallel version (MPI), running on    16 processors

     MPI processes distributed on     1 nodes
     685399 MiB available memory on the printing compute node when the environment starts
 
     Reading input from inputs_FM/MnCuWO4_FM.in

     Current dimensions of program PWSCF are:
     Max number of different atomic species (ntypx) = 10
     Max number of k-points (npk) =  40000
     Max angular momentum in pseudopotentials (lmaxx) =  4
 
     R & G space division:  proc/nbgrp/npool/nimage =      16
     Subspace diagonalization in iterative solution of the eigenvalue problem:
     a serial algorithm will be used

 
     Parallelization info
     --------------------
     sticks:   dense  smooth     PW     G-vecs:    dense   smooth      PW
     Min         214     214     58                10201    10201    1449
     Max         215     215     59                10203    10203    1453
     Sum        3427    3427    933               163223   163223   23203
 
     Using Slab Decomposition
 


     bravais-lattice index     =            0
     lattice parameter (alat)  =       8.9545  a.u.
     unit-cell volume          =     918.9339 (a.u.)^3
     number of atoms/cell      =           12
     number of atomic types    =            4
     number of electrons       =       110.00
     number of Kohn-Sham states=           66
     kinetic-energy cutoff     =     120.0000  Ry
     charge density cutoff     =     480.0000  Ry
     scf convergence threshold =      1.0E-09
     mixing beta               =       0.7000
     number of iterations used =            8  local-TF  mixing
     Exchange-correlation= PBESOL
                           (   1   4  10   8   0   0   0)
     Hubbard projectors: ortho-atomic
     Hubbard parameters of DFT+U (Dudarev formulation) in eV:
     U(Mn-3d) =  4.6500
     U(Cu-3d) = 10.0000

     Internal variables: lda_plus_u = T, lda_plus_u_kind = 0

     celldm(1)=   8.954494  celldm(2)=   0.000000  celldm(3)=   0.000000
     celldm(4)=   0.000000  celldm(5)=   0.000000  celldm(6)=   0.000000

     crystal axes: (cart. coord. in units of alat)
               a(1) = (   0.999972  -0.000219   0.007471 )  
               a(2) = (   0.030480   1.117744   0.000364 )  
               a(3) = (   0.072223   0.026798   1.145603 )  

     reciprocal axes: (cart. coord. in units 2 pi/alat)
               b(1) = (  1.000488 -0.027262 -0.062437 )  
               b(2) = (  0.000353  0.894656 -0.020950 )  
               b(3) = ( -0.006525 -0.000107  0.873317 )  


     PseudoPot. # 1 for Mn read from file:
     pseudo_dojo_pbesol/Mn.upf
     MD5 check sum: ef44e22c4884c1dd3870421f9f7ffd72
     Pseudo is Norm-conserving + core correction, Zval = 15.0
     Generated using ONCVPSP code by D. R. Hamann
     Using radial grid of 1448 points,  6 beta functions with: 
                l(1) =   0
                l(2) =   0
                l(3) =   1
                l(4) =   1
                l(5) =   2
                l(6) =   2

     PseudoPot. # 2 for Cu read from file:
     pseudo_dojo_pbesol/Cu.upf
     MD5 check sum: 5521c194e1bf37484dee827cb890bc02
     Pseudo is Norm-conserving + core correction, Zval = 19.0
     Generated using ONCVPSP code by D. R. Hamann
     Using radial grid of 1492 points,  6 beta functions with: 
                l(1) =   0
                l(2) =   0
                l(3) =   1
                l(4) =   1
                l(5) =   2
                l(6) =   2

     PseudoPot. # 3 for W  read from file:
     pseudo_dojo_pbesol/W.upf
     MD5 check sum: b5ac44390825a9169ccdba7091ec60d0
     Pseudo is Norm-conserving + core correction, Zval = 14.0
     Generated using ONCVPSP code by D. R. Hamann
     Using radial grid of 1396 points,  8 beta functions with: 
                l(1) =   0
                l(2) =   0
                l(3) =   1
                l(4) =   1
                l(5) =   2
                l(6) =   2
                l(7) =   3
                l(8) =   3

     PseudoPot. # 4 for O  read from file:
     pseudo_dojo_pbesol/O.upf
     MD5 check sum: f226cbcd508cec715ff87a8f75a1dfba
     Pseudo is Norm-conserving + core correction, Zval =  6.0
     Generated using ONCVPSP code by D. R. Hamann
     Using radial grid of  936 points,  5 beta functions with: 
                l(1) =   0
                l(2) =   0
                l(3) =   1
                l(4) =   1
                l(5) =   2

     atomic species   valence    mass     pseudopotential
     Mn               15.00    54.93805     Mn( 1.00)
     Cu               19.00    63.54600     Cu( 1.00)
     W                14.00   183.84000     W ( 1.00)
     O                 6.00    15.99940     O ( 1.00)

     Starting magnetic structure 
     atomic species   magnetization
     Mn              0.200
     Cu              0.200
     W               0.000
     O               0.000

     No symmetry found


                                    s                        frac. trans.

      isym =  1     identity                                     

 cryst.   s( 1) = (     1          0          0      )
                  (     0          1          0      )
                  (     0          0          1      )

 cart.    s( 1) = (  1.0000000 -0.0000000  0.0000000 )
                  (  0.0000000  1.0000000  0.0000000 )
                  (  0.0000000  0.0000000  1.0000000 )


   Cartesian axes

     site n.     atom                  positions (alat units)
         1        Mn     tau(   1) = (   0.5748035   0.7772642   0.8631844  )
         2        Cu     tau(   2) = (   0.5278714   0.3670585   0.2902537  )
         3        W      tau(   3) = (   0.0596150   0.2198770   0.8592672  )
         4        W      tau(   4) = (   0.0430878   0.9246650   0.2867000  )
         5        O      tau(   5) = (   0.3311047   0.4429956   1.0297836  )
         6        O      tau(   6) = (   0.8000539   0.4350032   0.6963647  )
         7        O      tau(   7) = (   0.7715702   0.7013271   0.1236545  )
         8        O      tau(   8) = (   0.3026210   0.7093195   0.4570734  )
         9        O      tau(   9) = (   0.3080787   1.0255169   1.0780379  )
        10        O      tau(  10) = (   0.8547873   1.0152428   0.6484895  )
        11        O      tau(  11) = (   0.7945962   0.1188058   0.0754002  )
        12        O      tau(  12) = (   0.2478876   0.1290799   0.5049486  )

   Crystallographic axes

     site n.     atom                  positions (cryst. coord.)
         1        Mn     tau(   1) = (  0.5000000  0.6775034  0.7500000  )
         2        Cu     tau(   2) = (  0.5000000  0.3224966  0.2500000  )
         3        W      tau(   3) = (  0.0000000  0.1787338  0.7500000  )
         4        W      tau(   4) = ( -0.0000000  0.8212662  0.2500000  )
         5        O      tau(   5) = (  0.2548931  0.3748717  0.8971196  )
         6        O      tau(   6) = (  0.7451069  0.3748717  0.6028804  )
         7        O      tau(   7) = (  0.7451069  0.6251283  0.1028804  )
         8        O      tau(   8) = (  0.2548931  0.6251283  0.3971196  )
         9        O      tau(   9) = (  0.2129623  0.8950090  0.9393489  )
        10        O      tau(  10) = (  0.7870377  0.8950090  0.5606511  )
        11        O      tau(  11) = (  0.7870377  0.1049910  0.0606511  )
        12        O      tau(  12) = (  0.2129623  0.1049910  0.4393489  )

     number of k points=   108  Marzari-Vanderbilt smearing, width (Ry)=  0.0200
                       cart. coord. in units 2pi/alat
        k(    1) = (   0.0828597   0.0722739   0.0658275), wk =   0.0092593
        k(    2) = (   0.0817723   0.0722561   0.2113803), wk =   0.0092593
        k(    3) = (   0.0806848   0.0722383   0.3569331), wk =   0.0092593
        k(    4) = (   0.0861220   0.0723274  -0.3708309), wk =   0.0092593
        k(    5) = (   0.0850346   0.0723096  -0.2252781), wk =   0.0092593
        k(    6) = (   0.0839472   0.0722918  -0.0797253), wk =   0.0092593
        k(    7) = (   0.0829185   0.2213833   0.0623359), wk =   0.0092593
        k(    8) = (   0.0818310   0.2213655   0.2078887), wk =   0.0092593
        k(    9) = (   0.0807436   0.2213477   0.3534414), wk =   0.0092593
        k(   10) = (   0.0861808   0.2214368  -0.3743225), wk =   0.0092593
        k(   11) = (   0.0850934   0.2214189  -0.2287697), wk =   0.0092593
        k(   12) = (   0.0840059   0.2214011  -0.0832169), wk =   0.0092593
        k(   13) = (   0.0829773   0.3704927   0.0588442), wk =   0.0092593
        k(   14) = (   0.0818898   0.3704749   0.2043970), wk =   0.0092593
        k(   15) = (   0.0808024   0.3704571   0.3499498), wk =   0.0092593
        k(   16) = (   0.0862396   0.3705461  -0.3778142), wk =   0.0092593
        k(   17) = (   0.0851522   0.3705283  -0.2322614), wk =   0.0092593
        k(   18) = (   0.0840647   0.3705105  -0.0867086), wk =   0.0092593
        k(   19) = (   0.0826833  -0.3750542   0.0763025), wk =   0.0092593
        k(   20) = (   0.0815959  -0.3750720   0.2218553), wk =   0.0092593
        k(   21) = (   0.0805085  -0.3750898   0.3674080), wk =   0.0092593
        k(   22) = (   0.0859457  -0.3750008  -0.3603559), wk =   0.0092593
        k(   23) = (   0.0848582  -0.3750186  -0.2148031), wk =   0.0092593
        k(   24) = (   0.0837708  -0.3750364  -0.0692503), wk =   0.0092593
        k(   25) = (   0.0827421  -0.2259448   0.0728108), wk =   0.0092593
        k(   26) = (   0.0816547  -0.2259626   0.2183636), wk =   0.0092593
        k(   27) = (   0.0805672  -0.2259804   0.3639164), wk =   0.0092593
        k(   28) = (   0.0860045  -0.2258914  -0.3638476), wk =   0.0092593
        k(   29) = (   0.0849170  -0.2259092  -0.2182948), wk =   0.0092593
        k(   30) = (   0.0838296  -0.2259270  -0.0727420), wk =   0.0092593
        k(   31) = (   0.0828009  -0.0768354   0.0693192), wk =   0.0092593
        k(   32) = (   0.0817135  -0.0768532   0.2148720), wk =   0.0092593
        k(   33) = (   0.0806260  -0.0768710   0.3604247), wk =   0.0092593
        k(   34) = (   0.0860633  -0.0767820  -0.3673392), wk =   0.0092593
        k(   35) = (   0.0849758  -0.0767998  -0.2217864), wk =   0.0092593
        k(   36) = (   0.0838884  -0.0768176  -0.0762336), wk =   0.0092593
        k(   37) = (   0.2496078   0.0677303   0.0554214), wk =   0.0092593
        k(   38) = (   0.2485203   0.0677125   0.2009742), wk =   0.0092593
        k(   39) = (   0.2474329   0.0676947   0.3465270), wk =   0.0092593
        k(   40) = (   0.2528701   0.0677837  -0.3812370), wk =   0.0092593
        k(   41) = (   0.2517827   0.0677659  -0.2356842), wk =   0.0092593
        k(   42) = (   0.2506952   0.0677481  -0.0901314), wk =   0.0092593
        k(   43) = (   0.2496666   0.2168397   0.0519297), wk =   0.0092593
        k(   44) = (   0.2485791   0.2168218   0.1974825), wk =   0.0092593
        k(   45) = (   0.2474917   0.2168040   0.3430353), wk =   0.0092593
        k(   46) = (   0.2529289   0.2168931  -0.3847287), wk =   0.0092593
        k(   47) = (   0.2518415   0.2168753  -0.2391759), wk =   0.0092593
        k(   48) = (   0.2507540   0.2168575  -0.0936231), wk =   0.0092593
        k(   49) = (   0.2497254   0.3659490   0.0484381), wk =   0.0092593
        k(   50) = (   0.2486379   0.3659312   0.1939909), wk =   0.0092593
        k(   51) = (   0.2475505   0.3659134   0.3395437), wk =   0.0092593
        k(   52) = (   0.2529877   0.3660025  -0.3882203), wk =   0.0092593
        k(   53) = (   0.2519002   0.3659847  -0.2426675), wk =   0.0092593
        k(   54) = (   0.2508128   0.3659668  -0.0971147), wk =   0.0092593
        k(   55) = (   0.2494314  -0.3795979   0.0658963), wk =   0.0092593
        k(   56) = (   0.2483440  -0.3796157   0.2114491), wk =   0.0092593
        k(   57) = (   0.2472565  -0.3796335   0.3570019), wk =   0.0092593
        k(   58) = (   0.2526938  -0.3795444  -0.3707621), wk =   0.0092593
        k(   59) = (   0.2516063  -0.3795622  -0.2252093), wk =   0.0092593
        k(   60) = (   0.2505189  -0.3795800  -0.0796565), wk =   0.0092593
        k(   61) = (   0.2494902  -0.2304885   0.0624047), wk =   0.0092593
        k(   62) = (   0.2484028  -0.2305063   0.2079575), wk =   0.0092593
        k(   63) = (   0.2473153  -0.2305241   0.3535103), wk =   0.0092593
        k(   64) = (   0.2527525  -0.2304350  -0.3742537), wk =   0.0092593
        k(   65) = (   0.2516651  -0.2304529  -0.2287009), wk =   0.0092593
        k(   66) = (   0.2505776  -0.2304707  -0.0831481), wk =   0.0092593
        k(   67) = (   0.2495490  -0.0813791   0.0589130), wk =   0.0092593
        k(   68) = (   0.2484615  -0.0813969   0.2044658), wk =   0.0092593
        k(   69) = (   0.2473741  -0.0814147   0.3500186), wk =   0.0092593
        k(   70) = (   0.2528113  -0.0813257  -0.3777454), wk =   0.0092593
        k(   71) = (   0.2517239  -0.0813435  -0.2321926), wk =   0.0092593
        k(   72) = (   0.2506364  -0.0813613  -0.0866398), wk =   0.0092593
        k(   73) = (   0.4163558   0.0631866   0.0450152), wk =   0.0092593
        k(   74) = (   0.4152684   0.0631688   0.1905680), wk =   0.0092593
        k(   75) = (   0.4141810   0.0631510   0.3361208), wk =   0.0092593
        k(   76) = (   0.4196182   0.0632400  -0.3916431), wk =   0.0092593
        k(   77) = (   0.4185307   0.0632222  -0.2460903), wk =   0.0092593
        k(   78) = (   0.4174433   0.0632044  -0.1005375), wk =   0.0092593
        k(   79) = (   0.4164146   0.2122960   0.0415236), wk =   0.0092593
        k(   80) = (   0.4153272   0.2122782   0.1870764), wk =   0.0092593
        k(   81) = (   0.4142397   0.2122604   0.3326292), wk =   0.0092593
        k(   82) = (   0.4196770   0.2123494  -0.3951348), wk =   0.0092593
        k(   83) = (   0.4185895   0.2123316  -0.2495820), wk =   0.0092593
        k(   84) = (   0.4175021   0.2123138  -0.1040292), wk =   0.0092593
        k(   85) = (   0.4164734   0.3614054   0.0380319), wk =   0.0092593
        k(   86) = (   0.4153860   0.3613876   0.1835847), wk =   0.0092593
        k(   87) = (   0.4142985   0.3613697   0.3291375), wk =   0.0092593
        k(   88) = (   0.4197358   0.3614588  -0.3986264), wk =   0.0092593
        k(   89) = (   0.4186483   0.3614410  -0.2530736), wk =   0.0092593
        k(   90) = (   0.4175609   0.3614232  -0.1075208), wk =   0.0092593
        k(   91) = (   0.4161795  -0.3841415   0.0554902), wk =   0.0092593
        k(   92) = (   0.4150920  -0.3841593   0.2010430), wk =   0.0092593
        k(   93) = (   0.4140046  -0.3841771   0.3465958), wk =   0.0092593
        k(   94) = (   0.4194418  -0.3840881  -0.3811682), wk =   0.0092593
        k(   95) = (   0.4183544  -0.3841059  -0.2356154), wk =   0.0092593
        k(   96) = (   0.4172669  -0.3841237  -0.0900626), wk =   0.0092593
        k(   97) = (   0.4162383  -0.2350321   0.0519985), wk =   0.0092593
        k(   98) = (   0.4151508  -0.2350500   0.1975513), wk =   0.0092593
        k(   99) = (   0.4140634  -0.2350678   0.3431041), wk =   0.0092593
        k(  100) = (   0.4195006  -0.2349787  -0.3846598), wk =   0.0092593
        k(  101) = (   0.4184132  -0.2349965  -0.2391070), wk =   0.0092593
        k(  102) = (   0.4173257  -0.2350143  -0.0935542), wk =   0.0092593
        k(  103) = (   0.4162971  -0.0859228   0.0485069), wk =   0.0092593
        k(  104) = (   0.4152096  -0.0859406   0.1940597), wk =   0.0092593
        k(  105) = (   0.4141222  -0.0859584   0.3396125), wk =   0.0092593
        k(  106) = (   0.4195594  -0.0858693  -0.3881515), wk =   0.0092593
        k(  107) = (   0.4184720  -0.0858871  -0.2425987), wk =   0.0092593
        k(  108) = (   0.4173845  -0.0859050  -0.0970459), wk =   0.0092593

                       cryst. coord.
        k(    1) = (   0.0833333   0.0833333   0.0833333), wk =   0.0092593
        k(    2) = (   0.0833333   0.0833333   0.2500000), wk =   0.0092593
        k(    3) = (   0.0833333   0.0833333   0.4166667), wk =   0.0092593
        k(    4) = (   0.0833333   0.0833333  -0.4166667), wk =   0.0092593
        k(    5) = (   0.0833333   0.0833333  -0.2500000), wk =   0.0092593
        k(    6) = (   0.0833333   0.0833333  -0.0833333), wk =   0.0092593
        k(    7) = (   0.0833333   0.2500000   0.0833333), wk =   0.0092593
        k(    8) = (   0.0833333   0.2500000   0.2500000), wk =   0.0092593
        k(    9) = (   0.0833333   0.2500000   0.4166667), wk =   0.0092593
        k(   10) = (   0.0833333   0.2500000  -0.4166667), wk =   0.0092593
        k(   11) = (   0.0833333   0.2500000  -0.2500000), wk =   0.0092593
        k(   12) = (   0.0833333   0.2500000  -0.0833333), wk =   0.0092593
        k(   13) = (   0.0833333   0.4166667   0.0833333), wk =   0.0092593
        k(   14) = (   0.0833333   0.4166667   0.2500000), wk =   0.0092593
        k(   15) = (   0.0833333   0.4166667   0.4166667), wk =   0.0092593
        k(   16) = (   0.0833333   0.4166667  -0.4166667), wk =   0.0092593
        k(   17) = (   0.0833333   0.4166667  -0.2500000), wk =   0.0092593
        k(   18) = (   0.0833333   0.4166667  -0.0833333), wk =   0.0092593
        k(   19) = (   0.0833333  -0.4166667   0.0833333), wk =   0.0092593
        k(   20) = (   0.0833333  -0.4166667   0.2500000), wk =   0.0092593
        k(   21) = (   0.0833333  -0.4166667   0.4166667), wk =   0.0092593
        k(   22) = (   0.0833333  -0.4166667  -0.4166667), wk =   0.0092593
        k(   23) = (   0.0833333  -0.4166667  -0.2500000), wk =   0.0092593
        k(   24) = (   0.0833333  -0.4166667  -0.0833333), wk =   0.0092593
        k(   25) = (   0.0833333  -0.2500000   0.0833333), wk =   0.0092593
        k(   26) = (   0.0833333  -0.2500000   0.2500000), wk =   0.0092593
        k(   27) = (   0.0833333  -0.2500000   0.4166667), wk =   0.0092593
        k(   28) = (   0.0833333  -0.2500000  -0.4166667), wk =   0.0092593
        k(   29) = (   0.0833333  -0.2500000  -0.2500000), wk =   0.0092593
        k(   30) = (   0.0833333  -0.2500000  -0.0833333), wk =   0.0092593
        k(   31) = (   0.0833333  -0.0833333   0.0833333), wk =   0.0092593
        k(   32) = (   0.0833333  -0.0833333   0.2500000), wk =   0.0092593
        k(   33) = (   0.0833333  -0.0833333   0.4166667), wk =   0.0092593
        k(   34) = (   0.0833333  -0.0833333  -0.4166667), wk =   0.0092593
        k(   35) = (   0.0833333  -0.0833333  -0.2500000), wk =   0.0092593
        k(   36) = (   0.0833333  -0.0833333  -0.0833333), wk =   0.0092593
        k(   37) = (   0.2500000   0.0833333   0.0833333), wk =   0.0092593
        k(   38) = (   0.2500000   0.0833333   0.2500000), wk =   0.0092593
        k(   39) = (   0.2500000   0.0833333   0.4166667), wk =   0.0092593
        k(   40) = (   0.2500000   0.0833333  -0.4166667), wk =   0.0092593
        k(   41) = (   0.2500000   0.0833333  -0.2500000), wk =   0.0092593
        k(   42) = (   0.2500000   0.0833333  -0.0833333), wk =   0.0092593
        k(   43) = (   0.2500000   0.2500000   0.0833333), wk =   0.0092593
        k(   44) = (   0.2500000   0.2500000   0.2500000), wk =   0.0092593
        k(   45) = (   0.2500000   0.2500000   0.4166667), wk =   0.0092593
        k(   46) = (   0.2500000   0.2500000  -0.4166667), wk =   0.0092593
        k(   47) = (   0.2500000   0.2500000  -0.2500000), wk =   0.0092593
        k(   48) = (   0.2500000   0.2500000  -0.0833333), wk =   0.0092593
        k(   49) = (   0.2500000   0.4166667   0.0833333), wk =   0.0092593
        k(   50) = (   0.2500000   0.4166667   0.2500000), wk =   0.0092593
        k(   51) = (   0.2500000   0.4166667   0.4166667), wk =   0.0092593
        k(   52) = (   0.2500000   0.4166667  -0.4166667), wk =   0.0092593
        k(   53) = (   0.2500000   0.4166667  -0.2500000), wk =   0.0092593
        k(   54) = (   0.2500000   0.4166667  -0.0833333), wk =   0.0092593
        k(   55) = (   0.2500000  -0.4166667   0.0833333), wk =   0.0092593
        k(   56) = (   0.2500000  -0.4166667   0.2500000), wk =   0.0092593
        k(   57) = (   0.2500000  -0.4166667   0.4166667), wk =   0.0092593
        k(   58) = (   0.2500000  -0.4166667  -0.4166667), wk =   0.0092593
        k(   59) = (   0.2500000  -0.4166667  -0.2500000), wk =   0.0092593
        k(   60) = (   0.2500000  -0.4166667  -0.0833333), wk =   0.0092593
        k(   61) = (   0.2500000  -0.2500000   0.0833333), wk =   0.0092593
        k(   62) = (   0.2500000  -0.2500000   0.2500000), wk =   0.0092593
        k(   63) = (   0.2500000  -0.2500000   0.4166667), wk =   0.0092593
        k(   64) = (   0.2500000  -0.2500000  -0.4166667), wk =   0.0092593
        k(   65) = (   0.2500000  -0.2500000  -0.2500000), wk =   0.0092593
        k(   66) = (   0.2500000  -0.2500000  -0.0833333), wk =   0.0092593
        k(   67) = (   0.2500000  -0.0833333   0.0833333), wk =   0.0092593
        k(   68) = (   0.2500000  -0.0833333   0.2500000), wk =   0.0092593
        k(   69) = (   0.2500000  -0.0833333   0.4166667), wk =   0.0092593
        k(   70) = (   0.2500000  -0.0833333  -0.4166667), wk =   0.0092593
        k(   71) = (   0.2500000  -0.0833333  -0.2500000), wk =   0.0092593
        k(   72) = (   0.2500000  -0.0833333  -0.0833333), wk =   0.0092593
        k(   73) = (   0.4166667   0.0833333   0.0833333), wk =   0.0092593
        k(   74) = (   0.4166667   0.0833333   0.2500000), wk =   0.0092593
        k(   75) = (   0.4166667   0.0833333   0.4166667), wk =   0.0092593
        k(   76) = (   0.4166667   0.0833333  -0.4166667), wk =   0.0092593
        k(   77) = (   0.4166667   0.0833333  -0.2500000), wk =   0.0092593
        k(   78) = (   0.4166667   0.0833333  -0.0833333), wk =   0.0092593
        k(   79) = (   0.4166667   0.2500000   0.0833333), wk =   0.0092593
        k(   80) = (   0.4166667   0.2500000   0.2500000), wk =   0.0092593
        k(   81) = (   0.4166667   0.2500000   0.4166667), wk =   0.0092593
        k(   82) = (   0.4166667   0.2500000  -0.4166667), wk =   0.0092593
        k(   83) = (   0.4166667   0.2500000  -0.2500000), wk =   0.0092593
        k(   84) = (   0.4166667   0.2500000  -0.0833333), wk =   0.0092593
        k(   85) = (   0.4166667   0.4166667   0.0833333), wk =   0.0092593
        k(   86) = (   0.4166667   0.4166667   0.2500000), wk =   0.0092593
        k(   87) = (   0.4166667   0.4166667   0.4166667), wk =   0.0092593
        k(   88) = (   0.4166667   0.4166667  -0.4166667), wk =   0.0092593
        k(   89) = (   0.4166667   0.4166667  -0.2500000), wk =   0.0092593
        k(   90) = (   0.4166667   0.4166667  -0.0833333), wk =   0.0092593
        k(   91) = (   0.4166667  -0.4166667   0.0833333), wk =   0.0092593
        k(   92) = (   0.4166667  -0.4166667   0.2500000), wk =   0.0092593
        k(   93) = (   0.4166667  -0.4166667   0.4166667), wk =   0.0092593
        k(   94) = (   0.4166667  -0.4166667  -0.4166667), wk =   0.0092593
        k(   95) = (   0.4166667  -0.4166667  -0.2500000), wk =   0.0092593
        k(   96) = (   0.4166667  -0.4166667  -0.0833333), wk =   0.0092593
        k(   97) = (   0.4166667  -0.2500000   0.0833333), wk =   0.0092593
        k(   98) = (   0.4166667  -0.2500000   0.2500000), wk =   0.0092593
        k(   99) = (   0.4166667  -0.2500000   0.4166667), wk =   0.0092593
        k(  100) = (   0.4166667  -0.2500000  -0.4166667), wk =   0.0092593
        k(  101) = (   0.4166667  -0.2500000  -0.2500000), wk =   0.0092593
        k(  102) = (   0.4166667  -0.2500000  -0.0833333), wk =   0.0092593
        k(  103) = (   0.4166667  -0.0833333   0.0833333), wk =   0.0092593
        k(  104) = (   0.4166667  -0.0833333   0.2500000), wk =   0.0092593
        k(  105) = (   0.4166667  -0.0833333   0.4166667), wk =   0.0092593
        k(  106) = (   0.4166667  -0.0833333  -0.4166667), wk =   0.0092593
        k(  107) = (   0.4166667  -0.0833333  -0.2500000), wk =   0.0092593
        k(  108) = (   0.4166667  -0.0833333  -0.0833333), wk =   0.0092593

     Dense  grid:   163223 G-vectors     FFT dimensions: (  64,  72,  72)

     Dynamical RAM for                 wfc:       1.28 MB

     Dynamical RAM for     wfc (w. buffer):     278.42 MB

     Dynamical RAM for             U proj.:       0.19 MB

     Dynamical RAM for  U proj. (w. buff.):      42.18 MB

     Dynamical RAM for           str. fact:       0.62 MB

     Dynamical RAM for           local pot:       0.00 MB

     Dynamical RAM for          nlocal pot:       3.97 MB

     Dynamical RAM for                qrad:      16.87 MB

     Dynamical RAM for          rho,v,vnew:       1.99 MB

     Dynamical RAM for               rhoin:       0.66 MB

     Dynamical RAM for            rho*nmix:       4.98 MB

     Dynamical RAM for           G-vectors:       0.66 MB

     Dynamical RAM for          h,s,v(r/c):       0.80 MB

     Dynamical RAM for          <psi|beta>:       0.21 MB

     Dynamical RAM for                 psi:       2.57 MB

     Dynamical RAM for                hpsi:       2.57 MB

     Dynamical RAM for      wfcinit/wfcrot:       2.67 MB

     Estimated static dynamical RAM per process >     347.21 MB

     Estimated max dynamical RAM per process >     358.32 MB

     Estimated total dynamical RAM >       5.60 GB
     Generating pointlists ...
     new r_m :   0.1745 (alat units)  1.5625 (a.u.) for type    1
     new r_m :   0.1745 (alat units)  1.5625 (a.u.) for type    2
     new r_m :   0.1559 (alat units)  1.3956 (a.u.) for type    3
     new r_m :   0.1559 (alat units)  1.3956 (a.u.) for type    4

     Initial potential from superposition of free atoms

     starting charge     109.9983, renormalised to     110.0000

     HUBBARD ENERGY =    0.0000  (Ry)

     STARTING HUBBARD OCCUPATIONS:

     =================== HUBBARD OCCUPATIONS ===================
     ------------------------ ATOM    1 ------------------------
     Tr[ns(  1)] (up, down, total) =   5.00000  0.00000  5.00000
     Atomic magnetic moment for atom   1 =   5.00000
     SPIN  1
     eigenvalues:
       1.000  1.000  1.000  1.000  1.000
     eigenvectors (columns):
       1.000  0.000  0.000  0.000  0.000
       0.000  1.000  0.000  0.000  0.000
       0.000  0.000  1.000  0.000  0.000
       0.000  0.000  0.000  1.000  0.000
       0.000  0.000  0.000  0.000  1.000
     occupation matrix ns (before diag.):
       1.000  0.000  0.000  0.000  0.000
       0.000  1.000  0.000  0.000  0.000
       0.000  0.000  1.000  0.000  0.000
       0.000  0.000  0.000  1.000  0.000
       0.000  0.000  0.000  0.000  1.000
     SPIN  2
     eigenvalues:
       0.000  0.000  0.000  0.000  0.000
     eigenvectors (columns):
       1.000  0.000  0.000  0.000  0.000
       0.000  1.000  0.000  0.000  0.000
       0.000  0.000  1.000  0.000  0.000
       0.000  0.000  0.000  1.000  0.000
       0.000  0.000  0.000  0.000  1.000
     occupation matrix ns (before diag.):
       0.000  0.000  0.000  0.000  0.000
       0.000  0.000  0.000  0.000  0.000
       0.000  0.000  0.000  0.000  0.000
       0.000  0.000  0.000  0.000  0.000
       0.000  0.000  0.000  0.000  0.000
     ------------------------ ATOM    2 ------------------------
     Tr[ns(  2)] (up, down, total) =   5.00000  5.00000 10.00000
     Atomic magnetic moment for atom   2 =   0.00000
     SPIN  1
     eigenvalues:
       1.000  1.000  1.000  1.000  1.000
     eigenvectors (columns):
       1.000  0.000  0.000  0.000  0.000
       0.000  1.000  0.000  0.000  0.000
       0.000  0.000  1.000  0.000  0.000
       0.000  0.000  0.000  1.000  0.000
       0.000  0.000  0.000  0.000  1.000
     occupation matrix ns (before diag.):
       1.000  0.000  0.000  0.000  0.000
       0.000  1.000  0.000  0.000  0.000
       0.000  0.000  1.000  0.000  0.000
       0.000  0.000  0.000  1.000  0.000
       0.000  0.000  0.000  0.000  1.000
     SPIN  2
     eigenvalues:
       1.000  1.000  1.000  1.000  1.000
     eigenvectors (columns):
       1.000  0.000  0.000  0.000  0.000
       0.000  1.000  0.000  0.000  0.000
       0.000  0.000  1.000  0.000  0.000
       0.000  0.000  0.000  1.000  0.000
       0.000  0.000  0.000  0.000  1.000
     occupation matrix ns (before diag.):
       1.000  0.000  0.000  0.000  0.000
       0.000  1.000  0.000  0.000  0.000
       0.000  0.000  1.000  0.000  0.000
       0.000  0.000  0.000  1.000  0.000
       0.000  0.000  0.000  0.000  1.000

     Number of occupied Hubbard levels =   15.0000

     Atomic wfc used for Hubbard projectors are orthogonalized

     Starting wfcs are   72 randomized atomic wfcs

     total cpu time spent up to now is       12.0 secs

     per-process dynamical memory:   407.8 Mb

     Self-consistent Calculation

     iteration #  1     ecut=   120.00 Ry     beta= 0.70
     Davidson diagonalization with overlap

---- Real-time Memory Report at c_bands before calling an iterative solver
           433 MiB given to the printing process from OS
           398 MiB allocation reported by mallinfo(arena+hblkhd)
        667915 MiB available memory on the node where the printing process lives
------------------
     ethr =  1.00E-02,  avg # of iterations =  2.1

     =================== HUBBARD OCCUPATIONS ===================
     ------------------------ ATOM    1 ------------------------
     Tr[ns(  1)] (up, down, total) =   4.96218  0.22082  5.18300
     Atomic magnetic moment for atom   1 =   4.74136
     SPIN  1
     eigenvalues:
       0.985  0.986  0.996  0.997  0.998
     eigenvectors (columns):
       0.185  0.282 -0.628  0.595  0.373
      -0.555 -0.755 -0.295  0.137  0.129
       0.540 -0.361  0.014 -0.390  0.652
       0.083  0.053 -0.720 -0.579 -0.370
       0.600 -0.467  0.007  0.375 -0.531
     occupation matrix ns (before diag.):
       0.995  0.003 -0.000 -0.001  0.000
       0.003  0.987  0.001  0.001  0.000
      -0.000  0.001  0.992 -0.000 -0.006
      -0.001  0.001 -0.000  0.996 -0.000
       0.000  0.000 -0.006 -0.000  0.991
     SPIN  2
     eigenvalues:
       0.018  0.021  0.031  0.060  0.091
     eigenvectors (columns):
      -0.019  0.836  0.362  0.411 -0.002
      -0.006  0.328  0.270 -0.905  0.005
       0.803  0.030 -0.026  0.002  0.595
       0.017 -0.438  0.892  0.107  0.039
      -0.596 -0.001 -0.025  0.001  0.803
     occupation matrix ns (before diag.):
       0.029 -0.013 -0.000  0.005 -0.000
      -0.013  0.053  0.000 -0.001  0.000
      -0.000  0.000  0.044  0.001  0.035
       0.005 -0.001  0.001  0.030  0.002
      -0.000  0.000  0.035  0.002  0.065
     ------------------------ ATOM    2 ------------------------
     Tr[ns(  2)] (up, down, total) =   4.98118  4.16749  9.14867
     Atomic magnetic moment for atom   2 =   0.81369
     SPIN  1
     eigenvalues:
       0.993  0.993  0.998  0.998  0.999
     eigenvectors (columns):
       0.200  0.284 -0.643  0.581  0.359
      -0.572 -0.739 -0.293  0.148  0.138
       0.535 -0.376  0.016 -0.385  0.652
       0.073  0.035 -0.708 -0.594 -0.373
       0.585 -0.480  0.007  0.373 -0.537
     occupation matrix ns (before diag.):
       0.998  0.002 -0.000 -0.000  0.000
       0.002  0.994  0.000  0.000  0.000
      -0.000  0.000  0.996 -0.000 -0.003
      -0.000  0.000 -0.000  0.998 -0.000
       0.000  0.000 -0.003 -0.000  0.995
     SPIN  2
     eigenvalues:
       0.246  0.948  0.991  0.991  0.992
     eigenvectors (columns):
      -0.006  0.384 -0.898  0.010  0.216
       0.012 -0.915 -0.402 -0.020 -0.041
       0.595  0.015  0.014 -0.799  0.083
       0.039  0.125 -0.181 -0.073 -0.972
       0.802 -0.001 -0.002  0.597 -0.013
     occupation matrix ns (before diag.):
       0.984  0.015  0.002 -0.002  0.003
       0.015  0.955 -0.005  0.005 -0.007
       0.002 -0.005  0.727 -0.017 -0.356
      -0.002  0.005 -0.017  0.990 -0.023
       0.003 -0.007 -0.356 -0.023  0.511

     Number of occupied Hubbard levels =   14.3317

     HUBBARD ENERGY =    0.1444  (Ry)

     total cpu time spent up to now is       41.9 secs

     total energy              =   -1162.69258037 Ry
     estimated scf accuracy    <       5.25860264 Ry

     total magnetization       =     6.00 Bohr mag/cell
     absolute magnetization    =     6.09 Bohr mag/cell

     iteration #  2     ecut=   120.00 Ry     beta= 0.70
     Davidson diagonalization with overlap

---- Real-time Memory Report at c_bands before calling an iterative solver
           442 MiB given to the printing process from OS
           405 MiB allocation reported by mallinfo(arena+hblkhd)
        672859 MiB available memory on the node where the printing process lives
------------------
     ethr =  4.78E-03,  avg # of iterations =  2.0

     =================== HUBBARD OCCUPATIONS ===================
     ------------------------ ATOM    1 ------------------------
     Tr[ns(  1)] (up, down, total) =   4.92719  0.29707  5.22426
     Atomic magnetic moment for atom   1 =   4.63013
     SPIN  1
     eigenvalues:
       0.964  0.978  0.993  0.995  0.996
     eigenvectors (columns):
       0.003  0.400  0.405 -0.815 -0.106
      -0.028 -0.909  0.284 -0.298 -0.053
       0.586 -0.005  0.001  0.105 -0.803
       0.037  0.110  0.868  0.474  0.090
       0.809 -0.034 -0.032 -0.106  0.576
     occupation matrix ns (before diag.):
       0.992  0.006  0.000 -0.001  0.000
       0.006  0.981  0.000  0.001  0.000
       0.000  0.000  0.985 -0.001 -0.015
      -0.001  0.001 -0.001  0.994 -0.001
       0.000  0.000 -0.015 -0.001  0.975
     SPIN  2
     eigenvalues:
       0.025  0.029  0.045  0.079  0.120
     eigenvectors (columns):
       0.012  0.866 -0.287  0.410 -0.004
       0.007  0.354 -0.229 -0.907  0.007
       0.803  0.001  0.032  0.003  0.594
       0.007 -0.354 -0.929  0.097  0.040
      -0.595  0.019  0.024  0.003  0.803
     occupation matrix ns (before diag.):
       0.038 -0.018 -0.000  0.006 -0.000
      -0.018  0.071  0.000 -0.001  0.000
      -0.000  0.000  0.059  0.002  0.045
       0.006 -0.001  0.002  0.043  0.003
      -0.000  0.000  0.045  0.003  0.086
     ------------------------ ATOM    2 ------------------------
     Tr[ns(  2)] (up, down, total) =   4.97533  4.08126  9.05658
     Atomic magnetic moment for atom   2 =   0.89407
     SPIN  1
     eigenvalues:
       0.990  0.992  0.997  0.998  0.998
     eigenvectors (columns):
       0.041 -0.420 -0.368  0.824 -0.092
      -0.106  0.893 -0.290  0.325 -0.051
       0.594  0.058  0.002 -0.088 -0.798
       0.050 -0.114 -0.883 -0.447  0.076
       0.795  0.105  0.034  0.095  0.589
     occupation matrix ns (before diag.):
       0.997  0.002 -0.000 -0.001  0.000
       0.002  0.993  0.000  0.000  0.000
      -0.000  0.000  0.995 -0.000 -0.004
      -0.001  0.000 -0.000  0.997 -0.000
       0.000  0.000 -0.004 -0.000  0.993
     SPIN  2
     eigenvalues:
       0.107  0.984  0.996  0.997  0.997
     eigenvectors (columns):
      -0.006 -0.406 -0.351 -0.843 -0.043
       0.012  0.902 -0.298 -0.310 -0.030
       0.597 -0.019 -0.001  0.046 -0.801
       0.039 -0.142 -0.887  0.434  0.058
       0.802  0.005  0.045 -0.057  0.594
     occupation matrix ns (before diag.):
       0.994  0.004  0.003 -0.001  0.004
       0.004  0.987 -0.006  0.001 -0.008
       0.003 -0.006  0.680 -0.021 -0.426
      -0.001  0.001 -0.021  0.994 -0.028
       0.004 -0.008 -0.426 -0.028  0.425

     Number of occupied Hubbard levels =   14.2808

     HUBBARD ENERGY =    0.1240  (Ry)

     total cpu time spent up to now is       71.1 secs

     total energy              =   -1163.57214801 Ry
     estimated scf accuracy    <       0.34475991 Ry

     total magnetization       =     6.00 Bohr mag/cell
     absolute magnetization    =     6.06 Bohr mag/cell

     iteration #  3     ecut=   120.00 Ry     beta= 0.70
     Davidson diagonalization with overlap

---- Real-time Memory Report at c_bands before calling an iterative solver
           442 MiB given to the printing process from OS
           406 MiB allocation reported by mallinfo(arena+hblkhd)
        671026 MiB available memory on the node where the printing process lives
------------------
     ethr =  3.13E-04,  avg # of iterations =  4.6

     =================== HUBBARD OCCUPATIONS ===================
     ------------------------ ATOM    1 ------------------------
     Tr[ns(  1)] (up, down, total) =   4.92387  0.27373  5.19760
     Atomic magnetic moment for atom   1 =   4.65013
     SPIN  1
     eigenvalues:
       0.962  0.977  0.993  0.995  0.996
     eigenvectors (columns):
       0.003  0.399  0.387 -0.823 -0.118
      -0.026 -0.911  0.266 -0.309 -0.058
       0.591 -0.004  0.007  0.118 -0.798
       0.037  0.098  0.882  0.448  0.101
       0.805 -0.032 -0.038 -0.114  0.580
     occupation matrix ns (before diag.):
       0.992  0.006  0.000 -0.001  0.000
       0.006  0.980  0.000  0.001  0.000
       0.000  0.000  0.984 -0.001 -0.016
      -0.001  0.001 -0.001  0.994 -0.001
       0.000  0.000 -0.016 -0.001  0.974
     SPIN  2
     eigenvalues:
       0.023  0.026  0.040  0.073  0.112
     eigenvectors (columns):
       0.037 -0.860 -0.305  0.408 -0.003
       0.018 -0.348 -0.232 -0.908  0.004
       0.801  0.022  0.031  0.002  0.598
      -0.005  0.372 -0.923  0.093  0.041
      -0.597 -0.036  0.024 -0.000  0.801
     occupation matrix ns (before diag.):
       0.035 -0.016 -0.000  0.006 -0.000
      -0.016  0.065 -0.000 -0.001  0.000
      -0.000 -0.000  0.055  0.002  0.043
       0.006 -0.001  0.002  0.039  0.002
      -0.000  0.000  0.043  0.002  0.080
     ------------------------ ATOM    2 ------------------------
     Tr[ns(  2)] (up, down, total) =   4.97741  4.09653  9.07394
     Atomic magnetic moment for atom   2 =   0.88087
     SPIN  1
     eigenvalues:
       0.992  0.993  0.997  0.998  0.998
     eigenvectors (columns):
       0.034 -0.425 -0.327  0.838 -0.093
      -0.092  0.892 -0.272  0.345 -0.050
       0.606  0.051 -0.000 -0.086 -0.789
       0.050 -0.111 -0.904 -0.403  0.075
       0.788  0.090  0.040  0.095  0.601
     occupation matrix ns (before diag.):
       0.997  0.002  0.000 -0.000  0.000
       0.002  0.994  0.000  0.000  0.000
       0.000  0.000  0.996 -0.000 -0.003
      -0.000  0.000 -0.000  0.997 -0.000
       0.000  0.000 -0.003 -0.000  0.994
     SPIN  2
     eigenvalues:
       0.113  0.990  0.997  0.998  0.998
     eigenvectors (columns):
      -0.006 -0.411 -0.340 -0.843 -0.069
       0.012  0.902 -0.286 -0.321 -0.042
       0.597 -0.020 -0.002  0.072 -0.799
       0.039 -0.131 -0.895  0.419  0.072
       0.801  0.005  0.046 -0.076  0.592
     occupation matrix ns (before diag.):
       0.996  0.003  0.003 -0.000  0.004
       0.003  0.991 -0.006  0.000 -0.008
       0.003 -0.006  0.682 -0.021 -0.423
      -0.000  0.000 -0.021  0.996 -0.028
       0.004 -0.008 -0.423 -0.028  0.431

     Number of occupied Hubbard levels =   14.2715

     HUBBARD ENERGY =    0.1031  (Ry)

     total cpu time spent up to now is      100.5 secs

     total energy              =   -1163.57181993 Ry
     estimated scf accuracy    <       0.09299793 Ry

     total magnetization       =     6.00 Bohr mag/cell
     absolute magnetization    =     6.05 Bohr mag/cell

     iteration #  4     ecut=   120.00 Ry     beta= 0.70
     Davidson diagonalization with overlap

---- Real-time Memory Report at c_bands before calling an iterative solver
           443 MiB given to the printing process from OS
           406 MiB allocation reported by mallinfo(arena+hblkhd)
        670992 MiB available memory on the node where the printing process lives
------------------
     ethr =  8.45E-05,  avg # of iterations =  6.6

     =================== HUBBARD OCCUPATIONS ===================
     ------------------------ ATOM    1 ------------------------
     Tr[ns(  1)] (up, down, total) =   4.91951  0.25846  5.17797
     Atomic magnetic moment for atom   1 =   4.66105
     SPIN  1
     eigenvalues:
       0.959  0.976  0.993  0.995  0.996
     eigenvectors (columns):
      -0.001 -0.401 -0.408 -0.811 -0.123
      -0.021  0.911 -0.271 -0.305 -0.060
       0.594  0.001 -0.007  0.123 -0.795
       0.036 -0.095 -0.871  0.468  0.107
       0.803  0.027  0.037 -0.121  0.581
     occupation matrix ns (before diag.):
       0.992  0.007  0.000 -0.001  0.000
       0.007  0.979  0.000  0.001  0.000
       0.000  0.000  0.983 -0.001 -0.018
      -0.001  0.001 -0.001  0.993 -0.001
       0.000  0.000 -0.018 -0.001  0.972
     SPIN  2
     eigenvalues:
       0.021  0.024  0.038  0.069  0.107
     eigenvectors (columns):
       0.040 -0.854 -0.318  0.410 -0.003
       0.019 -0.345 -0.241 -0.907  0.004
       0.799  0.025  0.030  0.002  0.599
      -0.008  0.387 -0.916  0.097  0.040
      -0.599 -0.039  0.024 -0.001  0.799
     occupation matrix ns (before diag.):
       0.033 -0.016 -0.000  0.006 -0.000
      -0.016  0.062 -0.000 -0.001  0.000
      -0.000 -0.000  0.052  0.002  0.041
       0.006 -0.001  0.002  0.036  0.002
      -0.000  0.000  0.041  0.002  0.076
     ------------------------ ATOM    2 ------------------------
     Tr[ns(  2)] (up, down, total) =   4.97793  4.12376  9.10169
     Atomic magnetic moment for atom   2 =   0.85416
     SPIN  1
     eigenvalues:
       0.992  0.993  0.997  0.998  0.998
     eigenvectors (columns):
       0.015 -0.424 -0.320  0.844 -0.073
      -0.054  0.897 -0.264  0.348 -0.041
       0.615  0.026 -0.000 -0.065 -0.785
       0.046 -0.109 -0.909 -0.394  0.065
       0.785  0.055  0.042  0.082  0.610
     occupation matrix ns (before diag.):
       0.997  0.002  0.000 -0.000  0.000
       0.002  0.994  0.000  0.000  0.000
       0.000  0.000  0.996 -0.000 -0.003
      -0.000  0.000 -0.000  0.997 -0.000
       0.000  0.000 -0.003 -0.000  0.994
     SPIN  2
     eigenvalues:
       0.138  0.992  0.997  0.998  0.998
     eigenvectors (columns):
      -0.007 -0.407 -0.319 -0.855 -0.053
       0.011  0.905 -0.265 -0.330 -0.038
       0.599 -0.021  0.000  0.055 -0.799
       0.039 -0.121 -0.909  0.392  0.059
       0.800  0.006  0.045 -0.063  0.595
     occupation matrix ns (before diag.):
       0.997  0.002  0.003 -0.000  0.005
       0.002  0.993 -0.006  0.000 -0.008
       0.003 -0.006  0.690 -0.020 -0.412
      -0.000  0.000 -0.020  0.996 -0.027
       0.005 -0.008 -0.412 -0.027  0.448

     Number of occupied Hubbard levels =   14.2797

     HUBBARD ENERGY =    0.1101  (Ry)

     total cpu time spent up to now is      136.2 secs

     total energy              =   -1163.58148987 Ry
     estimated scf accuracy    <       0.01121943 Ry

     total magnetization       =     6.00 Bohr mag/cell
     absolute magnetization    =     6.06 Bohr mag/cell

     iteration #  5     ecut=   120.00 Ry     beta= 0.70
     Davidson diagonalization with overlap

---- Real-time Memory Report at c_bands before calling an iterative solver
           444 MiB given to the printing process from OS
           407 MiB allocation reported by mallinfo(arena+hblkhd)
        670016 MiB available memory on the node where the printing process lives
------------------
     c_bands:  1 eigenvalues not converged
     c_bands:  1 eigenvalues not converged
     c_bands:  1 eigenvalues not converged
     c_bands:  1 eigenvalues not converged
     c_bands:  1 eigenvalues not converged
     ethr =  1.02E-05,  avg # of iterations =  6.8

     =================== HUBBARD OCCUPATIONS ===================
     ------------------------ ATOM    1 ------------------------
     Tr[ns(  1)] (up, down, total) =   4.91827  0.25895  5.17723
     Atomic magnetic moment for atom   1 =   4.65932
     SPIN  1
     eigenvalues:
       0.958  0.976  0.993  0.995  0.996
     eigenvectors (columns):
      -0.001 -0.401 -0.422 -0.803 -0.127
      -0.020  0.911 -0.275 -0.301 -0.061
       0.596  0.001 -0.007  0.128 -0.792
       0.036 -0.093 -0.863  0.482  0.113
       0.802  0.026  0.037 -0.126  0.583
     occupation matrix ns (before diag.):
       0.992  0.007  0.000 -0.001  0.000
       0.007  0.979  0.000  0.001  0.000
       0.000  0.000  0.983 -0.001 -0.018
      -0.001  0.001 -0.001  0.993 -0.001
       0.000  0.000 -0.018 -0.001  0.972
     SPIN  2
     eigenvalues:
       0.021  0.024  0.038  0.069  0.107
     eigenvectors (columns):
       0.042 -0.853 -0.320  0.410 -0.003
       0.020 -0.345 -0.241 -0.907  0.004
       0.799  0.027  0.030  0.002  0.600
      -0.009  0.389 -0.915  0.096  0.040
      -0.599 -0.041  0.024 -0.001  0.799
     occupation matrix ns (before diag.):
       0.033 -0.016 -0.000  0.006 -0.000
      -0.016  0.062 -0.000 -0.001  0.000
      -0.000 -0.000  0.052  0.002  0.041
       0.006 -0.001  0.002  0.036  0.002
      -0.000  0.000  0.041  0.002  0.076
     ------------------------ ATOM    2 ------------------------
     Tr[ns(  2)] (up, down, total) =   4.97782  4.15869  9.13651
     Atomic magnetic moment for atom   2 =   0.81913
     SPIN  1
     eigenvalues:
       0.992  0.994  0.997  0.998  0.998
     eigenvectors (columns):
       0.010 -0.421 -0.308  0.851 -0.056
      -0.046  0.899 -0.253  0.352 -0.034
       0.617  0.021 -0.000 -0.049 -0.785
       0.046 -0.105 -0.916 -0.380  0.057
       0.784  0.049  0.043  0.070  0.613
     occupation matrix ns (before diag.):
       0.997  0.001  0.000 -0.000  0.000
       0.001  0.994  0.000  0.000  0.000
       0.000  0.000  0.996 -0.000 -0.003
      -0.000  0.000 -0.000  0.997 -0.000
       0.000  0.000 -0.003 -0.000  0.994
     SPIN  2
     eigenvalues:
       0.173  0.993  0.997  0.998  0.998
     eigenvectors (columns):
      -0.007 -0.405 -0.310 -0.860 -0.036
       0.011  0.907 -0.255 -0.334 -0.031
       0.600 -0.021 -0.001  0.039 -0.799
       0.039 -0.115 -0.915  0.382  0.052
       0.799  0.005  0.046 -0.051  0.597
     occupation matrix ns (before diag.):
       0.997  0.002  0.003 -0.000  0.005
       0.002  0.994 -0.005 -0.000 -0.007
       0.003 -0.005  0.701 -0.020 -0.395
      -0.000 -0.000 -0.020  0.996 -0.026
       0.005 -0.007 -0.395 -0.026  0.471

     Number of occupied Hubbard levels =   14.3137

     HUBBARD ENERGY =    0.1210  (Ry)

     total cpu time spent up to now is      174.5 secs

     total energy              =   -1163.58368074 Ry
     estimated scf accuracy    <       0.00228257 Ry

     total magnetization       =     6.00 Bohr mag/cell
     absolute magnetization    =     6.07 Bohr mag/cell

     iteration #  6     ecut=   120.00 Ry     beta= 0.70
     Davidson diagonalization with overlap

---- Real-time Memory Report at c_bands before calling an iterative solver
           444 MiB given to the printing process from OS
           408 MiB allocation reported by mallinfo(arena+hblkhd)
        672697 MiB available memory on the node where the printing process lives
------------------
     ethr =  2.08E-06,  avg # of iterations =  4.9

     =================== HUBBARD OCCUPATIONS ===================
     ------------------------ ATOM    1 ------------------------
     Tr[ns(  1)] (up, down, total) =   4.92005  0.25928  5.17933
     Atomic magnetic moment for atom   1 =   4.66077
     SPIN  1
     eigenvalues:
       0.959  0.976  0.993  0.995  0.996
     eigenvectors (columns):
      -0.001  0.401  0.426 -0.801 -0.131
      -0.023 -0.911  0.275 -0.300 -0.062
       0.598 -0.002  0.007  0.132 -0.791
       0.036  0.091  0.861  0.485  0.116
       0.801 -0.029 -0.037 -0.129  0.583
     occupation matrix ns (before diag.):
       0.992  0.007  0.000 -0.001  0.000
       0.007  0.979  0.000  0.001  0.000
       0.000  0.000  0.983 -0.001 -0.018
      -0.001  0.001 -0.001  0.993 -0.001
       0.000  0.000 -0.018 -0.001  0.973
     SPIN  2
     eigenvalues:
       0.021  0.024  0.038  0.069  0.107
     eigenvectors (columns):
       0.040 -0.852 -0.322  0.410 -0.003
       0.020 -0.344 -0.241 -0.907  0.004
       0.799  0.026  0.029  0.002  0.600
      -0.009  0.390 -0.915  0.095  0.040
      -0.599 -0.040  0.024 -0.000  0.799
     occupation matrix ns (before diag.):
       0.033 -0.016 -0.000  0.006 -0.000
      -0.016  0.062 -0.000 -0.001  0.000
      -0.000 -0.000  0.052  0.002  0.041
       0.006 -0.001  0.002  0.036  0.002
      -0.000  0.000  0.041  0.002  0.076
     ------------------------ ATOM    2 ------------------------
     Tr[ns(  2)] (up, down, total) =   4.97811  4.18188  9.15999
     Atomic magnetic moment for atom   2 =   0.79623
     SPIN  1
     eigenvalues:
       0.992  0.994  0.997  0.998  0.998
     eigenvectors (columns):
       0.012 -0.419 -0.309  0.852 -0.058
      -0.050  0.900 -0.251  0.350 -0.035
       0.618  0.023 -0.001 -0.050 -0.784
       0.046 -0.104 -0.916 -0.379  0.058
       0.783  0.052  0.043  0.072  0.614
     occupation matrix ns (before diag.):
       0.997  0.001  0.000 -0.000  0.000
       0.001  0.994  0.000  0.000  0.000
       0.000  0.000  0.996 -0.000 -0.003
      -0.000  0.000 -0.000  0.997 -0.000
       0.000  0.000 -0.003 -0.000  0.994
     SPIN  2
     eigenvalues:
       0.196  0.993  0.997  0.998  0.998
     eigenvectors (columns):
      -0.007 -0.403 -0.311 -0.860 -0.034
       0.011  0.908 -0.253 -0.332 -0.031
       0.601 -0.021 -0.001  0.036 -0.798
       0.039 -0.114 -0.915  0.382  0.051
       0.798  0.005  0.046 -0.050  0.598
     occupation matrix ns (before diag.):
       0.997  0.002  0.003 -0.000  0.005
       0.002  0.994 -0.005 -0.000 -0.007
       0.003 -0.005  0.709 -0.019 -0.385
      -0.000 -0.000 -0.019  0.996 -0.025
       0.005 -0.007 -0.385 -0.025  0.487

     Number of occupied Hubbard levels =   14.3393

     HUBBARD ENERGY =    0.1248  (Ry)

     total cpu time spent up to now is      203.7 secs

     total energy              =   -1163.58076544 Ry
     estimated scf accuracy    <       0.00048309 Ry

     total magnetization       =     6.00 Bohr mag/cell
     absolute magnetization    =     6.06 Bohr mag/cell

     iteration #  7     ecut=   120.00 Ry     beta= 0.70
     Davidson diagonalization with overlap

---- Real-time Memory Report at c_bands before calling an iterative solver
           445 MiB given to the printing process from OS
           408 MiB allocation reported by mallinfo(arena+hblkhd)
        669989 MiB available memory on the node where the printing process lives
------------------
     ethr =  4.39E-07,  avg # of iterations =  2.1
     Minimization algorithm failed to find Fermi energy: reverting to bisection
     Possible cause: smearing is larger than the electronic band-gap.

     =================== HUBBARD OCCUPATIONS ===================
     ------------------------ ATOM    1 ------------------------
     Tr[ns(  1)] (up, down, total) =   4.91839  0.25820  5.17659
     Atomic magnetic moment for atom   1 =   4.66018
     SPIN  1
     eigenvalues:
       0.958  0.976  0.993  0.995  0.996
     eigenvectors (columns):
      -0.002 -0.404 -0.421 -0.801 -0.134
      -0.022  0.909 -0.277 -0.302 -0.065
       0.589 -0.000 -0.006  0.136 -0.797
       0.038 -0.094 -0.863  0.482  0.117
       0.807  0.028  0.037 -0.132  0.574
     occupation matrix ns (before diag.):
       0.992  0.007  0.000 -0.001  0.000
       0.007  0.979  0.001  0.001  0.000
       0.000  0.001  0.983 -0.001 -0.018
      -0.001  0.001 -0.001  0.993 -0.001
       0.000  0.000 -0.018 -0.001  0.971
     SPIN  2
     eigenvalues:
       0.021  0.024  0.038  0.069  0.107
     eigenvectors (columns):
       0.041 -0.852 -0.322  0.410 -0.003
       0.020 -0.344 -0.242 -0.907  0.004
       0.799  0.027  0.030  0.002  0.600
      -0.009  0.391 -0.915  0.095  0.040
      -0.599 -0.041  0.024 -0.001  0.799
     occupation matrix ns (before diag.):
       0.033 -0.016 -0.000  0.006 -0.000
      -0.016  0.062 -0.000 -0.001  0.000
      -0.000 -0.000  0.052  0.002  0.041
       0.006 -0.001  0.002  0.036  0.002
      -0.000  0.000  0.041  0.002  0.076
     ------------------------ ATOM    2 ------------------------
     Tr[ns(  2)] (up, down, total) =   4.97819  4.18953  9.16772
     Atomic magnetic moment for atom   2 =   0.78866
     SPIN  1
     eigenvalues:
       0.992  0.994  0.997  0.998  0.998
     eigenvectors (columns):
       0.013 -0.420 -0.312  0.850 -0.062
      -0.053  0.900 -0.254  0.349 -0.037
       0.617  0.025 -0.001 -0.055 -0.785
       0.046 -0.104 -0.914 -0.384  0.061
       0.784  0.054  0.043  0.075  0.613
     occupation matrix ns (before diag.):
       0.997  0.001  0.000 -0.000  0.000
       0.001  0.994  0.000  0.000  0.000
       0.000  0.000  0.996 -0.000 -0.003
      -0.000  0.000 -0.000  0.997 -0.000
       0.000  0.000 -0.003 -0.000  0.994
     SPIN  2
     eigenvalues:
       0.204  0.993  0.997  0.998  0.998
     eigenvectors (columns):
      -0.008 -0.403 -0.311 -0.860 -0.034
       0.011  0.908 -0.254 -0.332 -0.031
       0.601 -0.021 -0.001  0.037 -0.798
       0.040 -0.114 -0.915  0.382  0.052
       0.798  0.005  0.047 -0.050  0.599
     occupation matrix ns (before diag.):
       0.997  0.002  0.004 -0.000  0.005
       0.002  0.994 -0.005 -0.000 -0.007
       0.004 -0.005  0.711 -0.019 -0.381
      -0.000 -0.000 -0.019  0.996 -0.025
       0.005 -0.007 -0.381 -0.025  0.492

     Number of occupied Hubbard levels =   14.3443

     HUBBARD ENERGY =    0.1284  (Ry)

     total cpu time spent up to now is      229.8 secs

     total energy              =   -1163.58448352 Ry
     estimated scf accuracy    <       0.00016466 Ry

     total magnetization       =     6.00 Bohr mag/cell
     absolute magnetization    =     6.07 Bohr mag/cell

     iteration #  8     ecut=   120.00 Ry     beta= 0.70
     Davidson diagonalization with overlap

---- Real-time Memory Report at c_bands before calling an iterative solver
           446 MiB given to the printing process from OS
           409 MiB allocation reported by mallinfo(arena+hblkhd)
        667553 MiB available memory on the node where the printing process lives
------------------
     ethr =  1.50E-07,  avg # of iterations =  2.5
     Minimization algorithm failed to find Fermi energy: reverting to bisection
     Possible cause: smearing is larger than the electronic band-gap.

     =================== HUBBARD OCCUPATIONS ===================
     ------------------------ ATOM    1 ------------------------
     Tr[ns(  1)] (up, down, total) =   4.91818  0.25765  5.17582
     Atomic magnetic moment for atom   1 =   4.66053
     SPIN  1
     eigenvalues:
       0.958  0.976  0.993  0.995  0.996
     eigenvectors (columns):
      -0.002 -0.404 -0.421 -0.801 -0.135
      -0.022  0.909 -0.277 -0.302 -0.066
       0.589 -0.000 -0.006  0.136 -0.797
       0.038 -0.094 -0.863  0.481  0.117
       0.807  0.028  0.037 -0.132  0.574
     occupation matrix ns (before diag.):
       0.992  0.007  0.000 -0.001  0.000
       0.007  0.979  0.001  0.001  0.000
       0.000  0.001  0.983 -0.001 -0.018
      -0.001  0.001 -0.001  0.993 -0.001
       0.000  0.000 -0.018 -0.001  0.971
     SPIN  2
     eigenvalues:
       0.021  0.024  0.038  0.069  0.107
     eigenvectors (columns):
       0.041 -0.852 -0.323  0.410 -0.003
       0.020 -0.344 -0.242 -0.907  0.004
       0.799  0.027  0.029  0.002  0.600
      -0.010  0.391 -0.914  0.095  0.040
      -0.599 -0.041  0.024 -0.001  0.799
     occupation matrix ns (before diag.):
       0.033 -0.016 -0.000  0.006 -0.000
      -0.016  0.061 -0.000 -0.001  0.000
      -0.000 -0.000  0.052  0.002  0.041
       0.006 -0.001  0.002  0.036  0.002
      -0.000  0.000  0.041  0.002  0.076
     ------------------------ ATOM    2 ------------------------
     Tr[ns(  2)] (up, down, total) =   4.97833  4.19556  9.17390
     Atomic magnetic moment for atom   2 =   0.78277
     SPIN  1
     eigenvalues:
       0.992  0.994  0.997  0.998  0.998
     eigenvectors (columns):
       0.015 -0.419 -0.314  0.849 -0.065
      -0.056  0.900 -0.256  0.348 -0.038
       0.617  0.027 -0.001 -0.058 -0.784
       0.047 -0.105 -0.913 -0.386  0.062
       0.783  0.057  0.043  0.077  0.612
     occupation matrix ns (before diag.):
       0.997  0.001  0.000 -0.000  0.000
       0.001  0.994  0.000  0.000  0.000
       0.000  0.000  0.996 -0.000 -0.003
      -0.000  0.000 -0.000  0.997 -0.000
       0.000  0.000 -0.003 -0.000  0.994
     SPIN  2
     eigenvalues:
       0.210  0.993  0.997  0.998  0.998
     eigenvectors (columns):
      -0.008 -0.403 -0.312 -0.860 -0.035
       0.011  0.908 -0.254 -0.332 -0.031
       0.602 -0.021 -0.001  0.037 -0.797
       0.040 -0.115 -0.914  0.383  0.052
       0.797  0.005  0.047 -0.052  0.600
     occupation matrix ns (before diag.):
       0.997  0.002  0.004 -0.000  0.005
       0.002  0.994 -0.005  0.000 -0.007
       0.004 -0.005  0.712 -0.019 -0.379
      -0.000  0.000 -0.019  0.996 -0.025
       0.005 -0.007 -0.379 -0.025  0.497

     Number of occupied Hubbard levels =   14.3497

     HUBBARD ENERGY =    0.1284  (Ry)

     total cpu time spent up to now is      259.7 secs

     total energy              =   -1163.58454919 Ry
     estimated scf accuracy    <       0.00000620 Ry

     total magnetization       =     6.00 Bohr mag/cell
     absolute magnetization    =     6.07 Bohr mag/cell

     iteration #  9     ecut=   120.00 Ry     beta= 0.70
     Davidson diagonalization with overlap

---- Real-time Memory Report at c_bands before calling an iterative solver
           446 MiB given to the printing process from OS
           410 MiB allocation reported by mallinfo(arena+hblkhd)
        672667 MiB available memory on the node where the printing process lives
------------------
     ethr =  5.64E-09,  avg # of iterations =  4.9
     Minimization algorithm failed to find Fermi energy: reverting to bisection
     Possible cause: smearing is larger than the electronic band-gap.

     =================== HUBBARD OCCUPATIONS ===================
     ------------------------ ATOM    1 ------------------------
     Tr[ns(  1)] (up, down, total) =   4.91815  0.25763  5.17578
     Atomic magnetic moment for atom   1 =   4.66051
     SPIN  1
     eigenvalues:
       0.958  0.976  0.993  0.995  0.996
     eigenvectors (columns):
      -0.002 -0.404 -0.422 -0.800 -0.135
      -0.022  0.909 -0.277 -0.302 -0.066
       0.589 -0.000 -0.006  0.136 -0.797
       0.038 -0.094 -0.862  0.482  0.117
       0.807  0.028  0.037 -0.132  0.574
     occupation matrix ns (before diag.):
       0.992  0.007  0.000 -0.001  0.000
       0.007  0.979  0.001  0.001  0.000
       0.000  0.001  0.983 -0.001 -0.018
      -0.001  0.001 -0.001  0.993 -0.001
       0.000  0.000 -0.018 -0.001  0.971
     SPIN  2
     eigenvalues:
       0.021  0.024  0.038  0.069  0.107
     eigenvectors (columns):
       0.041 -0.852 -0.322  0.410 -0.003
       0.020 -0.344 -0.242 -0.907  0.004
       0.799  0.026  0.029  0.002  0.600
      -0.009  0.391 -0.914  0.095  0.040
      -0.599 -0.040  0.024 -0.001  0.799
     occupation matrix ns (before diag.):
       0.033 -0.016 -0.000  0.006 -0.000
      -0.016  0.061 -0.000 -0.001  0.000
      -0.000 -0.000  0.052  0.002  0.041
       0.006 -0.001  0.002  0.036  0.002
      -0.000  0.000  0.041  0.002  0.076
     ------------------------ ATOM    2 ------------------------
     Tr[ns(  2)] (up, down, total) =   4.97835  4.19618  9.17453
     Atomic magnetic moment for atom   2 =   0.78218
     SPIN  1
     eigenvalues:
       0.992  0.994  0.997  0.998  0.998
     eigenvectors (columns):
       0.015 -0.419 -0.316  0.849 -0.066
      -0.057  0.900 -0.256  0.347 -0.039
       0.617  0.027 -0.001 -0.058 -0.784
       0.047 -0.105 -0.913 -0.387  0.063
       0.783  0.058  0.043  0.078  0.612
     occupation matrix ns (before diag.):
       0.997  0.001  0.000 -0.000  0.000
       0.001  0.994  0.000  0.000  0.000
       0.000  0.000  0.996 -0.000 -0.003
      -0.000  0.000 -0.000  0.997 -0.000
       0.000  0.000 -0.003 -0.000  0.994
     SPIN  2
     eigenvalues:
       0.210  0.993  0.997  0.998  0.998
     eigenvectors (columns):
      -0.008 -0.402 -0.313 -0.860 -0.036
       0.011  0.908 -0.254 -0.331 -0.031
       0.603 -0.021 -0.001  0.038 -0.797
       0.040 -0.115 -0.914  0.384  0.053
       0.797  0.005  0.047 -0.052  0.600
     occupation matrix ns (before diag.):
       0.997  0.002  0.004 -0.000  0.005
       0.002  0.994 -0.005  0.000 -0.007
       0.004 -0.005  0.712 -0.019 -0.378
      -0.000  0.000 -0.019  0.996 -0.025
       0.005 -0.007 -0.378 -0.025  0.498

     Number of occupied Hubbard levels =   14.3503

     HUBBARD ENERGY =    0.1285  (Ry)

     total cpu time spent up to now is      298.3 secs

     total energy              =   -1163.58455274 Ry
     estimated scf accuracy    <       0.00000216 Ry

     total magnetization       =     6.00 Bohr mag/cell
     absolute magnetization    =     6.07 Bohr mag/cell

     iteration # 10     ecut=   120.00 Ry     beta= 0.70
     Davidson diagonalization with overlap

---- Real-time Memory Report at c_bands before calling an iterative solver
           447 MiB given to the printing process from OS
           410 MiB allocation reported by mallinfo(arena+hblkhd)
        671798 MiB available memory on the node where the printing process lives
------------------
     ethr =  1.96E-09,  avg # of iterations =  2.1
     Minimization algorithm failed to find Fermi energy: reverting to bisection
     Possible cause: smearing is larger than the electronic band-gap.

     =================== HUBBARD OCCUPATIONS ===================
     ------------------------ ATOM    1 ------------------------
     Tr[ns(  1)] (up, down, total) =   4.91817  0.25767  5.17585
     Atomic magnetic moment for atom   1 =   4.66050
     SPIN  1
     eigenvalues:
       0.958  0.976  0.993  0.995  0.996
     eigenvectors (columns):
      -0.002 -0.404 -0.422 -0.800 -0.135
      -0.022  0.909 -0.277 -0.302 -0.066
       0.589 -0.000 -0.006  0.136 -0.797
       0.038 -0.094 -0.862  0.482  0.117
       0.807  0.028  0.037 -0.132  0.574
     occupation matrix ns (before diag.):
       0.992  0.007  0.000 -0.001  0.000
       0.007  0.979  0.001  0.001  0.000
       0.000  0.001  0.983 -0.001 -0.018
      -0.001  0.001 -0.001  0.993 -0.001
       0.000  0.000 -0.018 -0.001  0.971
     SPIN  2
     eigenvalues:
       0.021  0.024  0.038  0.069  0.107
     eigenvectors (columns):
       0.041 -0.852 -0.322  0.410 -0.003
       0.020 -0.344 -0.242 -0.907  0.004
       0.799  0.026  0.029  0.002  0.600
      -0.009  0.391 -0.914  0.095  0.040
      -0.599 -0.040  0.024 -0.001  0.799
     occupation matrix ns (before diag.):
       0.033 -0.016 -0.000  0.006 -0.000
      -0.016  0.061 -0.000 -0.001  0.000
      -0.000 -0.000  0.052  0.002  0.041
       0.006 -0.001  0.002  0.036  0.002
      -0.000  0.000  0.041  0.002  0.076
     ------------------------ ATOM    2 ------------------------
     Tr[ns(  2)] (up, down, total) =   4.97835  4.19652  9.17487
     Atomic magnetic moment for atom   2 =   0.78184
     SPIN  1
     eigenvalues:
       0.992  0.994  0.997  0.998  0.998
     eigenvectors (columns):
       0.015 -0.419 -0.316  0.849 -0.066
      -0.057  0.900 -0.256  0.347 -0.038
       0.617  0.028 -0.001 -0.058 -0.784
       0.047 -0.105 -0.913 -0.387  0.063
       0.783  0.058  0.043  0.078  0.613
     occupation matrix ns (before diag.):
       0.997  0.001  0.000 -0.000  0.000
       0.001  0.994  0.000  0.000  0.000
       0.000  0.000  0.996 -0.000 -0.003
      -0.000  0.000 -0.000  0.997 -0.000
       0.000  0.000 -0.003 -0.000  0.994
     SPIN  2
     eigenvalues:
       0.211  0.993  0.997  0.998  0.998
     eigenvectors (columns):
      -0.008 -0.402 -0.313 -0.860 -0.036
       0.010  0.908 -0.254 -0.331 -0.031
       0.603 -0.021 -0.001  0.037 -0.796
       0.040 -0.115 -0.914  0.384  0.053
       0.796  0.005  0.047 -0.052  0.601
     occupation matrix ns (before diag.):
       0.997  0.002  0.004 -0.000  0.005
       0.002  0.994 -0.005  0.000 -0.007
       0.004 -0.005  0.711 -0.019 -0.378
      -0.000  0.000 -0.019  0.996 -0.025
       0.005 -0.007 -0.378 -0.025  0.499

     Number of occupied Hubbard levels =   14.3507

     HUBBARD ENERGY =    0.1286  (Ry)

     total cpu time spent up to now is      324.5 secs

     total energy              =   -1163.58455346 Ry
     estimated scf accuracy    <       0.00000073 Ry

     total magnetization       =     6.00 Bohr mag/cell
     absolute magnetization    =     6.07 Bohr mag/cell

     iteration # 11     ecut=   120.00 Ry     beta= 0.70
     Davidson diagonalization with overlap

---- Real-time Memory Report at c_bands before calling an iterative solver
           447 MiB given to the printing process from OS
           411 MiB allocation reported by mallinfo(arena+hblkhd)
        670890 MiB available memory on the node where the printing process lives
------------------
     ethr =  6.67E-10,  avg # of iterations =  2.4
     Minimization algorithm failed to find Fermi energy: reverting to bisection
     Possible cause: smearing is larger than the electronic band-gap.

     =================== HUBBARD OCCUPATIONS ===================
     ------------------------ ATOM    1 ------------------------
     Tr[ns(  1)] (up, down, total) =   4.91819  0.25769  5.17589
     Atomic magnetic moment for atom   1 =   4.66050
     SPIN  1
     eigenvalues:
       0.958  0.976  0.993  0.995  0.996
     eigenvectors (columns):
      -0.002 -0.404 -0.422 -0.800 -0.135
      -0.022  0.909 -0.277 -0.302 -0.066
       0.589 -0.000 -0.006  0.136 -0.797
       0.038 -0.094 -0.862  0.482  0.117
       0.807  0.028  0.037 -0.132  0.574
     occupation matrix ns (before diag.):
       0.992  0.007  0.000 -0.001  0.000
       0.007  0.979  0.001  0.001  0.000
       0.000  0.001  0.983 -0.001 -0.018
      -0.001  0.001 -0.001  0.993 -0.001
       0.000  0.000 -0.018 -0.001  0.971
     SPIN  2
     eigenvalues:
       0.021  0.024  0.038  0.069  0.107
     eigenvectors (columns):
       0.041 -0.852 -0.322  0.410 -0.003
       0.020 -0.344 -0.242 -0.907  0.004
       0.799  0.026  0.029  0.002  0.600
      -0.009  0.391 -0.914  0.095  0.040
      -0.599 -0.040  0.024 -0.001  0.799
     occupation matrix ns (before diag.):
       0.033 -0.016 -0.000  0.006 -0.000
      -0.016  0.061 -0.000 -0.001  0.000
      -0.000 -0.000  0.052  0.002  0.041
       0.006 -0.001  0.002  0.036  0.002
      -0.000  0.000  0.041  0.002  0.076
     ------------------------ ATOM    2 ------------------------
     Tr[ns(  2)] (up, down, total) =   4.97836  4.19673  9.17508
     Atomic magnetic moment for atom   2 =   0.78163
     SPIN  1
     eigenvalues:
       0.992  0.994  0.997  0.998  0.998
     eigenvectors (columns):
       0.015 -0.419 -0.316  0.848 -0.066
      -0.057  0.900 -0.256  0.347 -0.038
       0.617  0.028 -0.001 -0.058 -0.784
       0.047 -0.105 -0.912 -0.388  0.063
       0.783  0.058  0.043  0.078  0.613
     occupation matrix ns (before diag.):
       0.997  0.001  0.000 -0.000  0.000
       0.001  0.994  0.000  0.000  0.000
       0.000  0.000  0.996 -0.000 -0.003
      -0.000  0.000 -0.000  0.997 -0.000
       0.000  0.000 -0.003 -0.000  0.994
     SPIN  2
     eigenvalues:
       0.211  0.993  0.997  0.998  0.998
     eigenvectors (columns):
      -0.009 -0.402 -0.313 -0.859 -0.035
       0.010  0.908 -0.255 -0.331 -0.031
       0.604 -0.021 -0.001  0.037 -0.796
       0.040 -0.115 -0.914  0.384  0.053
       0.796  0.005  0.047 -0.052  0.601
     occupation matrix ns (before diag.):
       0.997  0.002  0.004 -0.000  0.005
       0.002  0.994 -0.005  0.000 -0.007
       0.004 -0.005  0.711 -0.019 -0.378
      -0.000  0.000 -0.019  0.996 -0.025
       0.005 -0.007 -0.378 -0.025  0.499

     Number of occupied Hubbard levels =   14.3510

     HUBBARD ENERGY =    0.1287  (Ry)

     total cpu time spent up to now is      352.3 secs

     total energy              =   -1163.58455390 Ry
     estimated scf accuracy    <       0.00000035 Ry

     total magnetization       =     6.00 Bohr mag/cell
     absolute magnetization    =     6.07 Bohr mag/cell

     iteration # 12     ecut=   120.00 Ry     beta= 0.70
     Davidson diagonalization with overlap

---- Real-time Memory Report at c_bands before calling an iterative solver
           447 MiB given to the printing process from OS
           411 MiB allocation reported by mallinfo(arena+hblkhd)
        673568 MiB available memory on the node where the printing process lives
------------------
     ethr =  3.20E-10,  avg # of iterations =  2.4
     Minimization algorithm failed to find Fermi energy: reverting to bisection
     Possible cause: smearing is larger than the electronic band-gap.

     =================== HUBBARD OCCUPATIONS ===================
     ------------------------ ATOM    1 ------------------------
     Tr[ns(  1)] (up, down, total) =   4.91822  0.25771  5.17593
     Atomic magnetic moment for atom   1 =   4.66050
     SPIN  1
     eigenvalues:
       0.958  0.976  0.993  0.995  0.996
     eigenvectors (columns):
      -0.002 -0.404 -0.422 -0.800 -0.135
      -0.022  0.909 -0.277 -0.302 -0.066
       0.589 -0.000 -0.006  0.136 -0.797
       0.038 -0.094 -0.862  0.482  0.118
       0.807  0.028  0.037 -0.132  0.574
     occupation matrix ns (before diag.):
       0.992  0.007  0.000 -0.001  0.000
       0.007  0.979  0.001  0.001  0.000
       0.000  0.001  0.983 -0.001 -0.018
      -0.001  0.001 -0.001  0.993 -0.001
       0.000  0.000 -0.018 -0.001  0.971
     SPIN  2
     eigenvalues:
       0.021  0.024  0.038  0.069  0.107
     eigenvectors (columns):
       0.041 -0.852 -0.322  0.410 -0.003
       0.020 -0.344 -0.242 -0.907  0.004
       0.799  0.026  0.029  0.002  0.600
      -0.009  0.391 -0.914  0.095  0.040
      -0.599 -0.040  0.024 -0.001  0.799
     occupation matrix ns (before diag.):
       0.033 -0.016 -0.000  0.006 -0.000
      -0.016  0.061 -0.000 -0.001  0.000
      -0.000 -0.000  0.052  0.002  0.041
       0.006 -0.001  0.002  0.036  0.002
      -0.000  0.000  0.041  0.002  0.076
     ------------------------ ATOM    2 ------------------------
     Tr[ns(  2)] (up, down, total) =   4.97836  4.19667  9.17503
     Atomic magnetic moment for atom   2 =   0.78169
     SPIN  1
     eigenvalues:
       0.992  0.994  0.997  0.998  0.998
     eigenvectors (columns):
       0.015 -0.419 -0.316  0.848 -0.065
      -0.057  0.899 -0.257  0.347 -0.038
       0.617  0.028 -0.001 -0.058 -0.784
       0.047 -0.105 -0.912 -0.388  0.063
       0.783  0.058  0.043  0.078  0.613
     occupation matrix ns (before diag.):
       0.997  0.001  0.000 -0.000  0.000
       0.001  0.994  0.000  0.000  0.000
       0.000  0.000  0.996 -0.000 -0.003
      -0.000  0.000 -0.000  0.997 -0.000
       0.000  0.000 -0.003 -0.000  0.994
     SPIN  2
     eigenvalues:
       0.211  0.993  0.997  0.998  0.998
     eigenvectors (columns):
      -0.009 -0.402 -0.313 -0.859 -0.035
       0.010  0.908 -0.255 -0.331 -0.031
       0.605 -0.021 -0.001  0.037 -0.795
       0.040 -0.115 -0.914  0.384  0.053
       0.795  0.005  0.047 -0.052  0.602
     occupation matrix ns (before diag.):
       0.997  0.002  0.004 -0.000  0.006
       0.002  0.994 -0.005  0.000 -0.006
       0.004 -0.005  0.710 -0.019 -0.379
      -0.000  0.000 -0.019  0.996 -0.025
       0.006 -0.006 -0.379 -0.025  0.500

     Number of occupied Hubbard levels =   14.3510

     HUBBARD ENERGY =    0.1286  (Ry)

     total cpu time spent up to now is      379.1 secs

     total energy              =   -1163.58455434 Ry
     estimated scf accuracy    <       0.00000020 Ry

     total magnetization       =     6.00 Bohr mag/cell
     absolute magnetization    =     6.07 Bohr mag/cell

     iteration # 13     ecut=   120.00 Ry     beta= 0.70
     Davidson diagonalization with overlap

---- Real-time Memory Report at c_bands before calling an iterative solver
           447 MiB given to the printing process from OS
           411 MiB allocation reported by mallinfo(arena+hblkhd)
        673583 MiB available memory on the node where the printing process lives
------------------
     ethr =  1.85E-10,  avg # of iterations =  2.8
     Minimization algorithm failed to find Fermi energy: reverting to bisection
     Possible cause: smearing is larger than the electronic band-gap.

     =================== HUBBARD OCCUPATIONS ===================
     ------------------------ ATOM    1 ------------------------
     Tr[ns(  1)] (up, down, total) =   4.91823  0.25772  5.17595
     Atomic magnetic moment for atom   1 =   4.66050
     SPIN  1
     eigenvalues:
       0.958  0.976  0.993  0.995  0.996
     eigenvectors (columns):
      -0.002 -0.404 -0.422 -0.800 -0.135
      -0.022  0.909 -0.277 -0.302 -0.066
       0.589 -0.000 -0.006  0.136 -0.797
       0.038 -0.094 -0.862  0.482  0.118
       0.807  0.028  0.037 -0.132  0.574
     occupation matrix ns (before diag.):
       0.992  0.007  0.000 -0.001  0.000
       0.007  0.979  0.001  0.001  0.000
       0.000  0.001  0.983 -0.001 -0.018
      -0.001  0.001 -0.001  0.993 -0.001
       0.000  0.000 -0.018 -0.001  0.971
     SPIN  2
     eigenvalues:
       0.021  0.024  0.038  0.069  0.107
     eigenvectors (columns):
       0.041 -0.852 -0.322  0.410 -0.003
       0.020 -0.344 -0.242 -0.907  0.004
       0.799  0.026  0.029  0.002  0.600
      -0.009  0.391 -0.914  0.095  0.040
      -0.599 -0.040  0.024 -0.001  0.799
     occupation matrix ns (before diag.):
       0.033 -0.016 -0.000  0.006 -0.000
      -0.016  0.061 -0.000 -0.001  0.000
      -0.000 -0.000  0.052  0.002  0.041
       0.006 -0.001  0.002  0.036  0.002
      -0.000  0.000  0.041  0.002  0.076
     ------------------------ ATOM    2 ------------------------
     Tr[ns(  2)] (up, down, total) =   4.97836  4.19665  9.17501
     Atomic magnetic moment for atom   2 =   0.78171
     SPIN  1
     eigenvalues:
       0.992  0.994  0.997  0.998  0.998
     eigenvectors (columns):
       0.015 -0.419 -0.317  0.848 -0.065
      -0.057  0.899 -0.257  0.347 -0.038
       0.617  0.028 -0.001 -0.058 -0.784
       0.047 -0.105 -0.912 -0.388  0.063
       0.783  0.058  0.043  0.078  0.613
     occupation matrix ns (before diag.):
       0.997  0.001  0.000 -0.000  0.000
       0.001  0.994  0.000  0.000  0.000
       0.000  0.000  0.996 -0.000 -0.003
      -0.000  0.000 -0.000  0.997 -0.000
       0.000  0.000 -0.003 -0.000  0.994
     SPIN  2
     eigenvalues:
       0.211  0.993  0.997  0.998  0.998
     eigenvectors (columns):
      -0.009 -0.402 -0.313 -0.859 -0.035
       0.010  0.908 -0.255 -0.331 -0.031
       0.605 -0.021 -0.001  0.036 -0.795
       0.040 -0.115 -0.914  0.384  0.053
       0.795  0.005  0.047 -0.053  0.603
     occupation matrix ns (before diag.):
       0.997  0.002  0.004 -0.000  0.006
       0.002  0.994 -0.005  0.000 -0.006
       0.004 -0.005  0.710 -0.019 -0.379
      -0.000  0.000 -0.019  0.996 -0.025
       0.006 -0.006 -0.379 -0.025  0.501

     Number of occupied Hubbard levels =   14.3510

     HUBBARD ENERGY =    0.1286  (Ry)

     total cpu time spent up to now is      406.0 secs

     total energy              =   -1163.58455364 Ry
     estimated scf accuracy    <       0.00000012 Ry

     total magnetization       =     6.00 Bohr mag/cell
     absolute magnetization    =     6.07 Bohr mag/cell

     iteration # 14     ecut=   120.00 Ry     beta= 0.70
     Davidson diagonalization with overlap

---- Real-time Memory Report at c_bands before calling an iterative solver
           447 MiB given to the printing process from OS
           411 MiB allocation reported by mallinfo(arena+hblkhd)
        669274 MiB available memory on the node where the printing process lives
------------------
     ethr =  1.05E-10,  avg # of iterations =  3.9
     Minimization algorithm failed to find Fermi energy: reverting to bisection
     Possible cause: smearing is larger than the electronic band-gap.

     =================== HUBBARD OCCUPATIONS ===================
     ------------------------ ATOM    1 ------------------------
     Tr[ns(  1)] (up, down, total) =   4.91822  0.25772  5.17594
     Atomic magnetic moment for atom   1 =   4.66050
     SPIN  1
     eigenvalues:
       0.958  0.976  0.993  0.995  0.996
     eigenvectors (columns):
      -0.002 -0.404 -0.422 -0.800 -0.135
      -0.022  0.909 -0.277 -0.302 -0.066
       0.589 -0.000 -0.006  0.136 -0.797
       0.038 -0.094 -0.862  0.482  0.118
       0.807  0.028  0.037 -0.132  0.574
     occupation matrix ns (before diag.):
       0.992  0.007  0.000 -0.001  0.000
       0.007  0.979  0.001  0.001  0.000
       0.000  0.001  0.983 -0.001 -0.018
      -0.001  0.001 -0.001  0.993 -0.001
       0.000  0.000 -0.018 -0.001  0.971
     SPIN  2
     eigenvalues:
       0.021  0.024  0.038  0.069  0.107
     eigenvectors (columns):
       0.041 -0.852 -0.322  0.410 -0.003
       0.020 -0.344 -0.242 -0.907  0.004
       0.799  0.026  0.029  0.002  0.600
      -0.009  0.391 -0.914  0.095  0.040
      -0.599 -0.040  0.024 -0.001  0.799
     occupation matrix ns (before diag.):
       0.033 -0.016 -0.000  0.006 -0.000
      -0.016  0.061 -0.000 -0.001  0.000
      -0.000 -0.000  0.052  0.002  0.041
       0.006 -0.001  0.002  0.036  0.002
      -0.000  0.000  0.041  0.002  0.076
     ------------------------ ATOM    2 ------------------------
     Tr[ns(  2)] (up, down, total) =   4.97836  4.19670  9.17506
     Atomic magnetic moment for atom   2 =   0.78166
     SPIN  1
     eigenvalues:
       0.992  0.994  0.997  0.998  0.998
     eigenvectors (columns):
       0.015 -0.420 -0.317  0.848 -0.065
      -0.057  0.899 -0.257  0.347 -0.038
       0.617  0.028 -0.001 -0.057 -0.784
       0.047 -0.105 -0.912 -0.389  0.063
       0.783  0.057  0.043  0.078  0.613
     occupation matrix ns (before diag.):
       0.997  0.001  0.000 -0.000  0.000
       0.001  0.994  0.000  0.000  0.000
       0.000  0.000  0.996 -0.000 -0.003
      -0.000  0.000 -0.000  0.997 -0.000
       0.000  0.000 -0.003 -0.000  0.994
     SPIN  2
     eigenvalues:
       0.211  0.993  0.997  0.998  0.998
     eigenvectors (columns):
      -0.010 -0.403 -0.314 -0.859 -0.035
       0.010  0.908 -0.255 -0.331 -0.031
       0.607 -0.021 -0.002  0.036 -0.794
       0.040 -0.115 -0.913  0.385  0.053
       0.794  0.005  0.047 -0.053  0.604
     occupation matrix ns (before diag.):
       0.997  0.002  0.005 -0.000  0.006
       0.002  0.994 -0.005  0.000 -0.006
       0.005 -0.005  0.708 -0.019 -0.379
      -0.000  0.000 -0.019  0.996 -0.025
       0.006 -0.006 -0.379 -0.025  0.502

     Number of occupied Hubbard levels =   14.3510

     HUBBARD ENERGY =    0.1286  (Ry)

     total cpu time spent up to now is      436.9 secs

     total energy              =   -1163.58455502 Ry
     estimated scf accuracy    <       0.00000002 Ry

     total magnetization       =     6.00 Bohr mag/cell
     absolute magnetization    =     6.07 Bohr mag/cell

     iteration # 15     ecut=   120.00 Ry     beta= 0.70
     Davidson diagonalization with overlap

---- Real-time Memory Report at c_bands before calling an iterative solver
           447 MiB given to the printing process from OS
           411 MiB allocation reported by mallinfo(arena+hblkhd)
        668460 MiB available memory on the node where the printing process lives
------------------
     ethr =  2.08E-11,  avg # of iterations =  4.1
     Minimization algorithm failed to find Fermi energy: reverting to bisection
     Possible cause: smearing is larger than the electronic band-gap.

     =================== HUBBARD OCCUPATIONS ===================
     ------------------------ ATOM    1 ------------------------
     Tr[ns(  1)] (up, down, total) =   4.91822  0.25772  5.17593
     Atomic magnetic moment for atom   1 =   4.66050
     SPIN  1
     eigenvalues:
       0.958  0.976  0.993  0.995  0.996
     eigenvectors (columns):
      -0.002 -0.404 -0.422 -0.800 -0.135
      -0.022  0.909 -0.277 -0.302 -0.066
       0.589 -0.000 -0.006  0.136 -0.797
       0.038 -0.094 -0.862  0.482  0.118
       0.807  0.028  0.037 -0.132  0.574
     occupation matrix ns (before diag.):
       0.992  0.007  0.000 -0.001  0.000
       0.007  0.979  0.001  0.001  0.000
       0.000  0.001  0.983 -0.001 -0.018
      -0.001  0.001 -0.001  0.993 -0.001
       0.000  0.000 -0.018 -0.001  0.971
     SPIN  2
     eigenvalues:
       0.021  0.024  0.038  0.069  0.107
     eigenvectors (columns):
       0.041 -0.852 -0.322  0.410 -0.003
       0.020 -0.344 -0.242 -0.907  0.004
       0.799  0.026  0.029  0.002  0.600
      -0.009  0.391 -0.914  0.095  0.040
      -0.599 -0.040  0.024 -0.001  0.799
     occupation matrix ns (before diag.):
       0.033 -0.016 -0.000  0.006 -0.000
      -0.016  0.061 -0.000 -0.001  0.000
      -0.000 -0.000  0.052  0.002  0.041
       0.006 -0.001  0.002  0.036  0.002
      -0.000  0.000  0.041  0.002  0.076
     ------------------------ ATOM    2 ------------------------
     Tr[ns(  2)] (up, down, total) =   4.97836  4.19668  9.17504
     Atomic magnetic moment for atom   2 =   0.78168
     SPIN  1
     eigenvalues:
       0.992  0.994  0.997  0.998  0.998
     eigenvectors (columns):
       0.015 -0.420 -0.317  0.848 -0.064
      -0.057  0.899 -0.257  0.347 -0.038
       0.617  0.028 -0.001 -0.057 -0.784
       0.047 -0.105 -0.912 -0.389  0.063
       0.783  0.057  0.043  0.077  0.613
     occupation matrix ns (before diag.):
       0.997  0.001  0.000 -0.000  0.000
       0.001  0.994  0.000  0.000  0.000
       0.000  0.000  0.996 -0.000 -0.003
      -0.000  0.000 -0.000  0.997 -0.000
       0.000  0.000 -0.003 -0.000  0.994
     SPIN  2
     eigenvalues:
       0.211  0.993  0.997  0.998  0.998
     eigenvectors (columns):
      -0.010 -0.403 -0.314 -0.859 -0.035
       0.010  0.908 -0.255 -0.331 -0.030
       0.607 -0.021 -0.002  0.035 -0.793
       0.040 -0.115 -0.913  0.385  0.053
       0.793  0.005  0.047 -0.053  0.605
     occupation matrix ns (before diag.):
       0.997  0.002  0.005 -0.000  0.006
       0.002  0.994 -0.005  0.000 -0.006
       0.005 -0.005  0.708 -0.019 -0.379
      -0.000  0.000 -0.019  0.996 -0.025
       0.006 -0.006 -0.379 -0.025  0.503

     Number of occupied Hubbard levels =   14.3510

     HUBBARD ENERGY =    0.1286  (Ry)

     total cpu time spent up to now is      469.2 secs

     total energy              =   -1163.58455531 Ry
     estimated scf accuracy    <          3.3E-09 Ry

     total magnetization       =     6.00 Bohr mag/cell
     absolute magnetization    =     6.07 Bohr mag/cell

     iteration # 16     ecut=   120.00 Ry     beta= 0.70
     Davidson diagonalization with overlap

---- Real-time Memory Report at c_bands before calling an iterative solver
           447 MiB given to the printing process from OS
           411 MiB allocation reported by mallinfo(arena+hblkhd)
        668452 MiB available memory on the node where the printing process lives
------------------
     ethr =  3.03E-12,  avg # of iterations =  3.7
     Minimization algorithm failed to find Fermi energy: reverting to bisection
     Possible cause: smearing is larger than the electronic band-gap.

     =================== HUBBARD OCCUPATIONS ===================
     ------------------------ ATOM    1 ------------------------
     Tr[ns(  1)] (up, down, total) =   4.91822  0.25771  5.17593
     Atomic magnetic moment for atom   1 =   4.66050
     SPIN  1
     eigenvalues:
       0.958  0.976  0.993  0.995  0.996
     eigenvectors (columns):
      -0.002 -0.404 -0.422 -0.800 -0.135
      -0.022  0.909 -0.277 -0.302 -0.066
       0.589 -0.000 -0.006  0.136 -0.797
       0.038 -0.094 -0.862  0.482  0.117
       0.807  0.028  0.037 -0.132  0.574
     occupation matrix ns (before diag.):
       0.992  0.007  0.000 -0.001  0.000
       0.007  0.979  0.001  0.001  0.000
       0.000  0.001  0.983 -0.001 -0.018
      -0.001  0.001 -0.001  0.993 -0.001
       0.000  0.000 -0.018 -0.001  0.971
     SPIN  2
     eigenvalues:
       0.021  0.024  0.038  0.069  0.107
     eigenvectors (columns):
       0.041 -0.852 -0.322  0.410 -0.003
       0.020 -0.344 -0.242 -0.907  0.004
       0.799  0.026  0.029  0.002  0.600
      -0.009  0.391 -0.914  0.095  0.040
      -0.599 -0.040  0.024 -0.001  0.799
     occupation matrix ns (before diag.):
       0.033 -0.016 -0.000  0.006 -0.000
      -0.016  0.061 -0.000 -0.001  0.000
      -0.000 -0.000  0.052  0.002  0.041
       0.006 -0.001  0.002  0.036  0.002
      -0.000  0.000  0.041  0.002  0.076
     ------------------------ ATOM    2 ------------------------
     Tr[ns(  2)] (up, down, total) =   4.97836  4.19665  9.17501
     Atomic magnetic moment for atom   2 =   0.78171
     SPIN  1
     eigenvalues:
       0.992  0.994  0.997  0.998  0.998
     eigenvectors (columns):
       0.015 -0.420 -0.317  0.848 -0.064
      -0.057  0.899 -0.257  0.347 -0.038
       0.617  0.028 -0.001 -0.057 -0.784
       0.047 -0.105 -0.912 -0.389  0.063
       0.783  0.057  0.043  0.077  0.613
     occupation matrix ns (before diag.):
       0.997  0.001  0.000 -0.000  0.000
       0.001  0.994  0.000  0.000  0.000
       0.000  0.000  0.996 -0.000 -0.003
      -0.000  0.000 -0.000  0.997 -0.000
       0.000  0.000 -0.003 -0.000  0.994
     SPIN  2
     eigenvalues:
       0.211  0.993  0.997  0.998  0.998
     eigenvectors (columns):
      -0.010 -0.403 -0.314 -0.859 -0.034
       0.010  0.908 -0.255 -0.331 -0.030
       0.607 -0.021 -0.002  0.035 -0.793
       0.040 -0.115 -0.913  0.385  0.053
       0.793  0.005  0.047 -0.053  0.605
     occupation matrix ns (before diag.):
       0.997  0.002  0.005 -0.000  0.006
       0.002  0.994 -0.005  0.000 -0.006
       0.005 -0.005  0.708 -0.019 -0.379
      -0.000  0.000 -0.019  0.996 -0.025
       0.006 -0.006 -0.379 -0.025  0.503

     Number of occupied Hubbard levels =   14.3509

     HUBBARD ENERGY =    0.1286  (Ry)
 
     Magnetic moment per site  (integrated on atomic sphere of radius R)
     atom   1 (R=0.174)  charge= 12.1047  magn=  4.0215
     atom   2 (R=0.174)  charge= 16.4080  magn=  0.7991
     atom   3 (R=0.156)  charge=  7.6974  magn=  0.0377
     atom   4 (R=0.156)  charge=  7.6944  magn=  0.0438
     atom   5 (R=0.156)  charge=  4.9483  magn=  0.0039
     atom   6 (R=0.156)  charge=  4.9866  magn=  0.0024
     atom   7 (R=0.156)  charge=  4.9437  magn=  0.0446
     atom   8 (R=0.156)  charge=  4.9812  magn=  0.0388
     atom   9 (R=0.156)  charge=  5.0182  magn=  0.0109
     atom  10 (R=0.156)  charge=  4.9942  magn=  0.0093
     atom  11 (R=0.156)  charge=  4.9975  magn=  0.0416
     atom  12 (R=0.156)  charge=  4.9742  magn=  0.0425

     total cpu time spent up to now is      501.1 secs

     End of self-consistent calculation

 ------ SPIN UP ------------


          k = 0.0829 0.0723 0.0658 ( 20395 PWs)   bands (ev):

  -103.4632 -69.7394 -65.3838 -65.2920 -61.5968 -61.5596 -59.9477 -38.8486
   -38.7636 -38.7207 -29.7284 -29.6264 -29.6028 -29.5573 -29.5133 -29.4859
    -9.2063  -8.1485  -7.8349  -7.6150  -7.4466  -7.3234  -7.2403  -7.0848
     0.0676   1.1641   1.6158   1.7425   1.8059   2.9890   3.4244   3.5346
     3.7878   3.9631   4.3768   4.7133   4.8789   5.1706   5.3832   5.6123
     5.9194   6.0753   6.2950   6.4187   6.7176   6.9509   7.0720   7.3366
     7.4546   7.5976   7.8363   8.2006   8.3669   8.5138   8.6957   8.8750
     9.0822  10.1349  12.0987  12.2682  12.3581  12.8398  13.3801  13.4800
    14.9197  15.6061

     occupation numbers 
     1.0000   1.0000   1.0000   1.0000   1.0000   1.0000   1.0000   1.0000
     1.0000   1.0000   1.0000   1.0000   1.0000   1.0000   1.0000   1.0000
     1.0000   1.0000   1.0000   1.0000   1.0000   1.0000   1.0000   1.0000
     1.0000   1.0000   1.0000   1.0000   1.0000   1.0000   1.0000   1.0000
     1.0000   1.0000   1.0000   1.0000   1.0000   1.0000   1.0000   1.0000
     1.0000   1.0000   1.0000   1.0000   1.0000   1.0000   1.0000   1.0000
     1.0000   1.0000   1.0000   1.0000   1.0000   1.0000   1.0000   1.0000
     1.0000   0.8710   0.0000   0.0000   0.0000   0.0000   0.0000   0.0000
     0.0000   0.0000

          k = 0.0818 0.0723 0.2114 ( 20393 PWs)   bands (ev):

  -103.4632 -69.7395 -65.3837 -65.2920 -61.5968 -61.5596 -59.9477 -38.8486
   -38.7636 -38.7207 -29.7263 -29.6250 -29.6067 -29.5584 -29.5134 -29.4845
    -9.0742  -8.1748  -8.0174  -7.6921  -7.4360  -7.2548  -7.1855  -7.0796
     0.0551   1.1596   1.6609   1.7174   1.7923   3.1157   3.3283   3.6424
     3.8373   3.9483   4.1463   4.6067   4.9550   5.2389   5.4682   5.6645
     5.8847   6.0046   6.3095   6.5536   6.6900   6.8968   7.0757   7.1934
     7.4850   7.5334   7.8013   8.2228   8.3861   8.5946   8.6849   8.8372
     9.2456  10.1586  11.9818  12.3274  12.4769  12.8350  13.1633  13.2769
    15.3032  15.6257

     occupation numbers 
     1.0000   1.0000   1.0000   1.0000   1.0000   1.0000   1.0000   1.0000
     1.0000   1.0000   1.0000   1.0000   1.0000   1.0000   1.0000   1.0000
     1.0000   1.0000   1.0000   1.0000   1.0000   1.0000   1.0000   1.0000
     1.0000   1.0000   1.0000   1.0000   1.0000   1.0000   1.0000   1.0000
     1.0000   1.0000   1.0000   1.0000   1.0000   1.0000   1.0000   1.0000
     1.0000   1.0000   1.0000   1.0000   1.0000   1.0000   1.0000   1.0000
     1.0000   1.0000   1.0000   1.0000   1.0000   1.0000   1.0000   1.0000
     1.0000   0.8159   0.0000   0.0000   0.0000   0.0000   0.0000   0.0000
     0.0000   0.0000

          k = 0.0807 0.0722 0.3569 ( 20409 PWs)   bands (ev):

  -103.4632 -69.7395 -65.3837 -65.2920 -61.5968 -61.5596 -59.9477 -38.8486
   -38.7636 -38.7207 -29.7237 -29.6239 -29.6108 -29.5602 -29.5133 -29.4830
    -8.8366  -8.4012  -8.0791  -7.7691  -7.4280  -7.2444  -7.1385  -7.0324
     0.0223   1.1486   1.6855   1.7286   1.7856   3.1038   3.2868   3.7158
     3.9225   4.0137   4.2412   4.5801   4.9343   5.1948   5.3961   5.6646
     5.8909   5.9884   6.1249   6.5047   6.7844   6.8944   7.0972   7.2223
     7.3981   7.6747   7.7961   8.1409   8.3691   8.5884   8.6913   8.8385
     9.3741  10.1621  12.0598  12.2644  12.5377  12.7500  12.9326  13.0997
    15.5786  15.9865

     occupation numbers 
     1.0000   1.0000   1.0000   1.0000   1.0000   1.0000   1.0000   1.0000
     1.0000   1.0000   1.0000   1.0000   1.0000   1.0000   1.0000   1.0000
     1.0000   1.0000   1.0000   1.0000   1.0000   1.0000   1.0000   1.0000
     1.0000   1.0000   1.0000   1.0000   1.0000   1.0000   1.0000   1.0000
     1.0000   1.0000   1.0000   1.0000   1.0000   1.0000   1.0000   1.0000
     1.0000   1.0000   1.0000   1.0000   1.0000   1.0000   1.0000   1.0000
     1.0000   1.0000   1.0000   1.0000   1.0000   1.0000   1.0000   1.0000
     1.0002   0.8073   0.0000   0.0000   0.0000   0.0000   0.0000   0.0000
     0.0000   0.0000

          k = 0.0861 0.0723-0.3708 ( 20434 PWs)   bands (ev):

  -103.4632 -69.7395 -65.3837 -65.2920 -61.5968 -61.5596 -59.9477 -38.8486
   -38.7636 -38.7207 -29.7231 -29.6242 -29.6108 -29.5606 -29.5134 -29.4827
    -8.7974  -8.4499  -8.0700  -7.7830  -7.4239  -7.2494  -7.1419  -7.0149
     0.0028   1.1431   1.6912   1.7325   1.7968   3.1053   3.2492   3.6991
     3.8895   4.1103   4.4203   4.6497   4.8123   5.0825   5.3430   5.6855
     5.8648   6.0808   6.1866   6.5612   6.7025   6.9050   6.9952   7.2248
     7.4494   7.7195   7.8912   7.9670   8.1749   8.6002   8.7666   8.8802
     9.3595  10.1655  11.9981  12.3330  12.5470  12.7486  12.8692  13.0990
    15.7110  16.0678

     occupation numbers 
     1.0000   1.0000   1.0000   1.0000   1.0000   1.0000   1.0000   1.0000
     1.0000   1.0000   1.0000   1.0000   1.0000   1.0000   1.0000   1.0000
     1.0000   1.0000   1.0000   1.0000   1.0000   1.0000   1.0000   1.0000
     1.0000   1.0000   1.0000   1.0000   1.0000   1.0000   1.0000   1.0000
     1.0000   1.0000   1.0000   1.0000   1.0000   1.0000   1.0000   1.0000
     1.0000   1.0000   1.0000   1.0000   1.0000   1.0000   1.0000   1.0000
     1.0000   1.0000   1.0000   1.0000   1.0000   1.0000   1.0000   1.0000
     1.0001   0.7991   0.0000   0.0000   0.0000   0.0000   0.0000   0.0000
     0.0000   0.0000

          k = 0.0850 0.0723-0.2253 ( 20438 PWs)   bands (ev):

  -103.4632 -69.7394 -65.3837 -65.2920 -61.5968 -61.5596 -59.9477 -38.8486
   -38.7636 -38.7207 -29.7254 -29.6256 -29.6067 -29.5593 -29.5136 -29.4839
    -9.0448  -8.1916  -8.0394  -7.7162  -7.4276  -7.2613  -7.2017  -7.0339
     0.0153   1.1493   1.6648   1.7329   1.8153   3.0719   3.2660   3.6317
     3.9180   4.1323   4.2926   4.5605   4.9411   5.1173   5.4071   5.6231
     6.0001   6.1069   6.2786   6.4485   6.7766   6.8590   7.0777   7.2752
     7.3394   7.6422   7.8232   8.0125   8.0931   8.5913   8.7982   8.9497
     9.2091  10.1620  11.8708  12.3937  12.5873  12.8286  12.9708  13.2819
    15.5143  15.9749

     occupation numbers 
     1.0000   1.0000   1.0000   1.0000   1.0000   1.0000   1.0000   1.0000
     1.0000   1.0000   1.0000   1.0000   1.0000   1.0000   1.0000   1.0000
     1.0000   1.0000   1.0000   1.0000   1.0000   1.0000   1.0000   1.0000
     1.0000   1.0000   1.0000   1.0000   1.0000   1.0000   1.0000   1.0000
     1.0000   1.0000   1.0000   1.0000   1.0000   1.0000   1.0000   1.0000
     1.0000   1.0000   1.0000   1.0000   1.0000   1.0000   1.0000   1.0000
     1.0000   1.0000   1.0000   1.0000   1.0000   1.0000   1.0000   1.0000
     1.0000   0.8077   0.0000   0.0000   0.0000   0.0000   0.0000   0.0000
     0.0000   0.0000

          k = 0.0839 0.0723-0.0797 ( 20395 PWs)   bands (ev):

  -103.4632 -69.7394 -65.3838 -65.2920 -61.5968 -61.5596 -59.9477 -38.8487
   -38.7636 -38.7207 -29.7279 -29.6266 -29.6028 -29.5577 -29.5134 -29.4856
    -9.1961  -8.1437  -7.8558  -7.6403  -7.4282  -7.3152  -7.2628  -7.0587
     0.0474   1.1593   1.6177   1.7495   1.8189   2.9648   3.3679   3.5260
     3.8976   4.1184   4.3205   4.6242   4.9279   5.1973   5.3703   5.5427
     5.9826   6.1257   6.2425   6.3787   6.7620   6.8852   7.1859   7.2952
     7.4646   7.5699   7.8007   8.1140   8.2549   8.5233   8.7426   8.9939
     9.0103  10.1380  12.0092  12.2615  12.4506  12.8373  13.3436  13.4357
    15.0341  15.8025

     occupation numbers 
     1.0000   1.0000   1.0000   1.0000   1.0000   1.0000   1.0000   1.0000
     1.0000   1.0000   1.0000   1.0000   1.0000   1.0000   1.0000   1.0000
     1.0000   1.0000   1.0000   1.0000   1.0000   1.0000   1.0000   1.0000
     1.0000   1.0000   1.0000   1.0000   1.0000   1.0000   1.0000   1.0000
     1.0000   1.0000   1.0000   1.0000   1.0000   1.0000   1.0000   1.0000
     1.0000   1.0000   1.0000   1.0000   1.0000   1.0000   1.0000   1.0000
     1.0000   1.0000   1.0000   1.0000   1.0000   1.0000   1.0000   1.0000
     1.0000   0.8639   0.0000   0.0000   0.0000   0.0000   0.0000   0.0000
     0.0000   0.0000

          k = 0.0829 0.2214 0.0623 ( 20394 PWs)   bands (ev):

  -103.4632 -69.7394 -65.3837 -65.2919 -61.5968 -61.5596 -59.9477 -38.8487
   -38.7636 -38.7207 -29.7281 -29.6264 -29.6022 -29.5580 -29.5135 -29.4865
    -9.1067  -8.0932  -7.8833  -7.7121  -7.4692  -7.3841  -7.2267  -7.0900
     0.0985   1.1662   1.6491   1.7531   1.8450   3.1398   3.4250   3.7003
     3.8226   4.1433   4.2615   4.7425   4.8479   5.0444   5.4182   5.5442
     5.8151   6.0631   6.4020   6.5085   6.6669   6.7921   7.0625   7.1409
     7.4354   7.6958   7.7915   7.9880   8.3199   8.4910   8.6686   8.8445
     9.0836  10.1244  12.0039  12.3158  12.3840  12.9540  13.3342  13.3936
    15.3843  15.7417

     occupation numbers 
     1.0000   1.0000   1.0000   1.0000   1.0000   1.0000   1.0000   1.0000
     1.0000   1.0000   1.0000   1.0000   1.0000   1.0000   1.0000   1.0000
     1.0000   1.0000   1.0000   1.0000   1.0000   1.0000   1.0000   1.0000
     1.0000   1.0000   1.0000   1.0000   1.0000   1.0000   1.0000   1.0000
     1.0000   1.0000   1.0000   1.0000   1.0000   1.0000   1.0000   1.0000
     1.0000   1.0000   1.0000   1.0000   1.0000   1.0000   1.0000   1.0000
     1.0000   1.0000   1.0000   1.0000   1.0000   1.0000   1.0000   1.0000
     1.0000   0.8935   0.0000   0.0000   0.0000   0.0000   0.0000   0.0000
     0.0000   0.0000

          k = 0.0818 0.2214 0.2079 ( 20411 PWs)   bands (ev):

  -103.4632 -69.7395 -65.3837 -65.2920 -61.5968 -61.5596 -59.9477 -38.8486
   -38.7636 -38.7207 -29.7270 -29.6251 -29.6068 -29.5583 -29.5132 -29.4847
    -8.9972  -8.0989  -8.0474  -7.7177  -7.4683  -7.3264  -7.2267  -7.0972
     0.0776   1.1640   1.6863   1.7420   1.8442   3.1934   3.3163   3.6967
     3.9485   4.1321   4.2424   4.6690   4.8341   5.1423   5.4376   5.6710
     5.8550   6.0787   6.3709   6.4137   6.5656   6.8574   6.9897   7.1143
     7.3590   7.6203   7.8383   8.0730   8.2462   8.4970   8.6867   8.8452
     9.2481  10.1223  11.9041  12.4069  12.4592  12.8810  13.1753  13.2372
    15.6260  15.8387

     occupation numbers 
     1.0000   1.0000   1.0000   1.0000   1.0000   1.0000   1.0000   1.0000
     1.0000   1.0000   1.0000   1.0000   1.0000   1.0000   1.0000   1.0000
     1.0000   1.0000   1.0000   1.0000   1.0000   1.0000   1.0000   1.0000
     1.0000   1.0000   1.0000   1.0000   1.0000   1.0000   1.0000   1.0000
     1.0000   1.0000   1.0000   1.0000   1.0000   1.0000   1.0000   1.0000
     1.0000   1.0000   1.0000   1.0000   1.0000   1.0000   1.0000   1.0000
     1.0000   1.0000   1.0000   1.0000   1.0000   1.0000   1.0000   1.0000
     1.0000   0.8979   0.0000   0.0000   0.0000   0.0000   0.0000   0.0000
     0.0000   0.0000

          k = 0.0807 0.2213 0.3534 ( 20403 PWs)   bands (ev):

  -103.4632 -69.7396 -65.3836 -65.2920 -61.5968 -61.5596 -59.9477 -38.8486
   -38.7636 -38.7207 -29.7249 -29.6243 -29.6114 -29.5595 -29.5127 -29.4827
    -8.7975  -8.3210  -8.0809  -7.7384  -7.4568  -7.2907  -7.2216  -7.0886
     0.0413   1.1561   1.7125   1.7524   1.8499   3.1556   3.3685   3.6811
     3.8758   4.2066   4.4183   4.6656   4.8986   5.2351   5.3597   5.6258
     5.8848   6.0514   6.0855   6.3598   6.6171   6.8797   7.0176   7.1268
     7.3558   7.6491   7.7918   8.0824   8.2407   8.5249   8.6404   8.8621
     9.3753  10.0921  11.9442  12.1705  12.6280  12.8652  12.9698  13.0897
    15.8360  16.0378

     occupation numbers 
     1.0000   1.0000   1.0000   1.0000   1.0000   1.0000   1.0000   1.0000
     1.0000   1.0000   1.0000   1.0000   1.0000   1.0000   1.0000   1.0000
     1.0000   1.0000   1.0000   1.0000   1.0000   1.0000   1.0000   1.0000
     1.0000   1.0000   1.0000   1.0000   1.0000   1.0000   1.0000   1.0000
     1.0000   1.0000   1.0000   1.0000   1.0000   1.0000   1.0000   1.0000
     1.0000   1.0000   1.0000   1.0000   1.0000   1.0000   1.0000   1.0000
     1.0000   1.0000   1.0000   1.0000   1.0000   1.0000   1.0000   1.0000
     1.0002   0.9555   0.0000   0.0000   0.0000   0.0000   0.0000   0.0000
     0.0000   0.0000

          k = 0.0862 0.2214-0.3743 ( 20399 PWs)   bands (ev):

  -103.4632 -69.7396 -65.3836 -65.2920 -61.5968 -61.5596 -59.9477 -38.8486
   -38.7636 -38.7207 -29.7239 -29.6249 -29.6113 -29.5604 -29.5128 -29.4822
    -8.7341  -8.4102  -8.0802  -7.7216  -7.4293  -7.3312  -7.2312  -7.0592
     0.0257   1.1511   1.7107   1.7599   1.8613   3.2042   3.3924   3.5957
     3.9621   4.0920   4.5639   4.7625   4.8678   5.0590   5.4059   5.5688
     5.8635   5.9886   6.1942   6.4027   6.5390   6.8609   7.0274   7.2540
     7.4346   7.5440   7.8192   8.0022   8.2799   8.4135   8.6887   8.8683
     9.3636  10.0762  11.8395  12.2545  12.6350  12.8066  12.9531  13.1218
    15.9991  16.0951

     occupation numbers 
     1.0000   1.0000   1.0000   1.0000   1.0000   1.0000   1.0000   1.0000
     1.0000   1.0000   1.0000   1.0000   1.0000   1.0000   1.0000   1.0000
     1.0000   1.0000   1.0000   1.0000   1.0000   1.0000   1.0000   1.0000
     1.0000   1.0000   1.0000   1.0000   1.0000   1.0000   1.0000   1.0000
     1.0000   1.0000   1.0000   1.0000   1.0000   1.0000   1.0000   1.0000
     1.0000   1.0000   1.0000   1.0000   1.0000   1.0000   1.0000   1.0000
     1.0000   1.0000   1.0000   1.0000   1.0000   1.0000   1.0000   1.0000
     1.0001   0.9816   0.0000   0.0000   0.0000   0.0000   0.0000   0.0000
     0.0000   0.0000

          k = 0.0851 0.2214-0.2288 ( 20426 PWs)   bands (ev):

  -103.4632 -69.7395 -65.3837 -65.2920 -61.5968 -61.5596 -59.9477 -38.8487
   -38.7636 -38.7207 -29.7251 -29.6260 -29.6069 -29.5599 -29.5137 -29.4836
    -8.9444  -8.2026  -8.0431  -7.6993  -7.4166  -7.3705  -7.2602  -7.0465
     0.0454   1.1545   1.6870   1.7522   1.8669   3.2442   3.4420   3.5654
     3.8844   4.1891   4.3887   4.6986   4.8208   5.0622   5.3968   5.6337
     5.8097   5.9689   6.3278   6.4772   6.6646   6.9111   7.0222   7.2208
     7.4055   7.5772   7.6971   8.0611   8.2396   8.4563   8.6486   8.8772
     9.2118  10.0922  11.7758  12.4170  12.6328  12.7928  13.0059  13.3060
    15.9270  16.0889

     occupation numbers 
     1.0000   1.0000   1.0000   1.0000   1.0000   1.0000   1.0000   1.0000
     1.0000   1.0000   1.0000   1.0000   1.0000   1.0000   1.0000   1.0000
     1.0000   1.0000   1.0000   1.0000   1.0000   1.0000   1.0000   1.0000
     1.0000   1.0000   1.0000   1.0000   1.0000   1.0000   1.0000   1.0000
     1.0000   1.0000   1.0000   1.0000   1.0000   1.0000   1.0000   1.0000
     1.0000   1.0000   1.0000   1.0000   1.0000   1.0000   1.0000   1.0000
     1.0000   1.0000   1.0000   1.0000   1.0000   1.0000   1.0000   1.0000
     1.0000   0.9554   0.0000   0.0000   0.0000   0.0000   0.0000   0.0000
     0.0000   0.0000

          k = 0.0840 0.2214-0.0832 ( 20404 PWs)   bands (ev):

  -103.4632 -69.7394 -65.3837 -65.2919 -61.5968 -61.5596 -59.9477 -38.8487
   -38.7636 -38.7207 -29.7272 -29.6268 -29.6023 -29.5588 -29.5138 -29.4859
    -9.0884  -8.1179  -7.8759  -7.7498  -7.4356  -7.3714  -7.2655  -7.0623
     0.0818   1.1617   1.6507   1.7565   1.8565   3.1543   3.5228   3.5835
     3.9586   3.9951   4.3854   4.6611   4.8754   5.1511   5.2680   5.4907
     5.9101   6.0200   6.3278   6.4906   6.7257   6.9457   7.0224   7.1263
     7.4566   7.6000   7.8452   7.9734   8.3128   8.4984   8.6258   8.8443
     9.0632  10.1128  11.9571  12.2532  12.4664  13.0056  13.2018  13.4202
    15.5070  15.9109

     occupation numbers 
     1.0000   1.0000   1.0000   1.0000   1.0000   1.0000   1.0000   1.0000
     1.0000   1.0000   1.0000   1.0000   1.0000   1.0000   1.0000   1.0000
     1.0000   1.0000   1.0000   1.0000   1.0000   1.0000   1.0000   1.0000
     1.0000   1.0000   1.0000   1.0000   1.0000   1.0000   1.0000   1.0000
     1.0000   1.0000   1.0000   1.0000   1.0000   1.0000   1.0000   1.0000
     1.0000   1.0000   1.0000   1.0000   1.0000   1.0000   1.0000   1.0000
     1.0000   1.0000   1.0000   1.0000   1.0000   1.0000   1.0000   1.0000
     1.0000   0.9172   0.0000   0.0000   0.0000   0.0000   0.0000   0.0000
     0.0000   0.0000

          k = 0.0830 0.3705 0.0588 ( 20393 PWs)   bands (ev):

  -103.4632 -69.7394 -65.3836 -65.2919 -61.5968 -61.5596 -59.9477 -38.8487
   -38.7636 -38.7208 -29.7275 -29.6267 -29.6017 -29.5592 -29.5139 -29.4868
    -8.9560  -8.1243  -7.9468  -7.7427  -7.5071  -7.4473  -7.2341  -7.0743
     0.1364   1.1751   1.6818   1.7610   1.8746   3.3651   3.5024   3.7262
     3.9412   4.1050   4.2936   4.6021   4.9702   5.1076   5.3771   5.4589
     5.7985   6.0240   6.1872   6.4985   6.5933   6.7817   7.0610   7.1799
     7.3260   7.6165   7.8077   7.9489   8.2184   8.4929   8.5863   8.7918
     9.0832  10.1646  11.8655  12.4156  12.6119  12.8959  13.1628  13.4369
    15.7607  16.0169

     occupation numbers 
     1.0000   1.0000   1.0000   1.0000   1.0000   1.0000   1.0000   1.0000
     1.0000   1.0000   1.0000   1.0000   1.0000   1.0000   1.0000   1.0000
     1.0000   1.0000   1.0000   1.0000   1.0000   1.0000   1.0000   1.0000
     1.0000   1.0000   1.0000   1.0000   1.0000   1.0000   1.0000   1.0000
     1.0000   1.0000   1.0000   1.0000   1.0000   1.0000   1.0000   1.0000
     1.0000   1.0000   1.0000   1.0000   1.0000   1.0000   1.0000   1.0000
     1.0000   1.0000   1.0000   1.0000   1.0000   1.0000   1.0000   1.0000
     1.0000   0.8013   0.0000   0.0000   0.0000   0.0000   0.0000   0.0000
     0.0000   0.0000

          k = 0.0819 0.3705 0.2044 ( 20401 PWs)   bands (ev):

  -103.4632 -69.7395 -65.3836 -65.2919 -61.5968 -61.5596 -59.9477 -38.8486
   -38.7636 -38.7207 -29.7269 -29.6256 -29.6070 -29.5589 -29.5133 -29.4844
    -8.8660  -8.1733  -7.9818  -7.7367  -7.4879  -7.4663  -7.2481  -7.0872
     0.1086   1.1741   1.7102   1.7616   1.8873   3.2775   3.3888   3.7012
     3.9381   4.3260   4.4421   4.7260   4.9537   5.1847   5.3239   5.4537
     5.7385   5.9306   6.2651   6.3491   6.6399   6.7136   7.0447   7.1145
     7.3905   7.4932   7.7795   8.0352   8.2465   8.4434   8.5853   8.7875
     9.2249  10.1480  11.8340  12.4106  12.6175  12.8171  13.1066  13.3155
    15.8419  16.0340

     occupation numbers 
     1.0000   1.0000   1.0000   1.0000   1.0000   1.0000   1.0000   1.0000
     1.0000   1.0000   1.0000   1.0000   1.0000   1.0000   1.0000   1.0000
     1.0000   1.0000   1.0000   1.0000   1.0000   1.0000   1.0000   1.0000
     1.0000   1.0000   1.0000   1.0000   1.0000   1.0000   1.0000   1.0000
     1.0000   1.0000   1.0000   1.0000   1.0000   1.0000   1.0000   1.0000
     1.0000   1.0000   1.0000   1.0000   1.0000   1.0000   1.0000   1.0000
     1.0000   1.0000   1.0000   1.0000   1.0000   1.0000   1.0000   1.0000
     1.0000   0.8412   0.0000   0.0000   0.0000   0.0000   0.0000   0.0000
     0.0000   0.0000

          k = 0.0808 0.3705 0.3499 ( 20419 PWs)   bands (ev):

  -103.4633 -69.7397 -65.3835 -65.2919 -61.5968 -61.5596 -59.9477 -38.8486
   -38.7636 -38.7207 -29.7257 -29.6251 -29.6119 -29.5593 -29.5122 -29.4821
    -8.7161  -8.3047  -7.9857  -7.7538  -7.5001  -7.4511  -7.2582  -7.0942
     0.0678   1.1677   1.7397   1.7697   1.9064   3.2504   3.3508   3.7109
     3.9236   4.3034   4.6128   4.8508   5.0010   5.2473   5.3728   5.5434
     5.7541   5.8580   6.0369   6.3679   6.4556   6.6527   6.9459   7.0863
     7.4312   7.5503   7.8207   8.0888   8.1911   8.4203   8.6394   8.7566
     9.3885  10.0887  11.8699  12.1121  12.6221  12.8787  13.0038  13.2131
    15.8942  16.1081

     occupation numbers 
     1.0000   1.0000   1.0000   1.0000   1.0000   1.0000   1.0000   1.0000
     1.0000   1.0000   1.0000   1.0000   1.0000   1.0000   1.0000   1.0000
     1.0000   1.0000   1.0000   1.0000   1.0000   1.0000   1.0000   1.0000
     1.0000   1.0000   1.0000   1.0000   1.0000   1.0000   1.0000   1.0000
     1.0000   1.0000   1.0000   1.0000   1.0000   1.0000   1.0000   1.0000
     1.0000   1.0000   1.0000   1.0000   1.0000   1.0000   1.0000   1.0000
     1.0000   1.0000   1.0000   1.0000   1.0000   1.0000   1.0000   1.0000
     1.0002   0.9613   0.0000   0.0000   0.0000   0.0000   0.0000   0.0000
     0.0000   0.0000

          k = 0.0862 0.3705-0.3778 ( 20418 PWs)   bands (ev):

  -103.4633 -69.7396 -65.3835 -65.2919 -61.5968 -61.5596 -59.9477 -38.8486
   -38.7636 -38.7207 -29.7252 -29.6255 -29.6119 -29.5597 -29.5123 -29.4818
    -8.6829  -8.3276  -8.0427  -7.6666  -7.5223  -7.4710  -7.2846  -7.0682
     0.0538   1.1630   1.7382   1.7743   1.9208   3.3089   3.3665   3.7245
     3.9811   4.2222   4.5208   4.8805   4.9702   5.1140   5.4409   5.6218
     5.8176   5.8988   6.0958   6.3113   6.4034   6.5385   6.9803   7.1814
     7.3596   7.6510   7.8412   8.0389   8.2022   8.3140   8.7162   8.7635
     9.3744  10.0452  11.7984  12.0957  12.6382  12.8136  13.0942  13.1900
    15.7561  16.3427

     occupation numbers 
     1.0000   1.0000   1.0000   1.0000   1.0000   1.0000   1.0000   1.0000
     1.0000   1.0000   1.0000   1.0000   1.0000   1.0000   1.0000   1.0000
     1.0000   1.0000   1.0000   1.0000   1.0000   1.0000   1.0000   1.0000
     1.0000   1.0000   1.0000   1.0000   1.0000   1.0000   1.0000   1.0000
     1.0000   1.0000   1.0000   1.0000   1.0000   1.0000   1.0000   1.0000
     1.0000   1.0000   1.0000   1.0000   1.0000   1.0000   1.0000   1.0000
     1.0000   1.0000   1.0000   1.0000   1.0000   1.0000   1.0000   1.0000
     1.0002   1.0233   0.0000   0.0000   0.0000   0.0000   0.0000   0.0000
     0.0000   0.0000

          k = 0.0852 0.3705-0.2323 ( 20414 PWs)   bands (ev):

  -103.4632 -69.7395 -65.3836 -65.2919 -61.5968 -61.5596 -59.9477 -38.8487
   -38.7636 -38.7207 -29.7260 -29.6261 -29.6070 -29.5598 -29.5135 -29.4838
    -8.8303  -8.1904  -8.0443  -7.6476  -7.5359  -7.4775  -7.2772  -7.0482
     0.0794   1.1651   1.7140   1.7649   1.9136   3.4012   3.4616   3.7135
     3.9399   4.1930   4.4616   4.6315   4.9404   5.0710   5.4306   5.4832
     5.7381   5.9331   6.2079   6.3473   6.6025   6.8480   6.9740   7.2409
     7.3668   7.6304   7.8127   7.9325   8.1060   8.3739   8.6999   8.7897
     9.2172  10.0531  11.7666  12.3691  12.6369  12.7769  13.0303  13.3686
    15.6949  16.3556

     occupation numbers 
     1.0000   1.0000   1.0000   1.0000   1.0000   1.0000   1.0000   1.0000
     1.0000   1.0000   1.0000   1.0000   1.0000   1.0000   1.0000   1.0000
     1.0000   1.0000   1.0000   1.0000   1.0000   1.0000   1.0000   1.0000
     1.0000   1.0000   1.0000   1.0000   1.0000   1.0000   1.0000   1.0000
     1.0000   1.0000   1.0000   1.0000   1.0000   1.0000   1.0000   1.0000
     1.0000   1.0000   1.0000   1.0000   1.0000   1.0000   1.0000   1.0000
     1.0000   1.0000   1.0000   1.0000   1.0000   1.0000   1.0000   1.0000
     1.0000   1.0138   0.0000   0.0000   0.0000   0.0000   0.0000   0.0000
     0.0000   0.0000

          k = 0.0841 0.3705-0.0867 ( 20380 PWs)   bands (ev):

  -103.4632 -69.7394 -65.3836 -65.2919 -61.5968 -61.5596 -59.9477 -38.8487
   -38.7636 -38.7208 -29.7270 -29.6269 -29.6017 -29.5596 -29.5141 -29.4865
    -8.9428  -8.1481  -7.8970  -7.8008  -7.4780  -7.4629  -7.2495  -7.0557
     0.1211   1.1708   1.6849   1.7616   1.8868   3.4121   3.6237   3.6971
     3.9217   4.0461   4.2506   4.6095   4.9809   5.0986   5.2818   5.5805
     5.8056   5.9230   6.1291   6.5068   6.6217   6.8545   7.0742   7.2365
     7.3740   7.6025   7.8258   7.9562   8.0730   8.4666   8.6893   8.7179
     9.1076  10.1138  11.8707  12.3682  12.6418  12.9116  13.0375  13.4732
    15.7208  16.2063

     occupation numbers 
     1.0000   1.0000   1.0000   1.0000   1.0000   1.0000   1.0000   1.0000
     1.0000   1.0000   1.0000   1.0000   1.0000   1.0000   1.0000   1.0000
     1.0000   1.0000   1.0000   1.0000   1.0000   1.0000   1.0000   1.0000
     1.0000   1.0000   1.0000   1.0000   1.0000   1.0000   1.0000   1.0000
     1.0000   1.0000   1.0000   1.0000   1.0000   1.0000   1.0000   1.0000
     1.0000   1.0000   1.0000   1.0000   1.0000   1.0000   1.0000   1.0000
     1.0000   1.0000   1.0000   1.0000   1.0000   1.0000   1.0000   1.0000
     1.0000   0.9152   0.0000   0.0000   0.0000   0.0000   0.0000   0.0000
     0.0000   0.0000

          k = 0.0827-0.3751 0.0763 ( 20379 PWs)   bands (ev):

  -103.4632 -69.7394 -65.3836 -65.2919 -61.5968 -61.5596 -59.9477 -38.8487
   -38.7636 -38.7208 -29.7272 -29.6269 -29.6017 -29.5596 -29.5141 -29.4865
    -8.9295  -8.1782  -7.9170  -7.7381  -7.5486  -7.4353  -7.2274  -7.0614
     0.1424   1.1739   1.6871   1.7583   1.8755   3.4787   3.5451   3.6310
     3.8626   4.1099   4.2804   4.6279   4.9544   5.1195   5.2512   5.5425
     5.8166   6.0026   6.2249   6.4835   6.5788   6.7987   7.0346   7.1977
     7.3133   7.6532   7.7796   8.0064   8.1890   8.4876   8.6325   8.7617
     9.0799  10.1655  11.8497  12.3606  12.7106  12.9706  13.0506  13.4491
    15.8328  15.9757

     occupation numbers 
     1.0000   1.0000   1.0000   1.0000   1.0000   1.0000   1.0000   1.0000
     1.0000   1.0000   1.0000   1.0000   1.0000   1.0000   1.0000   1.0000
     1.0000   1.0000   1.0000   1.0000   1.0000   1.0000   1.0000   1.0000
     1.0000   1.0000   1.0000   1.0000   1.0000   1.0000   1.0000   1.0000
     1.0000   1.0000   1.0000   1.0000   1.0000   1.0000   1.0000   1.0000
     1.0000   1.0000   1.0000   1.0000   1.0000   1.0000   1.0000   1.0000
     1.0000   1.0000   1.0000   1.0000   1.0000   1.0000   1.0000   1.0000
     1.0000   0.7991   0.0000   0.0000   0.0000   0.0000   0.0000   0.0000
     0.0000   0.0000

          k = 0.0816-0.3751 0.2219 ( 20415 PWs)   bands (ev):

  -103.4632 -69.7395 -65.3835 -65.2919 -61.5968 -61.5596 -59.9477 -38.8486
   -38.7636 -38.7207 -29.7261 -29.6261 -29.6070 -29.5597 -29.5134 -29.4838
    -8.8179  -8.2582  -7.9687  -7.6634  -7.6088  -7.4168  -7.2480  -7.0684
     0.1155   1.1725   1.7157   1.7590   1.8876   3.3178   3.4993   3.6316
     3.8650   4.2922   4.4309   4.7391   4.9607   5.1322   5.3015   5.4671
     5.8033   5.8712   6.2719   6.3883   6.6753   6.7235   6.9893   7.1047
     7.3559   7.5419   7.7954   8.0863   8.2325   8.4133   8.6656   8.7161
     9.2189  10.1525  11.7937  12.4359  12.6722  12.8482  13.0444  13.3163
    15.8623  15.9843

     occupation numbers 
     1.0000   1.0000   1.0000   1.0000   1.0000   1.0000   1.0000   1.0000
     1.0000   1.0000   1.0000   1.0000   1.0000   1.0000   1.0000   1.0000
     1.0000   1.0000   1.0000   1.0000   1.0000   1.0000   1.0000   1.0000
     1.0000   1.0000   1.0000   1.0000   1.0000   1.0000   1.0000   1.0000
     1.0000   1.0000   1.0000   1.0000   1.0000   1.0000   1.0000   1.0000
     1.0000   1.0000   1.0000   1.0000   1.0000   1.0000   1.0000   1.0000
     1.0000   1.0000   1.0000   1.0000   1.0000   1.0000   1.0000   1.0000
     1.0000   0.8305   0.0000   0.0000   0.0000   0.0000   0.0000   0.0000
     0.0000   0.0000

          k = 0.0805-0.3751 0.3674 ( 20422 PWs)   bands (ev):

  -103.4633 -69.7396 -65.3835 -65.2919 -61.5968 -61.5596 -59.9477 -38.8486
   -38.7635 -38.7207 -29.7254 -29.6255 -29.6118 -29.5597 -29.5122 -29.4818
    -8.6627  -8.3719  -7.9402  -7.7475  -7.6281  -7.3794  -7.2610  -7.0760
     0.0738   1.1661   1.7489   1.7650   1.9077   3.2597   3.4101   3.6834
     3.8735   4.2856   4.6287   4.8339   5.0570   5.2310   5.3925   5.5387
     5.6335   5.8833   6.0470   6.3476   6.4946   6.6532   6.9989   7.0596
     7.3968   7.5766   7.8131   8.0828   8.2372   8.4453   8.6451   8.7038
     9.3859  10.0930  11.8351  12.1539  12.6526  12.8603  12.9962  13.2110
    15.7939  16.2075

     occupation numbers 
     1.0000   1.0000   1.0000   1.0000   1.0000   1.0000   1.0000   1.0000
     1.0000   1.0000   1.0000   1.0000   1.0000   1.0000   1.0000   1.0000
     1.0000   1.0000   1.0000   1.0000   1.0000   1.0000   1.0000   1.0000
     1.0000   1.0000   1.0000   1.0000   1.0000   1.0000   1.0000   1.0000
     1.0000   1.0000   1.0000   1.0000   1.0000   1.0000   1.0000   1.0000
     1.0000   1.0000   1.0000   1.0000   1.0000   1.0000   1.0000   1.0000
     1.0000   1.0000   1.0000   1.0000   1.0000   1.0000   1.0000   1.0000
     1.0002   0.9540   0.0000   0.0000   0.0000   0.0000   0.0000   0.0000
     0.0000   0.0000

          k = 0.0859-0.3750-0.3604 ( 20416 PWs)   bands (ev):

  -103.4633 -69.7397 -65.3835 -65.2919 -61.5968 -61.5596 -59.9477 -38.8486
   -38.7636 -38.7207 -29.7258 -29.6252 -29.6119 -29.5593 -29.5122 -29.4821
    -8.6965  -8.2991  -7.9470  -7.7872  -7.6155  -7.3822  -7.2839  -7.0576
     0.0581   1.1616   1.7494   1.7694   1.9229   3.2656   3.4335   3.6754
     3.9580   4.2484   4.5808   4.8921   4.9519   5.1532   5.3716   5.6625
     5.7586   5.9044   6.0642   6.2827   6.4321   6.5749   6.9742   7.1356
     7.4109   7.6404   7.8245   7.9949   8.2532   8.3702   8.6263   8.8080
     9.3772  10.0471  11.8535  12.0369  12.6598  12.7864  13.0942  13.2003
    15.6675  16.4743

     occupation numbers 
     1.0000   1.0000   1.0000   1.0000   1.0000   1.0000   1.0000   1.0000
     1.0000   1.0000   1.0000   1.0000   1.0000   1.0000   1.0000   1.0000
     1.0000   1.0000   1.0000   1.0000   1.0000   1.0000   1.0000   1.0000
     1.0000   1.0000   1.0000   1.0000   1.0000   1.0000   1.0000   1.0000
     1.0000   1.0000   1.0000   1.0000   1.0000   1.0000   1.0000   1.0000
     1.0000   1.0000   1.0000   1.0000   1.0000   1.0000   1.0000   1.0000
     1.0000   1.0000   1.0000   1.0000   1.0000   1.0000   1.0000   1.0000
     1.0002   1.0211   0.0000   0.0000   0.0000   0.0000   0.0000   0.0000
     0.0000   0.0000

          k = 0.0849-0.3750-0.2148 ( 20402 PWs)   bands (ev):

  -103.4632 -69.7395 -65.3835 -65.2919 -61.5968 -61.5596 -59.9477 -38.8486
   -38.7636 -38.7207 -29.7270 -29.6257 -29.6070 -29.5589 -29.5133 -29.4843
    -8.8474  -8.1106  -8.0284  -7.7259  -7.5834  -7.4741  -7.2417  -7.0427
     0.0828   1.1639   1.7215   1.7633   1.9165   3.3533   3.4894   3.6718
     3.9473   4.2475   4.4652   4.6587   5.0127   5.0997   5.3659   5.4508
     5.7478   5.8615   6.1853   6.3207   6.6291   6.8327   6.9988   7.2467
     7.4304   7.5751   7.7880   7.9300   8.1399   8.3973   8.6374   8.8347
     9.2225  10.0487  11.8147  12.3201  12.6341  12.7248  13.0861  13.3653
    15.6497  16.4529

     occupation numbers 
     1.0000   1.0000   1.0000   1.0000   1.0000   1.0000   1.0000   1.0000
     1.0000   1.0000   1.0000   1.0000   1.0000   1.0000   1.0000   1.0000
     1.0000   1.0000   1.0000   1.0000   1.0000   1.0000   1.0000   1.0000
     1.0000   1.0000   1.0000   1.0000   1.0000   1.0000   1.0000   1.0000
     1.0000   1.0000   1.0000   1.0000   1.0000   1.0000   1.0000   1.0000
     1.0000   1.0000   1.0000   1.0000   1.0000   1.0000   1.0000   1.0000
     1.0000   1.0000   1.0000   1.0000   1.0000   1.0000   1.0000   1.0000
     1.0000   1.0192   0.0000   0.0000   0.0000   0.0000   0.0000   0.0000
     0.0000   0.0000

          k = 0.0838-0.3750-0.0693 ( 20388 PWs)   bands (ev):

  -103.4632 -69.7394 -65.3836 -65.2919 -61.5968 -61.5596 -59.9477 -38.8487
   -38.7636 -38.7207 -29.7276 -29.6267 -29.6017 -29.5592 -29.5140 -29.4868
    -8.9396  -8.1278  -7.8971  -7.7909  -7.5476  -7.4683  -7.2159  -7.0501
     0.1253   1.1699   1.6904   1.7599   1.8894   3.4807   3.5349   3.6780
     3.9259   4.0989   4.1985   4.6827   4.9917   5.1027   5.3341   5.5735
     5.6500   5.9243   6.1269   6.4678   6.6218   6.8950   7.0862   7.2433
     7.3968   7.6532   7.7577   7.9488   8.1064   8.4760   8.6483   8.7501
     9.1105  10.1086  11.8835  12.4035  12.5635  12.9233  13.0495  13.4780
    15.7583  16.2040

     occupation numbers 
     1.0000   1.0000   1.0000   1.0000   1.0000   1.0000   1.0000   1.0000
     1.0000   1.0000   1.0000   1.0000   1.0000   1.0000   1.0000   1.0000
     1.0000   1.0000   1.0000   1.0000   1.0000   1.0000   1.0000   1.0000
     1.0000   1.0000   1.0000   1.0000   1.0000   1.0000   1.0000   1.0000
     1.0000   1.0000   1.0000   1.0000   1.0000   1.0000   1.0000   1.0000
     1.0000   1.0000   1.0000   1.0000   1.0000   1.0000   1.0000   1.0000
     1.0000   1.0000   1.0000   1.0000   1.0000   1.0000   1.0000   1.0000
     1.0000   0.9254   0.0000   0.0000   0.0000   0.0000   0.0000   0.0000
     0.0000   0.0000

          k = 0.0827-0.2259 0.0728 ( 20385 PWs)   bands (ev):

  -103.4632 -69.7394 -65.3837 -65.2919 -61.5968 -61.5596 -59.9477 -38.8487
   -38.7636 -38.7207 -29.7274 -29.6269 -29.6023 -29.5588 -29.5138 -29.4858
    -9.0721  -8.1105  -7.9141  -7.7247  -7.4626  -7.4102  -7.2204  -7.0563
     0.1107   1.1637   1.6587   1.7483   1.8472   3.2216   3.4667   3.7036
     3.7791   4.0224   4.3276   4.6120   4.8566   5.0558   5.4022   5.6168
     5.8093   6.0197   6.3612   6.5134   6.6606   6.8103   7.0550   7.2122
     7.4060   7.6935   7.8373   8.0143   8.3015   8.5149   8.7248   8.7868
     9.0704  10.1269  11.9693  12.2227  12.5172  13.0043  13.2681  13.4094
    15.3973  15.8416

     occupation numbers 
     1.0000   1.0000   1.0000   1.0000   1.0000   1.0000   1.0000   1.0000
     1.0000   1.0000   1.0000   1.0000   1.0000   1.0000   1.0000   1.0000
     1.0000   1.0000   1.0000   1.0000   1.0000   1.0000   1.0000   1.0000
     1.0000   1.0000   1.0000   1.0000   1.0000   1.0000   1.0000   1.0000
     1.0000   1.0000   1.0000   1.0000   1.0000   1.0000   1.0000   1.0000
     1.0000   1.0000   1.0000   1.0000   1.0000   1.0000   1.0000   1.0000
     1.0000   1.0000   1.0000   1.0000   1.0000   1.0000   1.0000   1.0000
     1.0000   0.8882   0.0000   0.0000   0.0000   0.0000   0.0000   0.0000
     0.0000   0.0000

          k = 0.0817-0.2260 0.2184 ( 20411 PWs)   bands (ev):

  -103.4632 -69.7395 -65.3836 -65.2919 -61.5968 -61.5596 -59.9477 -38.8486
   -38.7636 -38.7207 -29.7254 -29.6261 -29.6068 -29.5599 -29.5136 -29.4835
    -8.9329  -8.2186  -8.0105  -7.7248  -7.4720  -7.3541  -7.2255  -7.0475
     0.0917   1.1609   1.6969   1.7372   1.8447   3.3158   3.4088   3.5845
     3.8679   4.1262   4.2107   4.6653   4.7615   5.1199   5.4660   5.7099
     5.8805   5.9343   6.3124   6.5064   6.6706   6.8169   6.9548   7.1235
     7.4276   7.6260   7.8829   8.0965   8.2029   8.5201   8.7105   8.7844
     9.2382  10.1376  11.8273  12.3890  12.6212  12.9037  13.0719  13.2684
    15.5877  15.9294

     occupation numbers 
     1.0000   1.0000   1.0000   1.0000   1.0000   1.0000   1.0000   1.0000
     1.0000   1.0000   1.0000   1.0000   1.0000   1.0000   1.0000   1.0000
     1.0000   1.0000   1.0000   1.0000   1.0000   1.0000   1.0000   1.0000
     1.0000   1.0000   1.0000   1.0000   1.0000   1.0000   1.0000   1.0000
     1.0000   1.0000   1.0000   1.0000   1.0000   1.0000   1.0000   1.0000
     1.0000   1.0000   1.0000   1.0000   1.0000   1.0000   1.0000   1.0000
     1.0000   1.0000   1.0000   1.0000   1.0000   1.0000   1.0000   1.0000
     1.0000   0.8650   0.0000   0.0000   0.0000   0.0000   0.0000   0.0000
     0.0000   0.0000

          k = 0.0806-0.2260 0.3639 ( 20412 PWs)   bands (ev):

  -103.4632 -69.7396 -65.3836 -65.2919 -61.5968 -61.5596 -59.9477 -38.8486
   -38.7636 -38.7207 -29.7241 -29.6250 -29.6113 -29.5604 -29.5128 -29.4821
    -8.7112  -8.4275  -8.0083  -7.7914  -7.5202  -7.3002  -7.1986  -7.0445
     0.0536   1.1529   1.7295   1.7445   1.8525   3.2265   3.3733   3.6660
     3.8016   4.2183   4.4442   4.6227   4.9140   5.2310   5.3600   5.5724
     5.8687   5.9755   6.0991   6.4236   6.6009   6.8914   7.0059   7.1321
     7.4440   7.5895   7.8804   8.0413   8.2627   8.5381   8.6183   8.8330
     9.3719  10.1053  11.8752  12.2681  12.6507  12.8385  12.9631  13.0898
    15.6685  16.2578

     occupation numbers 
     1.0000   1.0000   1.0000   1.0000   1.0000   1.0000   1.0000   1.0000
     1.0000   1.0000   1.0000   1.0000   1.0000   1.0000   1.0000   1.0000
     1.0000   1.0000   1.0000   1.0000   1.0000   1.0000   1.0000   1.0000
     1.0000   1.0000   1.0000   1.0000   1.0000   1.0000   1.0000   1.0000
     1.0000   1.0000   1.0000   1.0000   1.0000   1.0000   1.0000   1.0000
     1.0000   1.0000   1.0000   1.0000   1.0000   1.0000   1.0000   1.0000
     1.0000   1.0000   1.0000   1.0000   1.0000   1.0000   1.0000   1.0000
     1.0002   0.9317   0.0000   0.0000   0.0000   0.0000   0.0000   0.0000
     0.0000   0.0000

          k = 0.0860-0.2259-0.3638 ( 20430 PWs)   bands (ev):

  -103.4632 -69.7396 -65.3836 -65.2919 -61.5968 -61.5596 -59.9477 -38.8486
   -38.7636 -38.7207 -29.7251 -29.6245 -29.6113 -29.5595 -29.5127 -29.4826
    -8.7597  -8.3427  -7.9948  -7.8268  -7.5537  -7.2820  -7.2056  -7.0379
     0.0345   1.1482   1.7345   1.7491   1.8662   3.2198   3.3100   3.6490
     3.9136   4.1531   4.6334   4.7556   4.8754   5.0515   5.3483   5.5398
     5.8675   5.9827   6.1785   6.4017   6.5735   6.8228   7.0259   7.1966
     7.4678   7.6039   7.7345   8.0696   8.2941   8.4312   8.6164   8.8990
     9.3726  10.0799  11.9260  12.1585  12.6365  12.8067  12.9857  13.0986
    15.6945  16.4014

     occupation numbers 
     1.0000   1.0000   1.0000   1.0000   1.0000   1.0000   1.0000   1.0000
     1.0000   1.0000   1.0000   1.0000   1.0000   1.0000   1.0000   1.0000
     1.0000   1.0000   1.0000   1.0000   1.0000   1.0000   1.0000   1.0000
     1.0000   1.0000   1.0000   1.0000   1.0000   1.0000   1.0000   1.0000
     1.0000   1.0000   1.0000   1.0000   1.0000   1.0000   1.0000   1.0000
     1.0000   1.0000   1.0000   1.0000   1.0000   1.0000   1.0000   1.0000
     1.0000   1.0000   1.0000   1.0000   1.0000   1.0000   1.0000   1.0000
     1.0002   0.9759   0.0000   0.0000   0.0000   0.0000   0.0000   0.0000
     0.0000   0.0000

          k = 0.0849-0.2259-0.2183 ( 20427 PWs)   bands (ev):

  -103.4632 -69.7395 -65.3836 -65.2919 -61.5968 -61.5596 -59.9477 -38.8486
   -38.7636 -38.7207 -29.7272 -29.6252 -29.6067 -29.5583 -29.5133 -29.4846
    -8.9667  -8.0672  -8.0261  -7.7834  -7.5543  -7.3722  -7.1814  -7.0377
     0.0523   1.1520   1.7023   1.7497   1.8732   3.2258   3.3128   3.6589
     3.9206   4.2074   4.4142   4.6961   4.8341   5.1671   5.3953   5.5937
     5.7205   5.9770   6.2395   6.4313   6.6751   6.9139   7.0700   7.2083
     7.3974   7.5215   7.7853   8.0651   8.2375   8.4960   8.5874   8.9121
     9.2227  10.0799  11.8480  12.4202  12.5040  12.7619  13.1083  13.2808
    15.7334  16.1517

     occupation numbers 
     1.0000   1.0000   1.0000   1.0000   1.0000   1.0000   1.0000   1.0000
     1.0000   1.0000   1.0000   1.0000   1.0000   1.0000   1.0000   1.0000
     1.0000   1.0000   1.0000   1.0000   1.0000   1.0000   1.0000   1.0000
     1.0000   1.0000   1.0000   1.0000   1.0000   1.0000   1.0000   1.0000
     1.0000   1.0000   1.0000   1.0000   1.0000   1.0000   1.0000   1.0000
     1.0000   1.0000   1.0000   1.0000   1.0000   1.0000   1.0000   1.0000
     1.0000   1.0000   1.0000   1.0000   1.0000   1.0000   1.0000   1.0000
     1.0000   0.9759   0.0000   0.0000   0.0000   0.0000   0.0000   0.0000
     0.0000   0.0000

          k = 0.0838-0.2259-0.0727 ( 20411 PWs)   bands (ev):

  -103.4632 -69.7394 -65.3837 -65.2919 -61.5968 -61.5596 -59.9477 -38.8487
   -38.7636 -38.7207 -29.7283 -29.6265 -29.6022 -29.5580 -29.5136 -29.4864
    -9.0833  -8.0706  -7.8532  -7.7795  -7.5186  -7.4326  -7.1833  -7.0511
     0.0903   1.1595   1.6611   1.7540   1.8621   3.1743   3.4013   3.7088
     3.9001   4.0653   4.3020   4.7139   4.9364   5.1486   5.3231   5.4665
     5.7876   5.9657   6.3143   6.4572   6.7396   6.8892   7.0877   7.1761
     7.4159   7.6132   7.8773   8.0034   8.3232   8.5281   8.6240   8.8254
     9.0651  10.0971  11.9819  12.3192  12.3695  12.9767  13.2355  13.4188
    15.5205  15.9572

     occupation numbers 
     1.0000   1.0000   1.0000   1.0000   1.0000   1.0000   1.0000   1.0000
     1.0000   1.0000   1.0000   1.0000   1.0000   1.0000   1.0000   1.0000
     1.0000   1.0000   1.0000   1.0000   1.0000   1.0000   1.0000   1.0000
     1.0000   1.0000   1.0000   1.0000   1.0000   1.0000   1.0000   1.0000
     1.0000   1.0000   1.0000   1.0000   1.0000   1.0000   1.0000   1.0000
     1.0000   1.0000   1.0000   1.0000   1.0000   1.0000   1.0000   1.0000
     1.0000   1.0000   1.0000   1.0000   1.0000   1.0000   1.0000   1.0000
     1.0000   0.9467   0.0000   0.0000   0.0000   0.0000   0.0000   0.0000
     0.0000   0.0000

          k = 0.0828-0.0768 0.0693 ( 20395 PWs)   bands (ev):

  -103.4632 -69.7394 -65.3838 -65.2920 -61.5968 -61.5596 -59.9477 -38.8486
   -38.7636 -38.7207 -29.7280 -29.6267 -29.6028 -29.5577 -29.5134 -29.4856
    -9.1929  -8.1440  -7.8529  -7.6474  -7.4122  -7.3502  -7.2385  -7.0646
     0.0739   1.1628   1.6201   1.7405   1.8071   3.0102   3.4303   3.5808
     3.7821   3.8956   4.4250   4.5833   4.9380   5.1328   5.4231   5.6387
     5.9410   6.0016   6.2909   6.3959   6.7179   6.9351   7.1374   7.3265
     7.4835   7.5853   7.8610   8.1466   8.4326   8.5194   8.7100   8.8343
     9.0817  10.1357  12.0863  12.2200  12.4086  12.8608  13.3918  13.4596
    14.9281  15.6317

     occupation numbers 
     1.0000   1.0000   1.0000   1.0000   1.0000   1.0000   1.0000   1.0000
     1.0000   1.0000   1.0000   1.0000   1.0000   1.0000   1.0000   1.0000
     1.0000   1.0000   1.0000   1.0000   1.0000   1.0000   1.0000   1.0000
     1.0000   1.0000   1.0000   1.0000   1.0000   1.0000   1.0000   1.0000
     1.0000   1.0000   1.0000   1.0000   1.0000   1.0000   1.0000   1.0000
     1.0000   1.0000   1.0000   1.0000   1.0000   1.0000   1.0000   1.0000
     1.0000   1.0000   1.0000   1.0000   1.0000   1.0000   1.0000   1.0000
     1.0000   0.8692   0.0000   0.0000   0.0000   0.0000   0.0000   0.0000
     0.0000   0.0000

          k = 0.0817-0.0769 0.2149 ( 20413 PWs)   bands (ev):

  -103.4632 -69.7395 -65.3837 -65.2920 -61.5968 -61.5596 -59.9477 -38.8486
   -38.7636 -38.7207 -29.7255 -29.6256 -29.6067 -29.5593 -29.5136 -29.4839
    -9.0494  -8.1990  -8.0207  -7.7109  -7.4197  -7.2837  -7.1886  -7.0456
     0.0623   1.1580   1.6649   1.7167   1.7920   3.1577   3.3809   3.5803
     3.8388   3.9248   4.1385   4.5965   4.9091   5.2370   5.4900   5.6734
     5.8872   5.9948   6.2551   6.5313   6.7424   6.8783   7.0689   7.2265
     7.4836   7.6355   7.7981   8.1764   8.3821   8.5712   8.7204   8.8207
     9.2420  10.1680  11.9412  12.3365  12.5153  12.8647  13.1126  13.2994
    15.2977  15.6456

     occupation numbers 
     1.0000   1.0000   1.0000   1.0000   1.0000   1.0000   1.0000   1.0000
     1.0000   1.0000   1.0000   1.0000   1.0000   1.0000   1.0000   1.0000
     1.0000   1.0000   1.0000   1.0000   1.0000   1.0000   1.0000   1.0000
     1.0000   1.0000   1.0000   1.0000   1.0000   1.0000   1.0000   1.0000
     1.0000   1.0000   1.0000   1.0000   1.0000   1.0000   1.0000   1.0000
     1.0000   1.0000   1.0000   1.0000   1.0000   1.0000   1.0000   1.0000
     1.0000   1.0000   1.0000   1.0000   1.0000   1.0000   1.0000   1.0000
     1.0000   0.7929   0.0000   0.0000   0.0000   0.0000   0.0000   0.0000
     0.0000   0.0000

          k = 0.0806-0.0769 0.3604 ( 20415 PWs)   bands (ev):

  -103.4632 -69.7395 -65.3837 -65.2920 -61.5968 -61.5596 -59.9477 -38.8486
   -38.7636 -38.7207 -29.7233 -29.6242 -29.6107 -29.5606 -29.5133 -29.4827
    -8.8014  -8.4395  -8.0527  -7.7967  -7.4400  -7.2686  -7.1232  -7.0104
     0.0287   1.1469   1.6912   1.7287   1.7858   3.1565   3.2454   3.7405
     3.8517   4.0758   4.2288   4.5719   4.9098   5.1948   5.4202   5.6155
     5.8476   6.0193   6.1659   6.4733   6.7686   6.8443   7.1163   7.2839
     7.4387   7.7005   7.8007   8.1015   8.3564   8.5792   8.6915   8.8473
     9.3709  10.1706  12.0131  12.3585  12.4932  12.7589  12.9236  13.1056
    15.5237  16.0619

     occupation numbers 
     1.0000   1.0000   1.0000   1.0000   1.0000   1.0000   1.0000   1.0000
     1.0000   1.0000   1.0000   1.0000   1.0000   1.0000   1.0000   1.0000
     1.0000   1.0000   1.0000   1.0000   1.0000   1.0000   1.0000   1.0000
     1.0000   1.0000   1.0000   1.0000   1.0000   1.0000   1.0000   1.0000
     1.0000   1.0000   1.0000   1.0000   1.0000   1.0000   1.0000   1.0000
     1.0000   1.0000   1.0000   1.0000   1.0000   1.0000   1.0000   1.0000
     1.0000   1.0000   1.0000   1.0000   1.0000   1.0000   1.0000   1.0000
     1.0001   0.7863   0.0000   0.0000   0.0000   0.0000   0.0000   0.0000
     0.0000   0.0000

          k = 0.0861-0.0768-0.3673 ( 20418 PWs)   bands (ev):

  -103.4632 -69.7395 -65.3837 -65.2920 -61.5968 -61.5596 -59.9477 -38.8486
   -38.7636 -38.7207 -29.7237 -29.6240 -29.6108 -29.5602 -29.5133 -29.4830
    -8.8090  -8.4167  -8.0469  -7.8167  -7.4631  -7.2589  -7.1116  -7.0106
     0.0073   1.1416   1.7027   1.7293   1.7980   3.1313   3.1868   3.7361
     3.8830   4.1325   4.4195   4.6482   4.8415   5.0326   5.3379   5.6765
     5.8977   6.0740   6.1684   6.5565   6.7287   6.8616   6.9612   7.2806
     7.4573   7.7007   7.8321   8.0464   8.1793   8.5742   8.7380   8.9119
     9.3656  10.1675  12.0520  12.2805  12.5116  12.7746  12.9203  13.0562
    15.6251  16.1196

     occupation numbers 
     1.0000   1.0000   1.0000   1.0000   1.0000   1.0000   1.0000   1.0000
     1.0000   1.0000   1.0000   1.0000   1.0000   1.0000   1.0000   1.0000
     1.0000   1.0000   1.0000   1.0000   1.0000   1.0000   1.0000   1.0000
     1.0000   1.0000   1.0000   1.0000   1.0000   1.0000   1.0000   1.0000
     1.0000   1.0000   1.0000   1.0000   1.0000   1.0000   1.0000   1.0000
     1.0000   1.0000   1.0000   1.0000   1.0000   1.0000   1.0000   1.0000
     1.0000   1.0000   1.0000   1.0000   1.0000   1.0000   1.0000   1.0000
     1.0001   0.7940   0.0000   0.0000   0.0000   0.0000   0.0000   0.0000
     0.0000   0.0000

          k = 0.0850-0.0768-0.2218 ( 20422 PWs)   bands (ev):

  -103.4632 -69.7395 -65.3837 -65.2920 -61.5968 -61.5596 -59.9477 -38.8486
   -38.7636 -38.7207 -29.7264 -29.6252 -29.6067 -29.5584 -29.5135 -29.4844
    -9.0531  -8.1366  -8.0409  -7.7355  -7.4807  -7.2959  -7.1403  -7.0365
     0.0187   1.1479   1.6731   1.7324   1.8181   3.0564   3.2308   3.6663
     3.9526   4.1203   4.2925   4.5660   4.9290   5.1392   5.4063   5.6772
     5.9511   6.0918   6.2703   6.3870   6.7521   6.9242   7.0656   7.2662
     7.3546   7.6495   7.7350   8.0527   8.1670   8.5633   8.7934   8.9571
     9.2174  10.1549  11.8999  12.3923  12.5826  12.7437  13.0492  13.2621
    15.4752  15.9728

     occupation numbers 
     1.0000   1.0000   1.0000   1.0000   1.0000   1.0000   1.0000   1.0000
     1.0000   1.0000   1.0000   1.0000   1.0000   1.0000   1.0000   1.0000
     1.0000   1.0000   1.0000   1.0000   1.0000   1.0000   1.0000   1.0000
     1.0000   1.0000   1.0000   1.0000   1.0000   1.0000   1.0000   1.0000
     1.0000   1.0000   1.0000   1.0000   1.0000   1.0000   1.0000   1.0000
     1.0000   1.0000   1.0000   1.0000   1.0000   1.0000   1.0000   1.0000
     1.0000   1.0000   1.0000   1.0000   1.0000   1.0000   1.0000   1.0000
     1.0000   0.8248   0.0000   0.0000   0.0000   0.0000   0.0000   0.0000
     0.0000   0.0000

          k = 0.0839-0.0768-0.0762 ( 20419 PWs)   bands (ev):

  -103.4632 -69.7394 -65.3838 -65.2920 -61.5968 -61.5596 -59.9477 -38.8486
   -38.7636 -38.7207 -29.7285 -29.6265 -29.6027 -29.5573 -29.5133 -29.4858
    -9.1940  -8.1255  -7.8477  -7.6414  -7.4744  -7.3727  -7.1931  -7.0550
     0.0516   1.1580   1.6230   1.7486   1.8218   2.9644   3.3193   3.6037
     3.8881   4.0960   4.3070   4.6514   4.9230   5.2161   5.3446   5.6017
     5.9610   6.0305   6.2233   6.4292   6.6865   6.9642   7.1727   7.3210
     7.4179   7.5741   7.7893   8.1182   8.3430   8.5212   8.7514   8.9276
     9.0434  10.1283  12.0114  12.2942  12.4195  12.8273  13.3616  13.4230
    15.0307  15.8274

     occupation numbers 
     1.0000   1.0000   1.0000   1.0000   1.0000   1.0000   1.0000   1.0000
     1.0000   1.0000   1.0000   1.0000   1.0000   1.0000   1.0000   1.0000
     1.0000   1.0000   1.0000   1.0000   1.0000   1.0000   1.0000   1.0000
     1.0000   1.0000   1.0000   1.0000   1.0000   1.0000   1.0000   1.0000
     1.0000   1.0000   1.0000   1.0000   1.0000   1.0000   1.0000   1.0000
     1.0000   1.0000   1.0000   1.0000   1.0000   1.0000   1.0000   1.0000
     1.0000   1.0000   1.0000   1.0000   1.0000   1.0000   1.0000   1.0000
     1.0000   0.8854   0.0000   0.0000   0.0000   0.0000   0.0000   0.0000
     0.0000   0.0000

          k = 0.2496 0.0677 0.0554 ( 20367 PWs)   bands (ev):

  -103.4632 -69.7394 -65.3837 -65.2919 -61.5968 -61.5596 -59.9477 -38.8487
   -38.7636 -38.7207 -29.7288 -29.6268 -29.6032 -29.5577 -29.5135 -29.4862
    -9.0959  -8.1424  -7.8022  -7.6293  -7.4701  -7.3421  -7.3160  -7.1646
     0.0790   1.1558   1.6838   1.7466   1.8564   3.1440   3.3887   3.6057
     3.7895   4.0313   4.3999   4.7661   4.8024   4.9282   5.0933   5.4910
     5.9314   6.2191   6.3553   6.5120   6.7881   6.9264   7.0090   7.3040
     7.5691   7.6569   7.8728   8.0697   8.2716   8.4193   8.7667   9.0381
     9.1417  10.0259  12.0510  12.2473  12.3088  12.8812  13.3801  13.5646
    15.2897  15.6275

     occupation numbers 
     1.0000   1.0000   1.0000   1.0000   1.0000   1.0000   1.0000   1.0000
     1.0000   1.0000   1.0000   1.0000   1.0000   1.0000   1.0000   1.0000
     1.0000   1.0000   1.0000   1.0000   1.0000   1.0000   1.0000   1.0000
     1.0000   1.0000   1.0000   1.0000   1.0000   1.0000   1.0000   1.0000
     1.0000   1.0000   1.0000   1.0000   1.0000   1.0000   1.0000   1.0000
     1.0000   1.0000   1.0000   1.0000   1.0000   1.0000   1.0000   1.0000
     1.0000   1.0000   1.0000   1.0000   1.0000   1.0000   1.0000   1.0000
     1.0000   1.0433   0.0000   0.0000   0.0000   0.0000   0.0000   0.0000
     0.0000   0.0000

          k = 0.2485 0.0677 0.2010 ( 20380 PWs)   bands (ev):

  -103.4632 -69.7395 -65.3837 -65.2921 -61.5968 -61.5596 -59.9477 -38.8486
   -38.7636 -38.7208 -29.7267 -29.6253 -29.6072 -29.5589 -29.5135 -29.4847
    -8.9802  -8.1619  -7.9766  -7.6602  -7.4826  -7.3403  -7.2607  -7.1097
     0.1104   1.1600   1.6938   1.7433   1.8341   3.2010   3.5008   3.5922
     3.7804   3.9732   4.1745   4.5920   4.7041   4.9850   5.1532   5.8396
     6.0511   6.1385   6.2951   6.4119   6.6562   6.8664   7.0218   7.2950
     7.5100   7.6805   7.8772   8.3206   8.4001   8.5394   8.7074   8.9564
     9.1865  10.0055  11.9629  12.3549  12.4952  12.9190  13.2217  13.3965
    15.2868  15.7325

     occupation numbers 
     1.0000   1.0000   1.0000   1.0000   1.0000   1.0000   1.0000   1.0000
     1.0000   1.0000   1.0000   1.0000   1.0000   1.0000   1.0000   1.0000
     1.0000   1.0000   1.0000   1.0000   1.0000   1.0000   1.0000   1.0000
     1.0000   1.0000   1.0000   1.0000   1.0000   1.0000   1.0000   1.0000
     1.0000   1.0000   1.0000   1.0000   1.0000   1.0000   1.0000   1.0000
     1.0000   1.0000   1.0000   1.0000   1.0000   1.0000   1.0000   1.0000
     1.0000   1.0000   1.0000   1.0000   1.0000   1.0000   1.0000   1.0000
     1.0000   1.0596   0.0000   0.0000   0.0000   0.0000   0.0000   0.0000
     0.0000   0.0000

          k = 0.2474 0.0677 0.3465 ( 20406 PWs)   bands (ev):

  -103.4632 -69.7395 -65.3837 -65.2922 -61.5968 -61.5596 -59.9477 -38.8486
   -38.7636 -38.7207 -29.7239 -29.6241 -29.6112 -29.5606 -29.5134 -29.4833
    -8.7669  -8.3071  -8.0974  -7.7268  -7.5073  -7.3353  -7.1899  -7.0525
     0.1003   1.1531   1.6983   1.7673   1.8369   3.1427   3.4121   3.6765
     3.7972   3.9794   4.3178   4.5196   4.8366   5.1427   5.2600   5.6653
     5.8056   6.0541   6.2815   6.3559   6.5922   6.8268   6.9562   7.2860
     7.4628   7.8644   7.9628   8.4235   8.4659   8.5461   8.7487   8.8302
     9.2240   9.9778  12.1166  12.3585  12.6258  12.8574  12.9895  13.1520
    15.4789  15.9400

     occupation numbers 
     1.0000   1.0000   1.0000   1.0000   1.0000   1.0000   1.0000   1.0000
     1.0000   1.0000   1.0000   1.0000   1.0000   1.0000   1.0000   1.0000
     1.0000   1.0000   1.0000   1.0000   1.0000   1.0000   1.0000   1.0000
     1.0000   1.0000   1.0000   1.0000   1.0000   1.0000   1.0000   1.0000
     1.0000   1.0000   1.0000   1.0000   1.0000   1.0000   1.0000   1.0000
     1.0000   1.0000   1.0000   1.0000   1.0000   1.0000   1.0000   1.0000
     1.0000   1.0000   1.0000   1.0000   1.0000   1.0000   1.0000   1.0000
     1.0000   1.0744   0.0000   0.0000   0.0000   0.0000   0.0000   0.0000
     0.0000   0.0000

          k = 0.2529 0.0678-0.3812 ( 20416 PWs)   bands (ev):

  -103.4632 -69.7395 -65.3837 -65.2922 -61.5968 -61.5596 -59.9477 -38.8486
   -38.7636 -38.7207 -29.7234 -29.6244 -29.6112 -29.5610 -29.5135 -29.4830
    -8.7079  -8.3732  -8.0800  -7.7754  -7.5056  -7.3211  -7.1827  -7.0395
     0.0593   1.1419   1.7127   1.7811   1.8504   3.1102   3.3000   3.6831
     3.8433   4.1455   4.5261   4.5802   4.8827   5.0691   5.2700   5.4391
     5.7783   6.1096   6.2483   6.4175   6.6283   6.7679   6.9685   7.1852
     7.4220   7.8355   8.0513   8.3067   8.3955   8.4811   8.7961   8.8703
     9.1938  10.0063  12.0859  12.4244  12.5931  12.8134  12.9847  13.0903
    15.8172  16.0348

     occupation numbers 
     1.0000   1.0000   1.0000   1.0000   1.0000   1.0000   1.0000   1.0000
     1.0000   1.0000   1.0000   1.0000   1.0000   1.0000   1.0000   1.0000
     1.0000   1.0000   1.0000   1.0000   1.0000   1.0000   1.0000   1.0000
     1.0000   1.0000   1.0000   1.0000   1.0000   1.0000   1.0000   1.0000
     1.0000   1.0000   1.0000   1.0000   1.0000   1.0000   1.0000   1.0000
     1.0000   1.0000   1.0000   1.0000   1.0000   1.0000   1.0000   1.0000
     1.0000   1.0000   1.0000   1.0000   1.0000   1.0000   1.0000   1.0000
     1.0000   1.0590   0.0000   0.0000   0.0000   0.0000   0.0000   0.0000
     0.0000   0.0000

          k = 0.2518 0.0678-0.2357 ( 20435 PWs)   bands (ev):

  -103.4632 -69.7394 -65.3837 -65.2921 -61.5968 -61.5596 -59.9477 -38.8487
   -38.7636 -38.7207 -29.7256 -29.6259 -29.6072 -29.5597 -29.5139 -29.4841
    -8.9320  -8.1303  -8.0477  -7.7460  -7.4954  -7.3349  -7.2195  -7.0706
     0.0303   1.1372   1.7144   1.7702   1.8716   3.0824   3.2429   3.7844
     3.8795   4.1981   4.4512   4.6785   4.8200   4.9593   5.3555   5.5498
     5.8110   6.0208   6.1690   6.5311   6.7236   6.8676   6.9707   7.1827
     7.4618   7.7622   7.9432   8.1186   8.2165   8.5197   8.8032   8.9335
     9.1107  10.0526  11.8691  12.5040  12.6610  12.8081  12.9050  13.3458
    15.9290  16.0963

     occupation numbers 
     1.0000   1.0000   1.0000   1.0000   1.0000   1.0000   1.0000   1.0000
     1.0000   1.0000   1.0000   1.0000   1.0000   1.0000   1.0000   1.0000
     1.0000   1.0000   1.0000   1.0000   1.0000   1.0000   1.0000   1.0000
     1.0000   1.0000   1.0000   1.0000   1.0000   1.0000   1.0000   1.0000
     1.0000   1.0000   1.0000   1.0000   1.0000   1.0000   1.0000   1.0000
     1.0000   1.0000   1.0000   1.0000   1.0000   1.0000   1.0000   1.0000
     1.0000   1.0000   1.0000   1.0000   1.0000   1.0000   1.0000   1.0000
     1.0000   1.0145   0.0000   0.0000   0.0000   0.0000   0.0000   0.0000
     0.0000   0.0000

          k = 0.2507 0.0677-0.0901 ( 20409 PWs)   bands (ev):

  -103.4632 -69.7394 -65.3837 -65.2919 -61.5968 -61.5596 -59.9477 -38.8487
   -38.7636 -38.7207 -29.7283 -29.6271 -29.6033 -29.5581 -29.5137 -29.4858
    -9.0791  -8.1203  -7.8372  -7.6784  -7.4829  -7.3624  -7.2760  -7.1286
     0.0398   1.1442   1.6903   1.7612   1.8785   3.0761   3.2702   3.6447
     3.9397   4.2347   4.3816   4.5896   4.9783   5.0991   5.2628   5.3805
     5.7717   6.1231   6.2192   6.4313   6.7650   6.9227   7.1277   7.3084
     7.5266   7.7507   7.8414   7.9961   8.2054   8.4223   8.7851   9.0237
     9.0784  10.0518  11.9283  12.3061  12.4578  12.8389  13.2106  13.5348
    15.5534  15.9419

     occupation numbers 
     1.0000   1.0000   1.0000   1.0000   1.0000   1.0000   1.0000   1.0000
     1.0000   1.0000   1.0000   1.0000   1.0000   1.0000   1.0000   1.0000
     1.0000   1.0000   1.0000   1.0000   1.0000   1.0000   1.0000   1.0000
     1.0000   1.0000   1.0000   1.0000   1.0000   1.0000   1.0000   1.0000
     1.0000   1.0000   1.0000   1.0000   1.0000   1.0000   1.0000   1.0000
     1.0000   1.0000   1.0000   1.0000   1.0000   1.0000   1.0000   1.0000
     1.0000   1.0000   1.0000   1.0000   1.0000   1.0000   1.0000   1.0000
     1.0000   1.0154   0.0000   0.0000   0.0000   0.0000   0.0000   0.0000
     0.0000   0.0000

          k = 0.2497 0.2168 0.0519 ( 20388 PWs)   bands (ev):

  -103.4632 -69.7394 -65.3839 -65.2920 -61.5968 -61.5596 -59.9477 -38.8487
   -38.7636 -38.7208 -29.7282 -29.6266 -29.6025 -29.5583 -29.5138 -29.4868
    -9.0306  -8.1227  -7.9077  -7.6085  -7.4995  -7.3896  -7.2679  -7.1662
     0.0627   1.1671   1.6806   1.7564   1.8639   3.1614   3.4910   3.6890
     3.8424   4.0452   4.2894   4.8341   4.9127   5.0389   5.2261   5.5643
     5.8723   6.1883   6.4514   6.5733   6.6909   6.8067   6.9367   7.2108
     7.3910   7.5305   7.8720   8.0032   8.2251   8.3656   8.6761   8.8954
     9.1719   9.9533  11.9896  12.3384  12.3705  12.9568  13.2724  13.4882
    15.5284  15.8007

     occupation numbers 
     1.0000   1.0000   1.0000   1.0000   1.0000   1.0000   1.0000   1.0000
     1.0000   1.0000   1.0000   1.0000   1.0000   1.0000   1.0000   1.0000
     1.0000   1.0000   1.0000   1.0000   1.0000   1.0000   1.0000   1.0000
     1.0000   1.0000   1.0000   1.0000   1.0000   1.0000   1.0000   1.0000
     1.0000   1.0000   1.0000   1.0000   1.0000   1.0000   1.0000   1.0000
     1.0000   1.0000   1.0000   1.0000   1.0000   1.0000   1.0000   1.0000
     1.0000   1.0000   1.0000   1.0000   1.0000   1.0000   1.0000   1.0000
     1.0000   1.0813   0.0000   0.0000   0.0000   0.0000   0.0000   0.0000
     0.0000   0.0000

          k = 0.2486 0.2168 0.1975 ( 20405 PWs)   bands (ev):

  -103.4632 -69.7395 -65.3839 -65.2921 -61.5968 -61.5596 -59.9477 -38.8487
   -38.7636 -38.7208 -29.7271 -29.6251 -29.6071 -29.5586 -29.5134 -29.4850
    -8.9360  -8.1414  -8.0290  -7.6368  -7.4720  -7.3710  -7.2806  -7.1330
     0.0813   1.1729   1.6916   1.7571   1.8486   3.1622   3.4290   3.7419
     3.8465   4.0398   4.3090   4.5991   4.8738   4.9777   5.4074   5.6493
     6.0558   6.0961   6.3929   6.5319   6.7529   6.8113   6.9592   7.0964
     7.4233   7.5076   7.6722   8.1142   8.3091   8.5031   8.6454   8.8846
     9.2591   9.9590  11.8733  12.4248  12.5094  12.9669  13.1981  13.3418
    15.4285  15.9316

     occupation numbers 
     1.0000   1.0000   1.0000   1.0000   1.0000   1.0000   1.0000   1.0000
     1.0000   1.0000   1.0000   1.0000   1.0000   1.0000   1.0000   1.0000
     1.0000   1.0000   1.0000   1.0000   1.0000   1.0000   1.0000   1.0000
     1.0000   1.0000   1.0000   1.0000   1.0000   1.0000   1.0000   1.0000
     1.0000   1.0000   1.0000   1.0000   1.0000   1.0000   1.0000   1.0000
     1.0000   1.0000   1.0000   1.0000   1.0000   1.0000   1.0000   1.0000
     1.0000   1.0000   1.0000   1.0000   1.0000   1.0000   1.0000   1.0000
     1.0000   1.0802   0.0000   0.0000   0.0000   0.0000   0.0000   0.0000
     0.0000   0.0000

          k = 0.2475 0.2168 0.3430 ( 20393 PWs)   bands (ev):

  -103.4632 -69.7396 -65.3839 -65.2923 -61.5968 -61.5596 -59.9477 -38.8486
   -38.7636 -38.7207 -29.7249 -29.6243 -29.6117 -29.5598 -29.5128 -29.4829
    -8.7608  -8.2469  -8.1461  -7.6776  -7.4815  -7.3517  -7.2387  -7.1063
     0.0649   1.1694   1.6993   1.7762   1.8593   3.1169   3.4749   3.6575
     3.8969   4.0153   4.3899   4.6191   4.8839   5.1494   5.4704   5.6479
     5.7793   6.1243   6.3198   6.4581   6.6633   6.8303   6.9155   7.0913
     7.4433   7.5797   7.7258   8.1758   8.3359   8.5189   8.7091   8.8158
     9.2968   9.9248  11.9633  12.2505  12.6559  12.9121  13.0864  13.1707
    15.5487  16.0036

     occupation numbers 
     1.0000   1.0000   1.0000   1.0000   1.0000   1.0000   1.0000   1.0000
     1.0000   1.0000   1.0000   1.0000   1.0000   1.0000   1.0000   1.0000
     1.0000   1.0000   1.0000   1.0000   1.0000   1.0000   1.0000   1.0000
     1.0000   1.0000   1.0000   1.0000   1.0000   1.0000   1.0000   1.0000
     1.0000   1.0000   1.0000   1.0000   1.0000   1.0000   1.0000   1.0000
     1.0000   1.0000   1.0000   1.0000   1.0000   1.0000   1.0000   1.0000
     1.0000   1.0000   1.0000   1.0000   1.0000   1.0000   1.0000   1.0000
     1.0000   1.0832   0.0000   0.0000   0.0000   0.0000   0.0000   0.0000
     0.0000   0.0000

          k = 0.2529 0.2169-0.3847 ( 20405 PWs)   bands (ev):

  -103.4632 -69.7395 -65.3839 -65.2923 -61.5968 -61.5596 -59.9477 -38.8486
   -38.7636 -38.7207 -29.7238 -29.6250 -29.6116 -29.5607 -29.5130 -29.4823
    -8.6952  -8.3296  -8.1403  -7.6898  -7.4818  -7.3210  -7.2828  -7.0724
     0.0308   1.1598   1.7073   1.7878   1.8760   3.1382   3.5361   3.5814
     3.8273   4.1099   4.5614   4.6948   4.9541   5.0045   5.3082   5.7083
     5.8204   6.0879   6.2166   6.4242   6.7344   6.8048   6.9896   7.0885
     7.3586   7.6304   7.7418   8.1325   8.3304   8.5120   8.7208   8.8154
     9.1964   9.9162  11.8978  12.2878  12.6956  12.7867  13.0900  13.1650
    15.7975  16.0244

     occupation numbers 
     1.0000   1.0000   1.0000   1.0000   1.0000   1.0000   1.0000   1.0000
     1.0000   1.0000   1.0000   1.0000   1.0000   1.0000   1.0000   1.0000
     1.0000   1.0000   1.0000   1.0000   1.0000   1.0000   1.0000   1.0000
     1.0000   1.0000   1.0000   1.0000   1.0000   1.0000   1.0000   1.0000
     1.0000   1.0000   1.0000   1.0000   1.0000   1.0000   1.0000   1.0000
     1.0000   1.0000   1.0000   1.0000   1.0000   1.0000   1.0000   1.0000
     1.0000   1.0000   1.0000   1.0000   1.0000   1.0000   1.0000   1.0000
     1.0000   1.0828   0.0000   0.0000   0.0000   0.0000   0.0000   0.0000
     0.0000   0.0000

          k = 0.2518 0.2169-0.2392 ( 20403 PWs)   bands (ev):

  -103.4632 -69.7395 -65.3839 -65.2922 -61.5968 -61.5596 -59.9477 -38.8487
   -38.7636 -38.7207 -29.7251 -29.6262 -29.6072 -29.5603 -29.5139 -29.4837
    -8.8725  -8.1671  -8.0697  -7.7006  -7.4793  -7.3394  -7.3014  -7.0763
     0.0138   1.1538   1.7038   1.7763   1.8883   3.1504   3.5009   3.7249
     3.7782   4.2253   4.4368   4.7249   4.8585   5.1075   5.3618   5.5472
     5.8052   5.9959   6.2098   6.5308   6.8359   6.9254   7.0311   7.1602
     7.3061   7.6021   7.7310   8.0050   8.2747   8.4733   8.6448   8.8966
     9.0604   9.9237  11.8041  12.4985  12.6301  12.7383  13.0492  13.3337
    15.8381  16.2234

     occupation numbers 
     1.0000   1.0000   1.0000   1.0000   1.0000   1.0000   1.0000   1.0000
     1.0000   1.0000   1.0000   1.0000   1.0000   1.0000   1.0000   1.0000
     1.0000   1.0000   1.0000   1.0000   1.0000   1.0000   1.0000   1.0000
     1.0000   1.0000   1.0000   1.0000   1.0000   1.0000   1.0000   1.0000
     1.0000   1.0000   1.0000   1.0000   1.0000   1.0000   1.0000   1.0000
     1.0000   1.0000   1.0000   1.0000   1.0000   1.0000   1.0000   1.0000
     1.0000   1.0000   1.0000   1.0000   1.0000   1.0000   1.0000   1.0000
     1.0000   1.0832   0.0000   0.0000   0.0000   0.0000   0.0000   0.0000
     0.0000   0.0000

          k = 0.2508 0.2169-0.0936 ( 20391 PWs)   bands (ev):

  -103.4632 -69.7394 -65.3839 -65.2920 -61.5968 -61.5596 -59.9477 -38.8487
   -38.7636 -38.7208 -29.7272 -29.6271 -29.6026 -29.5591 -29.5141 -29.4861
    -9.0080  -8.1294  -7.8738  -7.7366  -7.4747  -7.3525  -7.2943  -7.1270
     0.0293   1.1575   1.6850   1.7650   1.8858   3.1430   3.4744   3.7179
     3.9121   4.1807   4.2297   4.7460   4.9893   5.1204   5.3630   5.5189
     5.8145   6.0032   6.3053   6.3545   6.7761   6.9361   7.0439   7.2565
     7.4830   7.5966   7.7261   8.0041   8.2140   8.3505   8.6671   8.8739
     9.0783   9.9348  11.9792  12.2705  12.4877  12.9454  13.1067  13.4805
    15.7062  16.0921

     occupation numbers 
     1.0000   1.0000   1.0000   1.0000   1.0000   1.0000   1.0000   1.0000
     1.0000   1.0000   1.0000   1.0000   1.0000   1.0000   1.0000   1.0000
     1.0000   1.0000   1.0000   1.0000   1.0000   1.0000   1.0000   1.0000
     1.0000   1.0000   1.0000   1.0000   1.0000   1.0000   1.0000   1.0000
     1.0000   1.0000   1.0000   1.0000   1.0000   1.0000   1.0000   1.0000
     1.0000   1.0000   1.0000   1.0000   1.0000   1.0000   1.0000   1.0000
     1.0000   1.0000   1.0000   1.0000   1.0000   1.0000   1.0000   1.0000
     1.0000   1.0832   0.0000   0.0000   0.0000   0.0000   0.0000   0.0000
     0.0000   0.0000

          k = 0.2497 0.3659 0.0484 ( 20387 PWs)   bands (ev):

  -103.4632 -69.7394 -65.3840 -65.2920 -61.5968 -61.5596 -59.9477 -38.8487
   -38.7636 -38.7208 -29.7274 -29.6268 -29.6017 -29.5594 -29.5142 -29.4870
    -8.9171  -8.1180  -8.0272  -7.6291  -7.5555  -7.4093  -7.2469  -7.1258
     0.0596   1.1809   1.6918   1.7532   1.8690   3.1893   3.5164   3.7633
     3.9315   4.1302   4.4076   4.7677   4.9754   5.1250   5.3206   5.4865
     5.9202   6.1997   6.4774   6.5434   6.6137   6.7745   6.9226   7.1040
     7.2087   7.5623   7.7012   7.8709   8.0754   8.4240   8.5998   8.8326
     9.1508   9.9155  11.9166  12.4186  12.5746  12.9252  13.2567  13.3441
    15.6109  16.0628

     occupation numbers 
     1.0000   1.0000   1.0000   1.0000   1.0000   1.0000   1.0000   1.0000
     1.0000   1.0000   1.0000   1.0000   1.0000   1.0000   1.0000   1.0000
     1.0000   1.0000   1.0000   1.0000   1.0000   1.0000   1.0000   1.0000
     1.0000   1.0000   1.0000   1.0000   1.0000   1.0000   1.0000   1.0000
     1.0000   1.0000   1.0000   1.0000   1.0000   1.0000   1.0000   1.0000
     1.0000   1.0000   1.0000   1.0000   1.0000   1.0000   1.0000   1.0000
     1.0000   1.0000   1.0000   1.0000   1.0000   1.0000   1.0000   1.0000
     1.0000   1.0827   0.0000   0.0000   0.0000   0.0000   0.0000   0.0000
     0.0000   0.0000

          k = 0.2486 0.3659 0.1940 ( 20403 PWs)   bands (ev):

  -103.4632 -69.7395 -65.3840 -65.2922 -61.5968 -61.5596 -59.9477 -38.8487
   -38.7636 -38.7208 -29.7268 -29.6256 -29.6071 -29.5591 -29.5134 -29.4845
    -8.8368  -8.1838  -8.0531  -7.6466  -7.5309  -7.3928  -7.2707  -7.1190
     0.0676   1.1884   1.7055   1.7567   1.8607   3.1642   3.3295   3.6941
     3.9724   4.2893   4.5333   4.7847   4.9371   5.1328   5.3429   5.4666
     5.8995   6.1409   6.3379   6.6028   6.6714   6.8017   6.9084   7.1434
     7.2404   7.5532   7.6873   7.8435   8.1244   8.3427   8.5606   8.8444
     9.2670   9.9851  11.7991  12.4851  12.6163  12.9347  13.1843  13.3100
    15.3495  16.1488

     occupation numbers 
     1.0000   1.0000   1.0000   1.0000   1.0000   1.0000   1.0000   1.0000
     1.0000   1.0000   1.0000   1.0000   1.0000   1.0000   1.0000   1.0000
     1.0000   1.0000   1.0000   1.0000   1.0000   1.0000   1.0000   1.0000
     1.0000   1.0000   1.0000   1.0000   1.0000   1.0000   1.0000   1.0000
     1.0000   1.0000   1.0000   1.0000   1.0000   1.0000   1.0000   1.0000
     1.0000   1.0000   1.0000   1.0000   1.0000   1.0000   1.0000   1.0000
     1.0000   1.0000   1.0000   1.0000   1.0000   1.0000   1.0000   1.0000
     1.0000   1.0712   0.0000   0.0000   0.0000   0.0000   0.0000   0.0000
     0.0000   0.0000

          k = 0.2476 0.3659 0.3395 ( 20380 PWs)   bands (ev):

  -103.4632 -69.7396 -65.3840 -65.2923 -61.5968 -61.5596 -59.9477 -38.8486
   -38.7636 -38.7207 -29.7256 -29.6250 -29.6120 -29.5595 -29.5123 -29.4822
    -8.7037  -8.2839  -8.0781  -7.6931  -7.5385  -7.3650  -7.2725  -7.1075
     0.0453   1.1871   1.7178   1.7711   1.8805   3.1664   3.3010   3.6079
     4.0059   4.3064   4.6268   4.8207   4.9795   5.0793   5.4267   5.6360
     5.7061   6.0458   6.2564   6.5495   6.6314   6.8359   6.9962   7.0807
     7.3542   7.4965   7.7149   7.8401   8.2070   8.3286   8.5636   8.7680
     9.3367   9.9736  11.8784  12.1981  12.5775  13.0092  13.0796  13.2740
    15.3513  16.0591

     occupation numbers 
     1.0000   1.0000   1.0000   1.0000   1.0000   1.0000   1.0000   1.0000
     1.0000   1.0000   1.0000   1.0000   1.0000   1.0000   1.0000   1.0000
     1.0000   1.0000   1.0000   1.0000   1.0000   1.0000   1.0000   1.0000
     1.0000   1.0000   1.0000   1.0000   1.0000   1.0000   1.0000   1.0000
     1.0000   1.0000   1.0000   1.0000   1.0000   1.0000   1.0000   1.0000
     1.0000   1.0000   1.0000   1.0000   1.0000   1.0000   1.0000   1.0000
     1.0000   1.0000   1.0000   1.0000   1.0000   1.0000   1.0000   1.0000
     1.0001   1.0760   0.0000   0.0000   0.0000   0.0000   0.0000   0.0000
     0.0000   0.0000

          k = 0.2530 0.3660-0.3882 ( 20403 PWs)   bands (ev):

  -103.4633 -69.7396 -65.3841 -65.2923 -61.5968 -61.5596 -59.9477 -38.8486
   -38.7636 -38.7207 -29.7250 -29.6253 -29.6120 -29.5599 -29.5124 -29.4819
    -8.6745  -8.2688  -8.1316  -7.6653  -7.5440  -7.3801  -7.3204  -7.0619
     0.0158   1.1781   1.7184   1.7817   1.9037   3.2340   3.3784   3.6037
     4.0052   4.2729   4.5664   4.7404   4.9636   5.1479   5.2794   5.6710
     5.9437   6.1466   6.2773   6.3959   6.5568   6.7364   6.9841   7.1665
     7.3169   7.5138   7.7326   7.9673   8.1165   8.3717   8.6699   8.7161
     9.1826   9.9311  11.8330  12.0980  12.6563  12.8683  13.1343  13.2762
    15.4848  16.0574

     occupation numbers 
     1.0000   1.0000   1.0000   1.0000   1.0000   1.0000   1.0000   1.0000
     1.0000   1.0000   1.0000   1.0000   1.0000   1.0000   1.0000   1.0000
     1.0000   1.0000   1.0000   1.0000   1.0000   1.0000   1.0000   1.0000
     1.0000   1.0000   1.0000   1.0000   1.0000   1.0000   1.0000   1.0000
     1.0000   1.0000   1.0000   1.0000   1.0000   1.0000   1.0000   1.0000
     1.0000   1.0000   1.0000   1.0000   1.0000   1.0000   1.0000   1.0000
     1.0000   1.0000   1.0000   1.0000   1.0000   1.0000   1.0000   1.0000
     1.0000   1.0833   0.0000   0.0000   0.0000   0.0000   0.0000   0.0000
     0.0000   0.0000

          k = 0.2519 0.3660-0.2427 ( 20399 PWs)   bands (ev):

  -103.4632 -69.7395 -65.3841 -65.2922 -61.5968 -61.5596 -59.9477 -38.8487
   -38.7636 -38.7207 -29.7258 -29.6261 -29.6071 -29.5600 -29.5137 -29.4838
    -8.8006  -8.1619  -8.0741  -7.6533  -7.5921  -7.4313  -7.2767  -7.0517
     0.0086   1.1708   1.7109   1.7693   1.9071   3.2508   3.5755   3.6596
     3.9512   4.2510   4.4365   4.7654   4.9344   5.1149   5.1781   5.6033
     5.9709   6.0267   6.3010   6.5532   6.6639   6.8413   7.0108   7.2054
     7.2733   7.5048   7.7153   7.9652   8.0539   8.3095   8.6782   8.7850
     9.0393   9.8548  11.8113  12.3535  12.6162  12.7466  13.1647  13.3169
    15.6819  16.1355

     occupation numbers 
     1.0000   1.0000   1.0000   1.0000   1.0000   1.0000   1.0000   1.0000
     1.0000   1.0000   1.0000   1.0000   1.0000   1.0000   1.0000   1.0000
     1.0000   1.0000   1.0000   1.0000   1.0000   1.0000   1.0000   1.0000
     1.0000   1.0000   1.0000   1.0000   1.0000   1.0000   1.0000   1.0000
     1.0000   1.0000   1.0000   1.0000   1.0000   1.0000   1.0000   1.0000
     1.0000   1.0000   1.0000   1.0000   1.0000   1.0000   1.0000   1.0000
     1.0000   1.0000   1.0000   1.0000   1.0000   1.0000   1.0000   1.0000
     1.0000   1.0697   0.0000   0.0000   0.0000   0.0000   0.0000   0.0000
     0.0000   0.0000

          k = 0.2508 0.3660-0.0971 ( 20385 PWs)   bands (ev):

  -103.4632 -69.7394 -65.3840 -65.2920 -61.5968 -61.5596 -59.9477 -38.8487
   -38.7636 -38.7208 -29.7269 -29.6270 -29.6018 -29.5598 -29.5144 -29.4866
    -8.9032  -8.1525  -7.8976  -7.7903  -7.5448  -7.4016  -7.2527  -7.0902
     0.0301   1.1723   1.6967   1.7556   1.8917   3.2203   3.6551   3.7950
     3.9100   4.1343   4.3047   4.7432   5.0137   5.0610   5.3618   5.5845
     5.7609   6.1164   6.3703   6.4526   6.7419   6.8284   6.9867   7.2066
     7.3516   7.5706   7.6912   7.8374   7.9914   8.4003   8.6463   8.7681
     9.0953   9.8376  12.0142  12.3442  12.5513  12.7816  13.1921  13.3829
    15.8285  16.1561

     occupation numbers 
     1.0000   1.0000   1.0000   1.0000   1.0000   1.0000   1.0000   1.0000
     1.0000   1.0000   1.0000   1.0000   1.0000   1.0000   1.0000   1.0000
     1.0000   1.0000   1.0000   1.0000   1.0000   1.0000   1.0000   1.0000
     1.0000   1.0000   1.0000   1.0000   1.0000   1.0000   1.0000   1.0000
     1.0000   1.0000   1.0000   1.0000   1.0000   1.0000   1.0000   1.0000
     1.0000   1.0000   1.0000   1.0000   1.0000   1.0000   1.0000   1.0000
     1.0000   1.0000   1.0000   1.0000   1.0000   1.0000   1.0000   1.0000
     1.0000   1.0642   0.0000   0.0000   0.0000   0.0000   0.0000   0.0000
     0.0000   0.0000

          k = 0.2494-0.3796 0.0659 ( 20376 PWs)   bands (ev):

  -103.4632 -69.7394 -65.3840 -65.2920 -61.5968 -61.5596 -59.9477 -38.8487
   -38.7636 -38.7208 -29.7272 -29.6271 -29.6017 -29.5598 -29.5143 -29.4866
    -8.8744  -8.1810  -7.9868  -7.6755  -7.5751  -7.4172  -7.2186  -7.1060
     0.0703   1.1780   1.7074   1.7445   1.8716   3.2679   3.5152   3.7060
     3.9321   4.0914   4.4262   4.7549   4.9911   5.0988   5.3674   5.4405
     5.8947   6.1980   6.3650   6.5808   6.6411   6.7881   6.9091   7.0965
     7.2265   7.5292   7.7577   7.9482   8.0831   8.4217   8.5856   8.8248
     9.1436   9.9149  11.9096  12.3600  12.6862  12.9270  13.1913  13.3705
    15.5559  16.1983

     occupation numbers 
     1.0000   1.0000   1.0000   1.0000   1.0000   1.0000   1.0000   1.0000
     1.0000   1.0000   1.0000   1.0000   1.0000   1.0000   1.0000   1.0000
     1.0000   1.0000   1.0000   1.0000   1.0000   1.0000   1.0000   1.0000
     1.0000   1.0000   1.0000   1.0000   1.0000   1.0000   1.0000   1.0000
     1.0000   1.0000   1.0000   1.0000   1.0000   1.0000   1.0000   1.0000
     1.0000   1.0000   1.0000   1.0000   1.0000   1.0000   1.0000   1.0000
     1.0000   1.0000   1.0000   1.0000   1.0000   1.0000   1.0000   1.0000
     1.0000   1.0827   0.0000   0.0000   0.0000   0.0000   0.0000   0.0000
     0.0000   0.0000

          k = 0.2483-0.3796 0.2114 ( 20386 PWs)   bands (ev):

  -103.4632 -69.7395 -65.3840 -65.2922 -61.5968 -61.5596 -59.9477 -38.8487
   -38.7636 -38.7208 -29.7261 -29.6262 -29.6071 -29.5600 -29.5136 -29.4839
    -8.7744  -8.2650  -8.0073  -7.7021  -7.5782  -7.3651  -7.2521  -7.0955
     0.0792   1.1853   1.7237   1.7473   1.8633   3.2047   3.3459   3.6675
     3.9383   4.3018   4.5641   4.7289   4.9773   5.1519   5.2676   5.4390
     5.8857   6.1298   6.3930   6.5135   6.6826   6.8021   6.9231   7.1464
     7.2494   7.5528   7.7183   7.9026   8.1473   8.2998   8.5606   8.8399
     9.2571   9.9923  11.7727  12.4973  12.6944  12.9252  13.1627  13.2971
    15.2868  16.1063

     occupation numbers 
     1.0000   1.0000   1.0000   1.0000   1.0000   1.0000   1.0000   1.0000
     1.0000   1.0000   1.0000   1.0000   1.0000   1.0000   1.0000   1.0000
     1.0000   1.0000   1.0000   1.0000   1.0000   1.0000   1.0000   1.0000
     1.0000   1.0000   1.0000   1.0000   1.0000   1.0000   1.0000   1.0000
     1.0000   1.0000   1.0000   1.0000   1.0000   1.0000   1.0000   1.0000
     1.0000   1.0000   1.0000   1.0000   1.0000   1.0000   1.0000   1.0000
     1.0000   1.0000   1.0000   1.0000   1.0000   1.0000   1.0000   1.0000
     1.0000   1.0676   0.0000   0.0000   0.0000   0.0000   0.0000   0.0000
     0.0000   0.0000

          k = 0.2473-0.3796 0.3570 ( 20398 PWs)   bands (ev):

  -103.4632 -69.7396 -65.3840 -65.2923 -61.5968 -61.5596 -59.9477 -38.8486
   -38.7635 -38.7207 -29.7253 -29.6254 -29.6119 -29.5599 -29.5123 -29.4819
    -8.6341  -8.3631  -7.9807  -7.7824  -7.6221  -7.3366  -7.2527  -7.0770
     0.0563   1.1840   1.7374   1.7623   1.8839   3.1807   3.3173   3.5713
     4.0045   4.3376   4.6299   4.8744   4.9609   5.0499   5.3446   5.6131
     5.7298   5.9826   6.3335   6.4953   6.6517   6.7898   7.0329   7.1313
     7.3352   7.4557   7.7832   7.8726   8.1928   8.3060   8.5528   8.7664
     9.3379   9.9861  11.8567  12.2327  12.6028  12.9968  13.0649  13.2784
    15.2798  16.0757

     occupation numbers 
     1.0000   1.0000   1.0000   1.0000   1.0000   1.0000   1.0000   1.0000
     1.0000   1.0000   1.0000   1.0000   1.0000   1.0000   1.0000   1.0000
     1.0000   1.0000   1.0000   1.0000   1.0000   1.0000   1.0000   1.0000
     1.0000   1.0000   1.0000   1.0000   1.0000   1.0000   1.0000   1.0000
     1.0000   1.0000   1.0000   1.0000   1.0000   1.0000   1.0000   1.0000
     1.0000   1.0000   1.0000   1.0000   1.0000   1.0000   1.0000   1.0000
     1.0000   1.0000   1.0000   1.0000   1.0000   1.0000   1.0000   1.0000
     1.0001   1.0708   0.0000   0.0000   0.0000   0.0000   0.0000   0.0000
     0.0000   0.0000

          k = 0.2527-0.3795-0.3708 ( 20397 PWs)   bands (ev):

  -103.4633 -69.7396 -65.3840 -65.2923 -61.5968 -61.5596 -59.9477 -38.8486
   -38.7636 -38.7207 -29.7258 -29.6251 -29.6119 -29.5595 -29.5123 -29.4821
    -8.6620  -8.2797  -8.0185  -7.7694  -7.6307  -7.4004  -7.2557  -7.0360
     0.0255   1.1752   1.7340   1.7765   1.9086   3.2590   3.3811   3.5347
     4.0959   4.2668   4.5473   4.6995   4.9840   5.1125   5.3118   5.7157
     5.8546   6.1353   6.2599   6.3395   6.5976   6.7760   6.9962   7.1930
     7.3074   7.4702   7.7442   7.9971   8.1366   8.3631   8.5878   8.7654
     9.1940   9.9463  11.8855  12.0385  12.6700  12.8493  13.1317  13.2895
    15.4233  16.1107

     occupation numbers 
     1.0000   1.0000   1.0000   1.0000   1.0000   1.0000   1.0000   1.0000
     1.0000   1.0000   1.0000   1.0000   1.0000   1.0000   1.0000   1.0000
     1.0000   1.0000   1.0000   1.0000   1.0000   1.0000   1.0000   1.0000
     1.0000   1.0000   1.0000   1.0000   1.0000   1.0000   1.0000   1.0000
     1.0000   1.0000   1.0000   1.0000   1.0000   1.0000   1.0000   1.0000
     1.0000   1.0000   1.0000   1.0000   1.0000   1.0000   1.0000   1.0000
     1.0000   1.0000   1.0000   1.0000   1.0000   1.0000   1.0000   1.0000
     1.0000   1.0823   0.0000   0.0000   0.0000   0.0000   0.0000   0.0000
     0.0000   0.0000

          k = 0.2516-0.3796-0.2252 ( 20393 PWs)   bands (ev):

  -103.4632 -69.7395 -65.3840 -65.2922 -61.5968 -61.5596 -59.9477 -38.8487
   -38.7636 -38.7207 -29.7270 -29.6257 -29.6070 -29.5591 -29.5135 -29.4844
    -8.7965  -8.1359  -8.0163  -7.7163  -7.6197  -7.5127  -7.2237  -7.0261
     0.0175   1.1682   1.7257   1.7631   1.9121   3.3485   3.4482   3.6398
     4.0044   4.2608   4.4350   4.7518   4.9309   5.1039   5.2019   5.6356
     5.9124   6.0368   6.2208   6.4797   6.7620   6.8149   7.0577   7.1804
     7.3222   7.4777   7.6826   7.9908   8.1270   8.2954   8.6245   8.8018
     9.0536   9.8634  11.8512  12.2865  12.6369  12.7328  13.1543  13.3352
    15.6894  16.1445

     occupation numbers 
     1.0000   1.0000   1.0000   1.0000   1.0000   1.0000   1.0000   1.0000
     1.0000   1.0000   1.0000   1.0000   1.0000   1.0000   1.0000   1.0000
     1.0000   1.0000   1.0000   1.0000   1.0000   1.0000   1.0000   1.0000
     1.0000   1.0000   1.0000   1.0000   1.0000   1.0000   1.0000   1.0000
     1.0000   1.0000   1.0000   1.0000   1.0000   1.0000   1.0000   1.0000
     1.0000   1.0000   1.0000   1.0000   1.0000   1.0000   1.0000   1.0000
     1.0000   1.0000   1.0000   1.0000   1.0000   1.0000   1.0000   1.0000
     1.0000   1.0723   0.0000   0.0000   0.0000   0.0000   0.0000   0.0000
     0.0000   0.0000

          k = 0.2505-0.3796-0.0797 ( 20379 PWs)   bands (ev):

  -103.4632 -69.7394 -65.3840 -65.2920 -61.5968 -61.5596 -59.9477 -38.8487
   -38.7636 -38.7208 -29.7276 -29.6269 -29.6016 -29.5594 -29.5142 -29.4869
    -8.8815  -8.1550  -7.8668  -7.7994  -7.5996  -7.4612  -7.2102  -7.0646
     0.0395   1.1697   1.7132   1.7460   1.8954   3.3092   3.5962   3.7563
     3.8735   4.1099   4.3719   4.7905   4.9862   5.0763   5.3787   5.5385
     5.7015   6.1610   6.3288   6.3758   6.7688   6.8805   6.9301   7.1873
     7.4241   7.5269   7.7130   7.9097   8.0118   8.3988   8.6384   8.7497
     9.1020   9.8354  12.0251  12.3870  12.4801  12.8080  13.1476  13.4118
    15.8901  16.1926

     occupation numbers 
     1.0000   1.0000   1.0000   1.0000   1.0000   1.0000   1.0000   1.0000
     1.0000   1.0000   1.0000   1.0000   1.0000   1.0000   1.0000   1.0000
     1.0000   1.0000   1.0000   1.0000   1.0000   1.0000   1.0000   1.0000
     1.0000   1.0000   1.0000   1.0000   1.0000   1.0000   1.0000   1.0000
     1.0000   1.0000   1.0000   1.0000   1.0000   1.0000   1.0000   1.0000
     1.0000   1.0000   1.0000   1.0000   1.0000   1.0000   1.0000   1.0000
     1.0000   1.0000   1.0000   1.0000   1.0000   1.0000   1.0000   1.0000
     1.0000   1.0635   0.0000   0.0000   0.0000   0.0000   0.0000   0.0000
     0.0000   0.0000

          k = 0.2495-0.2305 0.0624 ( 20408 PWs)   bands (ev):

  -103.4632 -69.7394 -65.3838 -65.2920 -61.5968 -61.5596 -59.9477 -38.8487
   -38.7636 -38.7208 -29.7278 -29.6273 -29.6024 -29.5591 -29.5140 -29.4860
    -8.9686  -8.1146  -7.9588  -7.6879  -7.5387  -7.4053  -7.2175  -7.1130
     0.0844   1.1615   1.7070   1.7422   1.8710   3.3189   3.5434   3.5755
     3.7763   3.9968   4.3226   4.7490   4.8756   5.0757   5.3276   5.5003
     5.8451   6.1236   6.4035   6.5498   6.6174   6.8285   7.0016   7.2408
     7.3712   7.5368   7.9637   8.0690   8.2774   8.3760   8.6360   8.8857
     9.1578   9.9415  11.9726  12.2287  12.5335  12.9900  13.2218  13.4879
    15.4408  15.9587

     occupation numbers 
     1.0000   1.0000   1.0000   1.0000   1.0000   1.0000   1.0000   1.0000
     1.0000   1.0000   1.0000   1.0000   1.0000   1.0000   1.0000   1.0000
     1.0000   1.0000   1.0000   1.0000   1.0000   1.0000   1.0000   1.0000
     1.0000   1.0000   1.0000   1.0000   1.0000   1.0000   1.0000   1.0000
     1.0000   1.0000   1.0000   1.0000   1.0000   1.0000   1.0000   1.0000
     1.0000   1.0000   1.0000   1.0000   1.0000   1.0000   1.0000   1.0000
     1.0000   1.0000   1.0000   1.0000   1.0000   1.0000   1.0000   1.0000
     1.0000   1.0828   0.0000   0.0000   0.0000   0.0000   0.0000   0.0000
     0.0000   0.0000

          k = 0.2484-0.2305 0.2080 ( 20404 PWs)   bands (ev):

  -103.4632 -69.7395 -65.3838 -65.2921 -61.5968 -61.5596 -59.9477 -38.8487
   -38.7636 -38.7208 -29.7257 -29.6263 -29.6071 -29.5603 -29.5137 -29.4836
    -8.8441  -8.2041  -8.0213  -7.7279  -7.5595  -7.3408  -7.2321  -7.0824
     0.1050   1.1667   1.7255   1.7394   1.8551   3.2491   3.4993   3.6519
     3.7833   4.0516   4.3320   4.5891   4.8161   4.9438   5.4400   5.6272
     5.9869   6.1052   6.3362   6.4888   6.6873   6.8224   7.0498   7.1425
     7.4101   7.5485   7.7291   8.1296   8.3664   8.4312   8.6729   8.8761
     9.2394   9.9678  11.8216  12.4256  12.6580  12.9792  13.1376  13.3343
    15.2663  15.9480

     occupation numbers 
     1.0000   1.0000   1.0000   1.0000   1.0000   1.0000   1.0000   1.0000
     1.0000   1.0000   1.0000   1.0000   1.0000   1.0000   1.0000   1.0000
     1.0000   1.0000   1.0000   1.0000   1.0000   1.0000   1.0000   1.0000
     1.0000   1.0000   1.0000   1.0000   1.0000   1.0000   1.0000   1.0000
     1.0000   1.0000   1.0000   1.0000   1.0000   1.0000   1.0000   1.0000
     1.0000   1.0000   1.0000   1.0000   1.0000   1.0000   1.0000   1.0000
     1.0000   1.0000   1.0000   1.0000   1.0000   1.0000   1.0000   1.0000
     1.0000   1.0779   0.0000   0.0000   0.0000   0.0000   0.0000   0.0000
     0.0000   0.0000

          k = 0.2473-0.2305 0.3535 ( 20407 PWs)   bands (ev):

  -103.4632 -69.7395 -65.3838 -65.2923 -61.5968 -61.5596 -59.9477 -38.8486
   -38.7636 -38.7207 -29.7243 -29.6251 -29.6115 -29.5607 -29.5129 -29.4822
    -8.6402  -8.3846  -7.9861  -7.8275  -7.6105  -7.3424  -7.1851  -7.0460
     0.0876   1.1630   1.7327   1.7629   1.8676   3.1595   3.4665   3.6139
     3.8567   4.1197   4.4064   4.6152   4.8241   5.1286   5.4017   5.6919
     5.7768   5.9775   6.3209   6.5031   6.6307   6.8380   6.9273   7.1495
     7.5085   7.5648   7.7258   8.1648   8.3398   8.5073   8.7211   8.7944
     9.2998   9.9522  11.9202  12.3381  12.6882  12.8759  13.0813  13.1672
    15.3271  16.0917

     occupation numbers 
     1.0000   1.0000   1.0000   1.0000   1.0000   1.0000   1.0000   1.0000
     1.0000   1.0000   1.0000   1.0000   1.0000   1.0000   1.0000   1.0000
     1.0000   1.0000   1.0000   1.0000   1.0000   1.0000   1.0000   1.0000
     1.0000   1.0000   1.0000   1.0000   1.0000   1.0000   1.0000   1.0000
     1.0000   1.0000   1.0000   1.0000   1.0000   1.0000   1.0000   1.0000
     1.0000   1.0000   1.0000   1.0000   1.0000   1.0000   1.0000   1.0000
     1.0000   1.0000   1.0000   1.0000   1.0000   1.0000   1.0000   1.0000
     1.0000   1.0815   0.0000   0.0000   0.0000   0.0000   0.0000   0.0000
     0.0000   0.0000

          k = 0.2528-0.2304-0.3743 ( 20409 PWs)   bands (ev):

  -103.4632 -69.7396 -65.3838 -65.2923 -61.5968 -61.5596 -59.9477 -38.8486
   -38.7636 -38.7207 -29.7253 -29.6246 -29.6115 -29.5598 -29.5129 -29.4827
    -8.6741  -8.3101  -7.9683  -7.8602  -7.6368  -7.3802  -7.1779  -7.0175
     0.0507   1.1538   1.7365   1.7786   1.8872   3.1808   3.4137   3.6115
     3.9075   4.1301   4.5251   4.7222   4.8916   4.9926   5.3213   5.7223
     5.7657   6.0294   6.2365   6.3972   6.6714   6.8412   7.0253   7.1752
     7.3688   7.6230   7.6925   8.1034   8.3769   8.5432   8.6340   8.8409
     9.2239   9.9470  11.9696  12.1956  12.7327  12.7566  13.0704  13.1927
    15.5412  16.2498

     occupation numbers 
     1.0000   1.0000   1.0000   1.0000   1.0000   1.0000   1.0000   1.0000
     1.0000   1.0000   1.0000   1.0000   1.0000   1.0000   1.0000   1.0000
     1.0000   1.0000   1.0000   1.0000   1.0000   1.0000   1.0000   1.0000
     1.0000   1.0000   1.0000   1.0000   1.0000   1.0000   1.0000   1.0000
     1.0000   1.0000   1.0000   1.0000   1.0000   1.0000   1.0000   1.0000
     1.0000   1.0000   1.0000   1.0000   1.0000   1.0000   1.0000   1.0000
     1.0000   1.0000   1.0000   1.0000   1.0000   1.0000   1.0000   1.0000
     1.0000   1.0822   0.0000   0.0000   0.0000   0.0000   0.0000   0.0000
     0.0000   0.0000

          k = 0.2517-0.2305-0.2287 ( 20399 PWs)   bands (ev):

  -103.4632 -69.7395 -65.3838 -65.2921 -61.5968 -61.5596 -59.9477 -38.8487
   -38.7636 -38.7207 -29.7275 -29.6255 -29.6069 -29.5585 -29.5135 -29.4847
    -8.8646  -8.0924  -7.9842  -7.7677  -7.6438  -7.4619  -7.1849  -7.0180
     0.0318   1.1482   1.7301   1.7668   1.8997   3.2469   3.4135   3.6532
     3.7954   4.2915   4.4494   4.6820   4.8837   5.1048   5.4260   5.5561
     5.6712   5.9144   6.2076   6.4878   6.8260   6.9783   7.0825   7.1702
     7.2983   7.5809   7.7305   8.0410   8.3063   8.4991   8.5974   8.8867
     9.0942   9.9366  11.8477  12.4398  12.5819  12.7480  13.0713  13.3386
    15.8082  16.3016

     occupation numbers 
     1.0000   1.0000   1.0000   1.0000   1.0000   1.0000   1.0000   1.0000
     1.0000   1.0000   1.0000   1.0000   1.0000   1.0000   1.0000   1.0000
     1.0000   1.0000   1.0000   1.0000   1.0000   1.0000   1.0000   1.0000
     1.0000   1.0000   1.0000   1.0000   1.0000   1.0000   1.0000   1.0000
     1.0000   1.0000   1.0000   1.0000   1.0000   1.0000   1.0000   1.0000
     1.0000   1.0000   1.0000   1.0000   1.0000   1.0000   1.0000   1.0000
     1.0000   1.0000   1.0000   1.0000   1.0000   1.0000   1.0000   1.0000
     1.0000   1.0831   0.0000   0.0000   0.0000   0.0000   0.0000   0.0000
     0.0000   0.0000

          k = 0.2506-0.2305-0.0831 ( 20405 PWs)   bands (ev):

  -103.4632 -69.7394 -65.3838 -65.2920 -61.5968 -61.5596 -59.9477 -38.8487
   -38.7636 -38.7208 -29.7286 -29.6269 -29.6023 -29.5583 -29.5138 -29.4866
    -8.9750  -8.0961  -7.8416  -7.7647  -7.5914  -7.4741  -7.2003  -7.0637
     0.0483   1.1522   1.7107   1.7519   1.8951   3.2869   3.4616   3.6185
     3.8018   4.1300   4.3479   4.8317   4.9515   5.1642   5.3682   5.4983
     5.6465   5.9617   6.2543   6.3722   6.7309   7.0344   7.0762   7.1969
     7.4094   7.5898   7.8827   8.0829   8.2683   8.3308   8.6500   8.8314
     9.0970   9.9231  11.9932  12.3260  12.4077  12.9778  13.0644  13.4882
    15.7786  16.2206

     occupation numbers 
     1.0000   1.0000   1.0000   1.0000   1.0000   1.0000   1.0000   1.0000
     1.0000   1.0000   1.0000   1.0000   1.0000   1.0000   1.0000   1.0000
     1.0000   1.0000   1.0000   1.0000   1.0000   1.0000   1.0000   1.0000
     1.0000   1.0000   1.0000   1.0000   1.0000   1.0000   1.0000   1.0000
     1.0000   1.0000   1.0000   1.0000   1.0000   1.0000   1.0000   1.0000
     1.0000   1.0000   1.0000   1.0000   1.0000   1.0000   1.0000   1.0000
     1.0000   1.0000   1.0000   1.0000   1.0000   1.0000   1.0000   1.0000
     1.0000   1.0832   0.0000   0.0000   0.0000   0.0000   0.0000   0.0000
     0.0000   0.0000

          k = 0.2495-0.0814 0.0589 ( 20408 PWs)   bands (ev):

  -103.4632 -69.7394 -65.3837 -65.2919 -61.5968 -61.5596 -59.9477 -38.8487
   -38.7636 -38.7208 -29.7286 -29.6271 -29.6032 -29.5581 -29.5136 -29.4858
    -9.0710  -8.1209  -7.8489  -7.6667  -7.4814  -7.3821  -7.2624  -7.1351
     0.0901   1.1529   1.6969   1.7390   1.8608   3.2222   3.3535   3.5999
     3.8371   3.9531   4.3941   4.6988   4.7867   4.9547   5.1463   5.4872
     5.9060   6.2051   6.3304   6.4999   6.7363   6.9391   7.0247   7.3092
     7.5619   7.7221   7.9042   8.0552   8.2631   8.4814   8.7583   9.0176
     9.1423  10.0147  12.0405  12.1934  12.3822  12.8966  13.3702  13.5598
    15.2739  15.6580

     occupation numbers 
     1.0000   1.0000   1.0000   1.0000   1.0000   1.0000   1.0000   1.0000
     1.0000   1.0000   1.0000   1.0000   1.0000   1.0000   1.0000   1.0000
     1.0000   1.0000   1.0000   1.0000   1.0000   1.0000   1.0000   1.0000
     1.0000   1.0000   1.0000   1.0000   1.0000   1.0000   1.0000   1.0000
     1.0000   1.0000   1.0000   1.0000   1.0000   1.0000   1.0000   1.0000
     1.0000   1.0000   1.0000   1.0000   1.0000   1.0000   1.0000   1.0000
     1.0000   1.0000   1.0000   1.0000   1.0000   1.0000   1.0000   1.0000
     1.0000   1.0528   0.0000   0.0000   0.0000   0.0000   0.0000   0.0000
     0.0000   0.0000

          k = 0.2485-0.0814 0.2045 ( 20382 PWs)   bands (ev):

  -103.4632 -69.7395 -65.3837 -65.2921 -61.5968 -61.5596 -59.9477 -38.8486
   -38.7636 -38.7208 -29.7260 -29.6259 -29.6071 -29.5597 -29.5137 -29.4841
    -8.9433  -8.1513  -8.0131  -7.6980  -7.5188  -7.3414  -7.2272  -7.0851
     0.1226   1.1568   1.7126   1.7320   1.8381   3.3095   3.3702   3.6678
     3.8023   3.9089   4.1993   4.5256   4.7059   4.9361   5.2186   5.8819
     6.0113   6.0925   6.2159   6.4155   6.7118   6.8612   7.0383   7.2819
     7.5323   7.6722   7.9273   8.3061   8.4043   8.5363   8.7411   8.9376
     9.1787  10.0064  11.9357  12.3623  12.5494  12.9347  13.1877  13.4030
    15.2084  15.7620

     occupation numbers 
     1.0000   1.0000   1.0000   1.0000   1.0000   1.0000   1.0000   1.0000
     1.0000   1.0000   1.0000   1.0000   1.0000   1.0000   1.0000   1.0000
     1.0000   1.0000   1.0000   1.0000   1.0000   1.0000   1.0000   1.0000
     1.0000   1.0000   1.0000   1.0000   1.0000   1.0000   1.0000   1.0000
     1.0000   1.0000   1.0000   1.0000   1.0000   1.0000   1.0000   1.0000
     1.0000   1.0000   1.0000   1.0000   1.0000   1.0000   1.0000   1.0000
     1.0000   1.0000   1.0000   1.0000   1.0000   1.0000   1.0000   1.0000
     1.0000   1.0589   0.0000   0.0000   0.0000   0.0000   0.0000   0.0000
     0.0000   0.0000

          k = 0.2474-0.0814 0.3500 ( 20422 PWs)   bands (ev):

  -103.4632 -69.7395 -65.3837 -65.2922 -61.5968 -61.5596 -59.9477 -38.8486
   -38.7636 -38.7208 -29.7237 -29.6245 -29.6112 -29.5610 -29.5134 -29.4829
    -8.7160  -8.3517  -8.0442  -7.7911  -7.5536  -7.3479  -7.1579  -7.0273
     0.1119   1.1497   1.7154   1.7591   1.8424   3.1995   3.3296   3.6783
     3.8396   3.9966   4.3656   4.4516   4.7873   5.1408   5.2943   5.6483
     5.8111   5.9477   6.3172   6.3687   6.6203   6.8180   6.9535   7.2946
     7.4743   7.8339   8.0101   8.3974   8.4677   8.5496   8.7530   8.8285
     9.2241   9.9919  12.0881  12.4756  12.5383  12.8773  12.9994  13.1375
    15.3475  16.0445

     occupation numbers 
     1.0000   1.0000   1.0000   1.0000   1.0000   1.0000   1.0000   1.0000
     1.0000   1.0000   1.0000   1.0000   1.0000   1.0000   1.0000   1.0000
     1.0000   1.0000   1.0000   1.0000   1.0000   1.0000   1.0000   1.0000
     1.0000   1.0000   1.0000   1.0000   1.0000   1.0000   1.0000   1.0000
     1.0000   1.0000   1.0000   1.0000   1.0000   1.0000   1.0000   1.0000
     1.0000   1.0000   1.0000   1.0000   1.0000   1.0000   1.0000   1.0000
     1.0000   1.0000   1.0000   1.0000   1.0000   1.0000   1.0000   1.0000
     1.0000   1.0679   0.0000   0.0000   0.0000   0.0000   0.0000   0.0000
     0.0000   0.0000

          k = 0.2528-0.0813-0.3777 ( 20414 PWs)   bands (ev):

  -103.4632 -69.7395 -65.3837 -65.2922 -61.5968 -61.5596 -59.9477 -38.8486
   -38.7636 -38.7207 -29.7241 -29.6243 -29.6112 -29.5605 -29.5135 -29.4831
    -8.6992  -8.3534  -8.0111  -7.8537  -7.5625  -7.3570  -7.1396  -7.0149
     0.0695   1.1386   1.7283   1.7748   1.8572   3.1627   3.2239   3.6906
     3.8903   4.1369   4.4875   4.6152   4.8648   5.0821   5.2158   5.4460
     5.7634   6.1241   6.2257   6.4379   6.6147   6.7624   6.9729   7.2199
     7.4231   7.7955   8.0677   8.2783   8.4355   8.4736   8.7779   8.8764
     9.2095  10.0223  12.1278  12.3715  12.5747  12.8335  13.0163  13.0641
    15.6240  16.2341

     occupation numbers 
     1.0000   1.0000   1.0000   1.0000   1.0000   1.0000   1.0000   1.0000
     1.0000   1.0000   1.0000   1.0000   1.0000   1.0000   1.0000   1.0000
     1.0000   1.0000   1.0000   1.0000   1.0000   1.0000   1.0000   1.0000
     1.0000   1.0000   1.0000   1.0000   1.0000   1.0000   1.0000   1.0000
     1.0000   1.0000   1.0000   1.0000   1.0000   1.0000   1.0000   1.0000
     1.0000   1.0000   1.0000   1.0000   1.0000   1.0000   1.0000   1.0000
     1.0000   1.0000   1.0000   1.0000   1.0000   1.0000   1.0000   1.0000
     1.0000   1.0465   0.0000   0.0000   0.0000   0.0000   0.0000   0.0000
     0.0000   0.0000

          k = 0.2517-0.0813-0.2322 ( 20420 PWs)   bands (ev):

  -103.4632 -69.7395 -65.3837 -65.2921 -61.5968 -61.5596 -59.9477 -38.8487
   -38.7636 -38.7207 -29.7268 -29.6256 -29.6071 -29.5588 -29.5137 -29.4846
    -8.9282  -8.0570  -8.0491  -7.7770  -7.5661  -7.3969  -7.1678  -7.0398
     0.0395   1.1341   1.7287   1.7642   1.8779   3.1329   3.2008   3.7562
     3.8776   4.2265   4.4575   4.6564   4.8266   4.9860   5.3499   5.5460
     5.7685   5.9327   6.2336   6.5148   6.7141   6.8862   6.9759   7.1856
     7.4911   7.7300   7.9465   8.1258   8.2425   8.5055   8.8137   8.9264
     9.1243  10.0581  11.8808  12.5164  12.6316  12.7373  12.9746  13.3385
    15.8234  16.2618

     occupation numbers 
     1.0000   1.0000   1.0000   1.0000   1.0000   1.0000   1.0000   1.0000
     1.0000   1.0000   1.0000   1.0000   1.0000   1.0000   1.0000   1.0000
     1.0000   1.0000   1.0000   1.0000   1.0000   1.0000   1.0000   1.0000
     1.0000   1.0000   1.0000   1.0000   1.0000   1.0000   1.0000   1.0000
     1.0000   1.0000   1.0000   1.0000   1.0000   1.0000   1.0000   1.0000
     1.0000   1.0000   1.0000   1.0000   1.0000   1.0000   1.0000   1.0000
     1.0000   1.0000   1.0000   1.0000   1.0000   1.0000   1.0000   1.0000
     1.0000   1.0074   0.0000   0.0000   0.0000   0.0000   0.0000   0.0000
     0.0000   0.0000

          k = 0.2506-0.0814-0.0866 ( 20419 PWs)   bands (ev):

  -103.4632 -69.7394 -65.3837 -65.2919 -61.5968 -61.5596 -59.9477 -38.8487
   -38.7636 -38.7207 -29.7290 -29.6270 -29.6031 -29.5577 -29.5135 -29.4861
    -9.0655  -8.0955  -7.8258  -7.6980  -7.5322  -7.4406  -7.2199  -7.0928
     0.0495   1.1414   1.7027   1.7546   1.8840   3.1323   3.2515   3.6193
     3.9340   4.1760   4.4022   4.6459   4.9318   5.1952   5.2448   5.3574
     5.6835   6.0862   6.2260   6.4527   6.7045   6.9537   7.1552   7.2946
     7.5264   7.7057   7.9547   8.0191   8.1926   8.4342   8.7865   8.9864
     9.1050  10.0422  11.9297  12.3458  12.4083  12.8482  13.2104  13.5280
    15.5671  15.9930

     occupation numbers 
     1.0000   1.0000   1.0000   1.0000   1.0000   1.0000   1.0000   1.0000
     1.0000   1.0000   1.0000   1.0000   1.0000   1.0000   1.0000   1.0000
     1.0000   1.0000   1.0000   1.0000   1.0000   1.0000   1.0000   1.0000
     1.0000   1.0000   1.0000   1.0000   1.0000   1.0000   1.0000   1.0000
     1.0000   1.0000   1.0000   1.0000   1.0000   1.0000   1.0000   1.0000
     1.0000   1.0000   1.0000   1.0000   1.0000   1.0000   1.0000   1.0000
     1.0000   1.0000   1.0000   1.0000   1.0000   1.0000   1.0000   1.0000
     1.0000   1.0267   0.0000   0.0000   0.0000   0.0000   0.0000   0.0000
     0.0000   0.0000

          k = 0.4164 0.0632 0.0450 ( 20397 PWs)   bands (ev):

  -103.4632 -69.7394 -65.3836 -65.2919 -61.5968 -61.5596 -59.9477 -38.8487
   -38.7636 -38.7208 -29.7293 -29.6273 -29.6036 -29.5581 -29.5137 -29.4864
    -8.9440  -8.1145  -7.7901  -7.7069  -7.5356  -7.4413  -7.3433  -7.1523
     0.0834   1.1276   1.7206   1.7835   1.9252   3.2479   3.5234   3.6677
     3.7032   4.2437   4.2616   4.5137   4.7026   5.0506   5.1545   5.5440
     5.9219   6.1219   6.2426   6.5604   6.6401   6.9176   7.0741   7.1847
     7.4159   7.6928   7.9543   8.0498   8.3552   8.4941   8.7679   8.9862
     9.2567  10.0156  11.9403  12.2561  12.3272  12.9356  13.2082  13.6199
    15.6727  16.0371

     occupation numbers 
     1.0000   1.0000   1.0000   1.0000   1.0000   1.0000   1.0000   1.0000
     1.0000   1.0000   1.0000   1.0000   1.0000   1.0000   1.0000   1.0000
     1.0000   1.0000   1.0000   1.0000   1.0000   1.0000   1.0000   1.0000
     1.0000   1.0000   1.0000   1.0000   1.0000   1.0000   1.0000   1.0000
     1.0000   1.0000   1.0000   1.0000   1.0000   1.0000   1.0000   1.0000
     1.0000   1.0000   1.0000   1.0000   1.0000   1.0000   1.0000   1.0000
     1.0000   1.0000   1.0000   1.0000   1.0000   1.0000   1.0000   1.0000
     1.0000   1.0521   0.0000   0.0000   0.0000   0.0000   0.0000   0.0000
     0.0000   0.0000

          k = 0.4153 0.0632 0.1906 ( 20393 PWs)   bands (ev):

  -103.4632 -69.7395 -65.3837 -65.2922 -61.5968 -61.5596 -59.9477 -38.8487
   -38.7636 -38.7208 -29.7271 -29.6257 -29.6076 -29.5592 -29.5137 -29.4849
    -8.8392  -8.1179  -7.9411  -7.6911  -7.6158  -7.4650  -7.2709  -7.0925
     0.1343   1.1389   1.7219   1.7838   1.9136   3.2313   3.5484   3.7301
     3.8474   4.0221   4.0690   4.5108   4.5948   5.0397   5.2592   5.5858
     5.8030   6.1269   6.2795   6.4197   6.6949   6.9578   7.1260   7.2477
     7.5516   7.6335   7.8666   8.1232   8.4528   8.6617   8.7808   8.9683
     9.1943   9.9184  11.9057  12.4485  12.5938  12.9076  13.1409  13.4488
    15.4805  16.1171

     occupation numbers 
     1.0000   1.0000   1.0000   1.0000   1.0000   1.0000   1.0000   1.0000
     1.0000   1.0000   1.0000   1.0000   1.0000   1.0000   1.0000   1.0000
     1.0000   1.0000   1.0000   1.0000   1.0000   1.0000   1.0000   1.0000
     1.0000   1.0000   1.0000   1.0000   1.0000   1.0000   1.0000   1.0000
     1.0000   1.0000   1.0000   1.0000   1.0000   1.0000   1.0000   1.0000
     1.0000   1.0000   1.0000   1.0000   1.0000   1.0000   1.0000   1.0000
     1.0000   1.0000   1.0000   1.0000   1.0000   1.0000   1.0000   1.0000
     1.0000   1.0829   0.0000   0.0000   0.0000   0.0000   0.0000   0.0000
     0.0000   0.0000

          k = 0.4142 0.0632 0.3361 ( 20401 PWs)   bands (ev):

  -103.4632 -69.7395 -65.3838 -65.2925 -61.5968 -61.5596 -59.9477 -38.8486
   -38.7636 -38.7208 -29.7243 -29.6244 -29.6116 -29.5610 -29.5135 -29.4834
    -8.6507  -8.2009  -8.0943  -7.7604  -7.6185  -7.4458  -7.2164  -7.0532
     0.1674   1.1428   1.7299   1.7899   1.9215   3.2448   3.4449   3.5938
     3.7169   4.0828   4.2677   4.5482   4.7157   5.1318   5.3636   5.4773
     5.6666   6.0506   6.1651   6.4472   6.5671   6.6749   7.1387   7.1937
     7.6184   7.8522   8.0540   8.3029   8.4550   8.6527   8.8168   8.9680
     9.1857   9.7832  12.1802  12.5009  12.7797  12.8884  12.9636  13.1681
    15.5180  15.8622

     occupation numbers 
     1.0000   1.0000   1.0000   1.0000   1.0000   1.0000   1.0000   1.0000
     1.0000   1.0000   1.0000   1.0000   1.0000   1.0000   1.0000   1.0000
     1.0000   1.0000   1.0000   1.0000   1.0000   1.0000   1.0000   1.0000
     1.0000   1.0000   1.0000   1.0000   1.0000   1.0000   1.0000   1.0000
     1.0000   1.0000   1.0000   1.0000   1.0000   1.0000   1.0000   1.0000
     1.0000   1.0000   1.0000   1.0000   1.0000   1.0000   1.0000   1.0000
     1.0000   1.0000   1.0000   1.0000   1.0000   1.0000   1.0000   1.0000
     1.0000   1.0456   0.0000   0.0000   0.0000   0.0000   0.0000   0.0000
     0.0000   0.0000

          k = 0.4196 0.0632-0.3916 ( 20409 PWs)   bands (ev):

  -103.4632 -69.7395 -65.3838 -65.2925 -61.5968 -61.5596 -59.9477 -38.8487
   -38.7636 -38.7208 -29.7237 -29.6247 -29.6117 -29.5614 -29.5136 -29.4831
    -8.6030  -8.2686  -8.0642  -7.8285  -7.5829  -7.4263  -7.2146  -7.0534
     0.1465   1.1364   1.7380   1.7983   1.9258   3.2226   3.3588   3.6117
     3.7322   4.1664   4.3760   4.6465   4.7709   5.1162   5.2218   5.4875
     5.7233   5.9424   6.0708   6.4741   6.5980   6.7129   7.0269   7.2724
     7.5167   7.8220   8.1349   8.3254   8.5019   8.6132   8.8019   8.8578
     9.2084   9.8194  12.1582  12.5762  12.7399  12.8447  12.9697  13.1384
    15.6413  15.9396

     occupation numbers 
     1.0000   1.0000   1.0000   1.0000   1.0000   1.0000   1.0000   1.0000
     1.0000   1.0000   1.0000   1.0000   1.0000   1.0000   1.0000   1.0000
     1.0000   1.0000   1.0000   1.0000   1.0000   1.0000   1.0000   1.0000
     1.0000   1.0000   1.0000   1.0000   1.0000   1.0000   1.0000   1.0000
     1.0000   1.0000   1.0000   1.0000   1.0000   1.0000   1.0000   1.0000
     1.0000   1.0000   1.0000   1.0000   1.0000   1.0000   1.0000   1.0000
     1.0000   1.0000   1.0000   1.0000   1.0000   1.0000   1.0000   1.0000
     1.0000   1.0580   0.0000   0.0000   0.0000   0.0000   0.0000   0.0000
     0.0000   0.0000

          k = 0.4185 0.0632-0.2461 ( 20409 PWs)   bands (ev):

  -103.4632 -69.7394 -65.3837 -65.2922 -61.5968 -61.5596 -59.9477 -38.8487
   -38.7636 -38.7208 -29.7261 -29.6263 -29.6077 -29.5601 -29.5140 -29.4843
    -8.7991  -8.0716  -8.0309  -7.8111  -7.5561  -7.4155  -7.2570  -7.0947
     0.0951   1.1253   1.7365   1.7998   1.9254   3.1917   3.3504   3.7702
     3.8698   4.0441   4.3891   4.6159   4.8080   5.0904   5.2170   5.5844
     5.7394   5.8097   6.0723   6.5856   6.6683   6.8477   7.0958   7.2455
     7.4476   7.7009   8.0147   8.2208   8.4493   8.5862   8.7043   8.8702
     9.1931   9.9521  11.8830  12.5208  12.7451  12.8433  12.9178  13.4215
    15.7197  16.3364

     occupation numbers 
     1.0000   1.0000   1.0000   1.0000   1.0000   1.0000   1.0000   1.0000
     1.0000   1.0000   1.0000   1.0000   1.0000   1.0000   1.0000   1.0000
     1.0000   1.0000   1.0000   1.0000   1.0000   1.0000   1.0000   1.0000
     1.0000   1.0000   1.0000   1.0000   1.0000   1.0000   1.0000   1.0000
     1.0000   1.0000   1.0000   1.0000   1.0000   1.0000   1.0000   1.0000
     1.0000   1.0000   1.0000   1.0000   1.0000   1.0000   1.0000   1.0000
     1.0000   1.0000   1.0000   1.0000   1.0000   1.0000   1.0000   1.0000
     1.0000   1.0815   0.0000   0.0000   0.0000   0.0000   0.0000   0.0000
     0.0000   0.0000

          k = 0.4174 0.0632-0.1005 ( 20406 PWs)   bands (ev):

  -103.4632 -69.7394 -65.3836 -65.2919 -61.5968 -61.5596 -59.9477 -38.8487
   -38.7636 -38.7208 -29.7288 -29.6275 -29.6037 -29.5585 -29.5139 -29.4860
    -8.9301  -8.0924  -7.8586  -7.7149  -7.5586  -7.3857  -7.3331  -7.1558
     0.0649   1.1206   1.7269   1.7912   1.9325   3.2344   3.3825   3.6825
     3.7849   4.2643   4.3333   4.6340   4.7325   5.0739   5.2633   5.6254
     5.7295   5.9912   6.2173   6.4780   6.6112   6.7803   7.0231   7.2788
     7.5105   7.7620   7.9689   8.1964   8.2676   8.4199   8.7425   8.9601
     9.2313  10.0237  11.9040  12.2647  12.4298  12.9476  13.0749  13.6074
    15.7860  16.2516

     occupation numbers 
     1.0000   1.0000   1.0000   1.0000   1.0000   1.0000   1.0000   1.0000
     1.0000   1.0000   1.0000   1.0000   1.0000   1.0000   1.0000   1.0000
     1.0000   1.0000   1.0000   1.0000   1.0000   1.0000   1.0000   1.0000
     1.0000   1.0000   1.0000   1.0000   1.0000   1.0000   1.0000   1.0000
     1.0000   1.0000   1.0000   1.0000   1.0000   1.0000   1.0000   1.0000
     1.0000   1.0000   1.0000   1.0000   1.0000   1.0000   1.0000   1.0000
     1.0000   1.0000   1.0000   1.0000   1.0000   1.0000   1.0000   1.0000
     1.0000   1.0453   0.0000   0.0000   0.0000   0.0000   0.0000   0.0000
     0.0000   0.0000

          k = 0.4164 0.2123 0.0415 ( 20372 PWs)   bands (ev):

  -103.4632 -69.7394 -65.3840 -65.2920 -61.5968 -61.5596 -59.9477 -38.8487
   -38.7636 -38.7208 -29.7285 -29.6270 -29.6026 -29.5586 -29.5140 -29.4870
    -8.9137  -8.1316  -7.9248  -7.6003  -7.5216  -7.4862  -7.3067  -7.1421
     0.0272   1.1492   1.7055   1.7781   1.8954   3.1209   3.5283   3.7662
     4.0224   4.1038   4.2612   4.6460   4.8439   5.1542   5.2814   5.6642
     5.9195   6.0651   6.3217   6.4678   6.7460   6.8482   6.9708   7.1538
     7.3525   7.6228   7.7946   8.0346   8.1953   8.3747   8.7082   8.9737
     9.0846   9.7996  11.9714  12.3506  12.4052  12.9301  13.1022  13.5623
    15.6030  16.0641

     occupation numbers 
     1.0000   1.0000   1.0000   1.0000   1.0000   1.0000   1.0000   1.0000
     1.0000   1.0000   1.0000   1.0000   1.0000   1.0000   1.0000   1.0000
     1.0000   1.0000   1.0000   1.0000   1.0000   1.0000   1.0000   1.0000
     1.0000   1.0000   1.0000   1.0000   1.0000   1.0000   1.0000   1.0000
     1.0000   1.0000   1.0000   1.0000   1.0000   1.0000   1.0000   1.0000
     1.0000   1.0000   1.0000   1.0000   1.0000   1.0000   1.0000   1.0000
     1.0000   1.0000   1.0000   1.0000   1.0000   1.0000   1.0000   1.0000
     1.0000   1.0512   0.0000   0.0000   0.0000   0.0000   0.0000   0.0000
     0.0000   0.0000

          k = 0.4153 0.2123 0.1871 ( 20379 PWs)   bands (ev):

  -103.4632 -69.7395 -65.3841 -65.2923 -61.5968 -61.5596 -59.9477 -38.8487
   -38.7636 -38.7208 -29.7274 -29.6254 -29.6073 -29.5589 -29.5136 -29.4851
    -8.8299  -8.1607  -7.9838  -7.6235  -7.6016  -7.4542  -7.2826  -7.0920
     0.0642   1.1614   1.7061   1.7835   1.8817   3.1314   3.5996   3.7398
     3.8825   4.0562   4.1331   4.6353   4.8641   5.1066   5.4286   5.5548
     5.8655   6.1297   6.3660   6.5079   6.7310   6.9313   7.0628   7.1418
     7.4149   7.6331   7.6814   8.0715   8.1838   8.4383   8.6978   8.9623
     9.1132   9.8007  11.8481  12.4954  12.5949  12.9187  13.1050  13.4299
    15.3632  16.1772

     occupation numbers 
     1.0000   1.0000   1.0000   1.0000   1.0000   1.0000   1.0000   1.0000
     1.0000   1.0000   1.0000   1.0000   1.0000   1.0000   1.0000   1.0000
     1.0000   1.0000   1.0000   1.0000   1.0000   1.0000   1.0000   1.0000
     1.0000   1.0000   1.0000   1.0000   1.0000   1.0000   1.0000   1.0000
     1.0000   1.0000   1.0000   1.0000   1.0000   1.0000   1.0000   1.0000
     1.0000   1.0000   1.0000   1.0000   1.0000   1.0000   1.0000   1.0000
     1.0000   1.0000   1.0000   1.0000   1.0000   1.0000   1.0000   1.0000
     1.0000   1.0515   0.0000   0.0000   0.0000   0.0000   0.0000   0.0000
     0.0000   0.0000

          k = 0.4142 0.2123 0.3326 ( 20384 PWs)   bands (ev):

  -103.4632 -69.7395 -65.3842 -65.2926 -61.5968 -61.5596 -59.9477 -38.8486
   -38.7636 -38.7208 -29.7251 -29.6245 -29.6119 -29.5601 -29.5129 -29.4830
    -8.6783  -8.2100  -8.1259  -7.7250  -7.5673  -7.4146  -7.2273  -7.0831
     0.0858   1.1675   1.7110   1.7894   1.8917   3.1717   3.5554   3.6114
     3.7138   4.0099   4.4149   4.5763   4.9015   5.1676   5.4078   5.6280
     5.9506   6.0257   6.3361   6.4769   6.6278   6.7031   7.0251   7.0916
     7.5625   7.7437   7.8453   8.1404   8.2485   8.4541   8.6745   8.9230
     9.1375   9.7131  12.0253  12.3457  12.7401  12.9497  13.0834  13.2256
    15.3844  15.8017

     occupation numbers 
     1.0000   1.0000   1.0000   1.0000   1.0000   1.0000   1.0000   1.0000
     1.0000   1.0000   1.0000   1.0000   1.0000   1.0000   1.0000   1.0000
     1.0000   1.0000   1.0000   1.0000   1.0000   1.0000   1.0000   1.0000
     1.0000   1.0000   1.0000   1.0000   1.0000   1.0000   1.0000   1.0000
     1.0000   1.0000   1.0000   1.0000   1.0000   1.0000   1.0000   1.0000
     1.0000   1.0000   1.0000   1.0000   1.0000   1.0000   1.0000   1.0000
     1.0000   1.0000   1.0000   1.0000   1.0000   1.0000   1.0000   1.0000
     1.0000   1.0250   0.0000   0.0000   0.0000   0.0000   0.0000   0.0000
     0.0000   0.0000

          k = 0.4197 0.2123-0.3951 ( 20397 PWs)   bands (ev):

  -103.4632 -69.7395 -65.3842 -65.2926 -61.5968 -61.5596 -59.9477 -38.8487
   -38.7636 -38.7208 -29.7240 -29.6251 -29.6119 -29.5609 -29.5131 -29.4824
    -8.6239  -8.2661  -8.1373  -7.7680  -7.5318  -7.3771  -7.2489  -7.0803
     0.0684   1.1624   1.7181   1.7954   1.8973   3.1982   3.4149   3.6521
     3.7812   4.0589   4.4995   4.5979   4.8846   5.1598   5.3963   5.6513
     5.8900   5.9740   6.3034   6.4849   6.6177   6.7726   6.9766   7.0627
     7.5253   7.7858   7.8489   8.1328   8.3479   8.4304   8.6921   8.8206
     9.1090   9.7198  11.9848  12.4016  12.7595  12.9122  13.0374  13.2227
    15.4594  15.8332

     occupation numbers 
     1.0000   1.0000   1.0000   1.0000   1.0000   1.0000   1.0000   1.0000
     1.0000   1.0000   1.0000   1.0000   1.0000   1.0000   1.0000   1.0000
     1.0000   1.0000   1.0000   1.0000   1.0000   1.0000   1.0000   1.0000
     1.0000   1.0000   1.0000   1.0000   1.0000   1.0000   1.0000   1.0000
     1.0000   1.0000   1.0000   1.0000   1.0000   1.0000   1.0000   1.0000
     1.0000   1.0000   1.0000   1.0000   1.0000   1.0000   1.0000   1.0000
     1.0000   1.0000   1.0000   1.0000   1.0000   1.0000   1.0000   1.0000
     1.0000   1.0266   0.0000   0.0000   0.0000   0.0000   0.0000   0.0000
     0.0000   0.0000

          k = 0.4186 0.2123-0.2496 ( 20389 PWs)   bands (ev):

  -103.4632 -69.7395 -65.3841 -65.2923 -61.5968 -61.5596 -59.9477 -38.8487
   -38.7636 -38.7208 -29.7253 -29.6264 -29.6075 -29.5606 -29.5140 -29.4838
    -8.7747  -8.1395  -8.0807  -7.7661  -7.5064  -7.3534  -7.3094  -7.1021
     0.0311   1.1503   1.7183   1.7927   1.8973   3.1307   3.4564   3.7955
     3.9372   4.1084   4.3139   4.6808   4.9968   5.1107   5.3184   5.5308
     5.8655   5.9213   6.2902   6.4868   6.7211   6.8785   7.0999   7.2077
     7.3766   7.6469   7.7537   8.0453   8.2658   8.4586   8.6929   8.8385
     9.0618   9.7613  11.8417  12.5320  12.6895  12.8478  12.9822  13.3977
    15.4826  16.2551

     occupation numbers 
     1.0000   1.0000   1.0000   1.0000   1.0000   1.0000   1.0000   1.0000
     1.0000   1.0000   1.0000   1.0000   1.0000   1.0000   1.0000   1.0000
     1.0000   1.0000   1.0000   1.0000   1.0000   1.0000   1.0000   1.0000
     1.0000   1.0000   1.0000   1.0000   1.0000   1.0000   1.0000   1.0000
     1.0000   1.0000   1.0000   1.0000   1.0000   1.0000   1.0000   1.0000
     1.0000   1.0000   1.0000   1.0000   1.0000   1.0000   1.0000   1.0000
     1.0000   1.0000   1.0000   1.0000   1.0000   1.0000   1.0000   1.0000
     1.0000   1.0385   0.0000   0.0000   0.0000   0.0000   0.0000   0.0000
     0.0000   0.0000

          k = 0.4175 0.2123-0.1040 ( 20392 PWs)   bands (ev):

  -103.4632 -69.7394 -65.3840 -65.2920 -61.5968 -61.5596 -59.9477 -38.8487
   -38.7636 -38.7208 -29.7275 -29.6274 -29.6028 -29.5594 -29.5143 -29.4863
    -8.8938  -8.1172  -7.9581  -7.7042  -7.4935  -7.4169  -7.2810  -7.1645
     0.0114   1.1434   1.7106   1.7817   1.9050   3.1144   3.4611   3.8226
     3.9915   4.2452   4.2817   4.6315   4.9522   5.0734   5.3491   5.6924
     5.8173   5.9752   6.2940   6.4375   6.6091   6.8409   7.0408   7.2229
     7.3800   7.6264   7.8512   8.0163   8.1971   8.3941   8.6974   8.9521
     9.0299   9.7663  11.9890  12.2661  12.5582  12.9033  13.0031  13.5532
    15.6341  16.2473

     occupation numbers 
     1.0000   1.0000   1.0000   1.0000   1.0000   1.0000   1.0000   1.0000
     1.0000   1.0000   1.0000   1.0000   1.0000   1.0000   1.0000   1.0000
     1.0000   1.0000   1.0000   1.0000   1.0000   1.0000   1.0000   1.0000
     1.0000   1.0000   1.0000   1.0000   1.0000   1.0000   1.0000   1.0000
     1.0000   1.0000   1.0000   1.0000   1.0000   1.0000   1.0000   1.0000
     1.0000   1.0000   1.0000   1.0000   1.0000   1.0000   1.0000   1.0000
     1.0000   1.0000   1.0000   1.0000   1.0000   1.0000   1.0000   1.0000
     1.0000   1.0400   0.0000   0.0000   0.0000   0.0000   0.0000   0.0000
     0.0000   0.0000

          k = 0.4165 0.3614 0.0380 ( 20356 PWs)   bands (ev):

  -103.4632 -69.7394 -65.3845 -65.2922 -61.5968 -61.5596 -59.9477 -38.8487
   -38.7636 -38.7208 -29.7274 -29.6269 -29.6017 -29.5596 -29.5144 -29.4871
    -8.8576  -8.1290  -8.0448  -7.6399  -7.5270  -7.4343  -7.2666  -7.1295
    -0.0206   1.1722   1.6963   1.7560   1.8778   3.0145   3.5629   3.8122
     4.0865   4.2887   4.4789   4.6831   4.9975   5.0591   5.4348   5.7336
     5.8844   6.1131   6.1932   6.5542   6.6990   6.8216   6.9543   7.2095
     7.3121   7.5253   7.6261   7.8415   8.0967   8.2877   8.6307   8.8923
     8.9934   9.6123  12.0005  12.4370  12.5272  12.8981  13.0782  13.4406
    15.3254  16.3560

     occupation numbers 
     1.0000   1.0000   1.0000   1.0000   1.0000   1.0000   1.0000   1.0000
     1.0000   1.0000   1.0000   1.0000   1.0000   1.0000   1.0000   1.0000
     1.0000   1.0000   1.0000   1.0000   1.0000   1.0000   1.0000   1.0000
     1.0000   1.0000   1.0000   1.0000   1.0000   1.0000   1.0000   1.0000
     1.0000   1.0000   1.0000   1.0000   1.0000   1.0000   1.0000   1.0000
     1.0000   1.0000   1.0000   1.0000   1.0000   1.0000   1.0000   1.0000
     1.0000   1.0000   1.0000   1.0000   1.0000   1.0000   1.0000   1.0000
     1.0000   1.0079   0.0000   0.0000   0.0000   0.0000   0.0000   0.0000
     0.0000   0.0000

          k = 0.4154 0.3614 0.1836 ( 20375 PWs)   bands (ev):

  -103.4632 -69.7395 -65.3845 -65.2925 -61.5968 -61.5596 -59.9477 -38.8487
   -38.7636 -38.7208 -29.7267 -29.6256 -29.6071 -29.5593 -29.5136 -29.4846
    -8.7854  -8.1943  -8.0617  -7.6723  -7.5317  -7.4029  -7.2875  -7.0900
     0.0043   1.1854   1.6992   1.7683   1.8577   3.0433   3.5298   3.7172
     3.9030   4.2209   4.4087   4.8858   5.0493   5.1264   5.3955   5.6131
     5.8244   6.2251   6.4196   6.5900   6.7474   6.7832   6.9258   7.1952
     7.3366   7.5628   7.6683   7.8364   7.9880   8.2419   8.5784   8.9355
     9.0290   9.6965  11.7960  12.5114  12.6774  12.9193  13.0860  13.3949
    15.1149  16.2028

     occupation numbers 
     1.0000   1.0000   1.0000   1.0000   1.0000   1.0000   1.0000   1.0000
     1.0000   1.0000   1.0000   1.0000   1.0000   1.0000   1.0000   1.0000
     1.0000   1.0000   1.0000   1.0000   1.0000   1.0000   1.0000   1.0000
     1.0000   1.0000   1.0000   1.0000   1.0000   1.0000   1.0000   1.0000
     1.0000   1.0000   1.0000   1.0000   1.0000   1.0000   1.0000   1.0000
     1.0000   1.0000   1.0000   1.0000   1.0000   1.0000   1.0000   1.0000
     1.0000   1.0000   1.0000   1.0000   1.0000   1.0000   1.0000   1.0000
     1.0000   1.0211   0.0000   0.0000   0.0000   0.0000   0.0000   0.0000
     0.0000   0.0000

          k = 0.4143 0.3614 0.3291 ( 20391 PWs)   bands (ev):

  -103.4632 -69.7396 -65.3846 -65.2928 -61.5968 -61.5596 -59.9477 -38.8486
   -38.7636 -38.7208 -29.7255 -29.6249 -29.6121 -29.5596 -29.5124 -29.4822
    -8.6694  -8.2759  -8.1012  -7.7411  -7.5305  -7.3769  -7.2323  -7.0978
     0.0156   1.1933   1.7030   1.7788   1.8635   3.1402   3.4475   3.5721
     3.7954   4.0675   4.6869   4.8244   4.9868   5.2692   5.4213   5.6453
     5.8983   6.2077   6.2524   6.5682   6.7060   6.8362   6.9715   7.2343
     7.4072   7.5449   7.7321   7.8680   8.0004   8.2581   8.5190   8.9177
     9.0427   9.6676  11.9012  12.2647  12.6891  12.9762  13.1303  13.3244
    15.1674  15.7853

     occupation numbers 
     1.0000   1.0000   1.0000   1.0000   1.0000   1.0000   1.0000   1.0000
     1.0000   1.0000   1.0000   1.0000   1.0000   1.0000   1.0000   1.0000
     1.0000   1.0000   1.0000   1.0000   1.0000   1.0000   1.0000   1.0000
     1.0000   1.0000   1.0000   1.0000   1.0000   1.0000   1.0000   1.0000
     1.0000   1.0000   1.0000   1.0000   1.0000   1.0000   1.0000   1.0000
     1.0000   1.0000   1.0000   1.0000   1.0000   1.0000   1.0000   1.0000
     1.0000   1.0000   1.0000   1.0000   1.0000   1.0000   1.0000   1.0000
     1.0000   1.0155   0.0000   0.0000   0.0000   0.0000   0.0000   0.0000
     0.0000   0.0000

          k = 0.4197 0.3615-0.3986 ( 20397 PWs)   bands (ev):

  -103.4632 -69.7396 -65.3846 -65.2928 -61.5968 -61.5596 -59.9477 -38.8486
   -38.7636 -38.7208 -29.7250 -29.6252 -29.6121 -29.5601 -29.5125 -29.4819
    -8.6466  -8.2747  -8.1284  -7.7479  -7.5240  -7.3724  -7.2557  -7.0775
     0.0006   1.1891   1.7045   1.7844   1.8729   3.1851   3.4579   3.5871
     3.7744   4.0875   4.6258   4.7359   5.1006   5.2550   5.4257   5.6912
     5.9602   6.0687   6.3577   6.5400   6.6304   6.7842   7.0461   7.1220
     7.4343   7.6294   7.7177   7.9240   8.0484   8.2324   8.6141   8.8175
     8.9312   9.6719  11.8887  12.2138  12.7801  12.9278  13.0475  13.3435
    15.3299  15.7178

     occupation numbers 
     1.0000   1.0000   1.0000   1.0000   1.0000   1.0000   1.0000   1.0000
     1.0000   1.0000   1.0000   1.0000   1.0000   1.0000   1.0000   1.0000
     1.0000   1.0000   1.0000   1.0000   1.0000   1.0000   1.0000   1.0000
     1.0000   1.0000   1.0000   1.0000   1.0000   1.0000   1.0000   1.0000
     1.0000   1.0000   1.0000   1.0000   1.0000   1.0000   1.0000   1.0000
     1.0000   1.0000   1.0000   1.0000   1.0000   1.0000   1.0000   1.0000
     1.0000   1.0000   1.0000   1.0000   1.0000   1.0000   1.0000   1.0000
     1.0000   1.0162   0.0000   0.0000   0.0000   0.0000   0.0000   0.0000
     0.0000   0.0000

          k = 0.4186 0.3614-0.2531 ( 20387 PWs)   bands (ev):

  -103.4632 -69.7395 -65.3845 -65.2925 -61.5968 -61.5596 -59.9477 -38.8487
   -38.7636 -38.7208 -29.7257 -29.6261 -29.6072 -29.5602 -29.5138 -29.4839
    -8.7569  -8.1898  -8.0748  -7.7092  -7.5597  -7.3957  -7.2696  -7.0743
    -0.0245   1.1764   1.7022   1.7753   1.8788   3.0869   3.5423   3.8169
     3.9117   4.2170   4.3525   4.7943   5.0368   5.2384   5.3743   5.5592
     6.0069   6.0568   6.3259   6.5048   6.7294   6.8716   6.9859   7.1761
     7.4272   7.5405   7.6333   7.9224   8.0741   8.2164   8.6887   8.7893
     8.8755   9.6427  11.8281  12.4453  12.6490  12.8412  13.1278  13.3303
    15.3597  16.1320

     occupation numbers 
     1.0000   1.0000   1.0000   1.0000   1.0000   1.0000   1.0000   1.0000
     1.0000   1.0000   1.0000   1.0000   1.0000   1.0000   1.0000   1.0000
     1.0000   1.0000   1.0000   1.0000   1.0000   1.0000   1.0000   1.0000
     1.0000   1.0000   1.0000   1.0000   1.0000   1.0000   1.0000   1.0000
     1.0000   1.0000   1.0000   1.0000   1.0000   1.0000   1.0000   1.0000
     1.0000   1.0000   1.0000   1.0000   1.0000   1.0000   1.0000   1.0000
     1.0000   1.0000   1.0000   1.0000   1.0000   1.0000   1.0000   1.0000
     1.0000   1.0116   0.0000   0.0000   0.0000   0.0000   0.0000   0.0000
     0.0000   0.0000

          k = 0.4176 0.3614-0.1075 ( 20360 PWs)   bands (ev):

  -103.4632 -69.7394 -65.3845 -65.2922 -61.5968 -61.5596 -59.9477 -38.8487
   -38.7636 -38.7208 -29.7269 -29.6271 -29.6017 -29.5600 -29.5146 -29.4868
    -8.8467  -8.1493  -8.0009  -7.6940  -7.5656  -7.3974  -7.2487  -7.1283
    -0.0344   1.1675   1.6983   1.7577   1.8888   3.0297   3.5437   3.8947
     4.1244   4.2923   4.4534   4.6606   4.8969   5.1531   5.4121   5.7328
     5.8719   6.0964   6.1777   6.4331   6.7605   6.8435   7.0195   7.1681
     7.3373   7.5401   7.6566   7.9115   8.0838   8.2492   8.6669   8.8342
     8.9405   9.5702  12.0807  12.3510  12.5677  12.7578  13.1352  13.4103
    15.4473  16.3613

     occupation numbers 
     1.0000   1.0000   1.0000   1.0000   1.0000   1.0000   1.0000   1.0000
     1.0000   1.0000   1.0000   1.0000   1.0000   1.0000   1.0000   1.0000
     1.0000   1.0000   1.0000   1.0000   1.0000   1.0000   1.0000   1.0000
     1.0000   1.0000   1.0000   1.0000   1.0000   1.0000   1.0000   1.0000
     1.0000   1.0000   1.0000   1.0000   1.0000   1.0000   1.0000   1.0000
     1.0000   1.0000   1.0000   1.0000   1.0000   1.0000   1.0000   1.0000
     1.0000   1.0000   1.0000   1.0000   1.0000   1.0000   1.0000   1.0000
     1.0000   1.0045   0.0000   0.0000   0.0000   0.0000   0.0000   0.0000
     0.0000   0.0000

          k = 0.4162-0.3841 0.0555 ( 20358 PWs)   bands (ev):

  -103.4632 -69.7394 -65.3844 -65.2922 -61.5968 -61.5596 -59.9477 -38.8487
   -38.7636 -38.7208 -29.7270 -29.6272 -29.6017 -29.5600 -29.5145 -29.4868
    -8.8311  -8.1278  -8.0734  -7.6850  -7.5113  -7.4279  -7.2366  -7.1388
    -0.0152   1.1703   1.7058   1.7510   1.8788   3.0328   3.5221   3.8571
     4.0682   4.2903   4.5336   4.6252   5.0233   5.0494   5.4183   5.7306
     5.9046   6.0455   6.2079   6.5126   6.6715   6.8613   6.9831   7.1664
     7.3426   7.4290   7.6973   7.9283   8.1119   8.2978   8.6087   8.8729
     8.9862   9.6094  12.0052  12.3661  12.6417  12.8736  13.0687  13.4400
    15.2897  16.4195

     occupation numbers 
     1.0000   1.0000   1.0000   1.0000   1.0000   1.0000   1.0000   1.0000
     1.0000   1.0000   1.0000   1.0000   1.0000   1.0000   1.0000   1.0000
     1.0000   1.0000   1.0000   1.0000   1.0000   1.0000   1.0000   1.0000
     1.0000   1.0000   1.0000   1.0000   1.0000   1.0000   1.0000   1.0000
     1.0000   1.0000   1.0000   1.0000   1.0000   1.0000   1.0000   1.0000
     1.0000   1.0000   1.0000   1.0000   1.0000   1.0000   1.0000   1.0000
     1.0000   1.0000   1.0000   1.0000   1.0000   1.0000   1.0000   1.0000
     1.0000   1.0076   0.0000   0.0000   0.0000   0.0000   0.0000   0.0000
     0.0000   0.0000

          k = 0.4151-0.3842 0.2010 ( 20364 PWs)   bands (ev):

  -103.4632 -69.7395 -65.3845 -65.2925 -61.5968 -61.5596 -59.9477 -38.8487
   -38.7636 -38.7208 -29.7259 -29.6262 -29.6071 -29.5602 -29.5138 -29.4839
    -8.7431  -8.2151  -8.0854  -7.7315  -7.5121  -7.3672  -7.2765  -7.0984
     0.0102   1.1833   1.7097   1.7639   1.8590   3.0527   3.4477   3.8055
     3.8944   4.2412   4.4538   4.8307   5.0422   5.1551   5.3939   5.5719
     5.7860   6.2673   6.3732   6.5658   6.7090   6.7643   6.9579   7.2814
     7.3411   7.4968   7.6817   7.8830   7.9865   8.2726   8.5604   8.9298
     9.0160   9.6966  11.7803  12.5278  12.7404  12.9067  13.0699  13.3855
    15.0663  16.1861

     occupation numbers 
     1.0000   1.0000   1.0000   1.0000   1.0000   1.0000   1.0000   1.0000
     1.0000   1.0000   1.0000   1.0000   1.0000   1.0000   1.0000   1.0000
     1.0000   1.0000   1.0000   1.0000   1.0000   1.0000   1.0000   1.0000
     1.0000   1.0000   1.0000   1.0000   1.0000   1.0000   1.0000   1.0000
     1.0000   1.0000   1.0000   1.0000   1.0000   1.0000   1.0000   1.0000
     1.0000   1.0000   1.0000   1.0000   1.0000   1.0000   1.0000   1.0000
     1.0000   1.0000   1.0000   1.0000   1.0000   1.0000   1.0000   1.0000
     1.0000   1.0212   0.0000   0.0000   0.0000   0.0000   0.0000   0.0000
     0.0000   0.0000

          k = 0.4140-0.3842 0.3466 ( 20382 PWs)   bands (ev):

  -103.4632 -69.7396 -65.3846 -65.2928 -61.5968 -61.5596 -59.9477 -38.8486
   -38.7636 -38.7208 -29.7251 -29.6253 -29.6120 -29.5601 -29.5124 -29.4819
    -8.6266  -8.3174  -8.0753  -7.7890  -7.5443  -7.3663  -7.2205  -7.0892
     0.0212   1.1917   1.7126   1.7752   1.8655   3.1675   3.3312   3.6275
     3.8607   4.0648   4.7203   4.7991   4.9821   5.2268   5.4215   5.6572
     5.8506   6.1894   6.2749   6.5767   6.6870   6.8267   6.9728   7.2727
     7.4656   7.5064   7.7248   7.8772   7.9708   8.2738   8.5087   8.9067
     9.0514   9.6808  11.8792  12.3043  12.6913  12.9864  13.1139  13.3237
    15.1208  15.8092

     occupation numbers 
     1.0000   1.0000   1.0000   1.0000   1.0000   1.0000   1.0000   1.0000
     1.0000   1.0000   1.0000   1.0000   1.0000   1.0000   1.0000   1.0000
     1.0000   1.0000   1.0000   1.0000   1.0000   1.0000   1.0000   1.0000
     1.0000   1.0000   1.0000   1.0000   1.0000   1.0000   1.0000   1.0000
     1.0000   1.0000   1.0000   1.0000   1.0000   1.0000   1.0000   1.0000
     1.0000   1.0000   1.0000   1.0000   1.0000   1.0000   1.0000   1.0000
     1.0000   1.0000   1.0000   1.0000   1.0000   1.0000   1.0000   1.0000
     1.0000   1.0179   0.0000   0.0000   0.0000   0.0000   0.0000   0.0000
     0.0000   0.0000

          k = 0.4194-0.3841-0.3812 ( 20391 PWs)   bands (ev):

  -103.4632 -69.7396 -65.3846 -65.2928 -61.5968 -61.5596 -59.9477 -38.8486
   -38.7636 -38.7208 -29.7256 -29.6250 -29.6120 -29.5596 -29.5124 -29.4822
    -8.6470  -8.2779  -8.0706  -7.7799  -7.5644  -7.4097  -7.2245  -7.0561
     0.0055   1.1879   1.7100   1.7833   1.8756   3.2161   3.4005   3.5880
     3.8626   4.0262   4.6043   4.7394   5.0979   5.2387   5.4363   5.7141
     5.9688   6.0640   6.2962   6.5228   6.6312   6.8298   7.0455   7.1873
     7.4102   7.6400   7.7159   7.8733   8.0872   8.2072   8.5991   8.8167
     8.9426   9.6930  11.9191  12.1699  12.8078  12.8911  13.0450  13.3589
    15.3263  15.7269

     occupation numbers 
     1.0000   1.0000   1.0000   1.0000   1.0000   1.0000   1.0000   1.0000
     1.0000   1.0000   1.0000   1.0000   1.0000   1.0000   1.0000   1.0000
     1.0000   1.0000   1.0000   1.0000   1.0000   1.0000   1.0000   1.0000
     1.0000   1.0000   1.0000   1.0000   1.0000   1.0000   1.0000   1.0000
     1.0000   1.0000   1.0000   1.0000   1.0000   1.0000   1.0000   1.0000
     1.0000   1.0000   1.0000   1.0000   1.0000   1.0000   1.0000   1.0000
     1.0000   1.0000   1.0000   1.0000   1.0000   1.0000   1.0000   1.0000
     1.0000   1.0204   0.0000   0.0000   0.0000   0.0000   0.0000   0.0000
     0.0000   0.0000

          k = 0.4184-0.3841-0.2356 ( 20374 PWs)   bands (ev):

  -103.4632 -69.7395 -65.3845 -65.2925 -61.5968 -61.5596 -59.9477 -38.8487
   -38.7636 -38.7208 -29.7268 -29.6257 -29.6070 -29.5593 -29.5136 -29.4845
    -8.7634  -8.1939  -8.0082  -7.7035  -7.6120  -7.4660  -7.2411  -7.0443
    -0.0201   1.1753   1.7052   1.7749   1.8816   3.1184   3.5392   3.7858
     3.9770   4.1107   4.3430   4.8144   5.0688   5.2391   5.3387   5.5465
     6.0185   6.1209   6.3225   6.4960   6.6595   6.8984   7.0303   7.1555
     7.3598   7.5680   7.6808   7.9765   8.0460   8.1681   8.6985   8.7741
     8.8836   9.6671  11.8466  12.3919  12.6632  12.8498  13.0910  13.3553
    15.3973  16.1286

     occupation numbers 
     1.0000   1.0000   1.0000   1.0000   1.0000   1.0000   1.0000   1.0000
     1.0000   1.0000   1.0000   1.0000   1.0000   1.0000   1.0000   1.0000
     1.0000   1.0000   1.0000   1.0000   1.0000   1.0000   1.0000   1.0000
     1.0000   1.0000   1.0000   1.0000   1.0000   1.0000   1.0000   1.0000
     1.0000   1.0000   1.0000   1.0000   1.0000   1.0000   1.0000   1.0000
     1.0000   1.0000   1.0000   1.0000   1.0000   1.0000   1.0000   1.0000
     1.0000   1.0000   1.0000   1.0000   1.0000   1.0000   1.0000   1.0000
     1.0000   1.0154   0.0000   0.0000   0.0000   0.0000   0.0000   0.0000
     0.0000   0.0000

          k = 0.4173-0.3841-0.0901 ( 20386 PWs)   bands (ev):

  -103.4632 -69.7394 -65.3844 -65.2922 -61.5968 -61.5596 -59.9477 -38.8487
   -38.7636 -38.7208 -29.7275 -29.6270 -29.6016 -29.5596 -29.5144 -29.4871
    -8.8382  -8.1594  -7.9714  -7.6745  -7.6194  -7.4298  -7.2458  -7.0948
    -0.0299   1.1662   1.7045   1.7542   1.8905   3.0588   3.5435   3.8839
     4.0796   4.2932   4.4262   4.7063   4.9077   5.1704   5.3773   5.6876
     5.8660   6.1044   6.2685   6.4091   6.7765   6.8369   6.9804   7.1076
     7.3174   7.5891   7.6650   7.9669   8.1104   8.2212   8.6643   8.8113
     8.9475   9.5810  12.0808  12.4353  12.4668  12.7667  13.1215  13.4195
    15.4619  16.4364

     occupation numbers 
     1.0000   1.0000   1.0000   1.0000   1.0000   1.0000   1.0000   1.0000
     1.0000   1.0000   1.0000   1.0000   1.0000   1.0000   1.0000   1.0000
     1.0000   1.0000   1.0000   1.0000   1.0000   1.0000   1.0000   1.0000
     1.0000   1.0000   1.0000   1.0000   1.0000   1.0000   1.0000   1.0000
     1.0000   1.0000   1.0000   1.0000   1.0000   1.0000   1.0000   1.0000
     1.0000   1.0000   1.0000   1.0000   1.0000   1.0000   1.0000   1.0000
     1.0000   1.0000   1.0000   1.0000   1.0000   1.0000   1.0000   1.0000
     1.0000   1.0052   0.0000   0.0000   0.0000   0.0000   0.0000   0.0000
     0.0000   0.0000

          k = 0.4162-0.2350 0.0520 ( 20383 PWs)   bands (ev):

  -103.4632 -69.7394 -65.3840 -65.2920 -61.5968 -61.5596 -59.9477 -38.8487
   -38.7636 -38.7208 -29.7278 -29.6275 -29.6027 -29.5594 -29.5143 -29.4862
    -8.8686  -8.1021  -8.0126  -7.6914  -7.5218  -7.4216  -7.2609  -7.1542
     0.0380   1.1454   1.7199   1.7716   1.8987   3.1864   3.4577   3.7640
     3.9956   4.1340   4.3124   4.6019   4.8630   5.1590   5.3428   5.5546
     5.9455   6.0024   6.3040   6.4157   6.7081   6.8804   6.9785   7.1544
     7.3904   7.5528   7.8609   8.1390   8.2523   8.3629   8.6647   8.9826
     9.0589   9.7768  11.9814  12.2496  12.5506  12.9469  13.0581  13.5653
    15.4585  16.2744

     occupation numbers 
     1.0000   1.0000   1.0000   1.0000   1.0000   1.0000   1.0000   1.0000
     1.0000   1.0000   1.0000   1.0000   1.0000   1.0000   1.0000   1.0000
     1.0000   1.0000   1.0000   1.0000   1.0000   1.0000   1.0000   1.0000
     1.0000   1.0000   1.0000   1.0000   1.0000   1.0000   1.0000   1.0000
     1.0000   1.0000   1.0000   1.0000   1.0000   1.0000   1.0000   1.0000
     1.0000   1.0000   1.0000   1.0000   1.0000   1.0000   1.0000   1.0000
     1.0000   1.0000   1.0000   1.0000   1.0000   1.0000   1.0000   1.0000
     1.0000   1.0434   0.0000   0.0000   0.0000   0.0000   0.0000   0.0000
     0.0000   0.0000

          k = 0.4152-0.2350 0.1976 ( 20393 PWs)   bands (ev):

  -103.4632 -69.7395 -65.3841 -65.2923 -61.5968 -61.5596 -59.9477 -38.8487
   -38.7636 -38.7208 -29.7256 -29.6265 -29.6074 -29.5606 -29.5139 -29.4838
    -8.7559  -8.1649  -8.0648  -7.7692  -7.5435  -7.3576  -7.2723  -7.1072
     0.0762   1.1569   1.7259   1.7746   1.8858   3.1704   3.4307   3.8163
     3.9317   4.0719   4.2285   4.6025   4.8584   5.0974   5.3973   5.5338
     5.8303   6.0652   6.3914   6.5015   6.6382   6.8772   7.1310   7.2091
     7.4715   7.5490   7.6759   8.1240   8.2884   8.4245   8.6757   8.9531
     9.0956   9.7835  11.8241  12.4883  12.7635  12.9042  13.0404  13.4279
    15.1983  16.1666

     occupation numbers 
     1.0000   1.0000   1.0000   1.0000   1.0000   1.0000   1.0000   1.0000
     1.0000   1.0000   1.0000   1.0000   1.0000   1.0000   1.0000   1.0000
     1.0000   1.0000   1.0000   1.0000   1.0000   1.0000   1.0000   1.0000
     1.0000   1.0000   1.0000   1.0000   1.0000   1.0000   1.0000   1.0000
     1.0000   1.0000   1.0000   1.0000   1.0000   1.0000   1.0000   1.0000
     1.0000   1.0000   1.0000   1.0000   1.0000   1.0000   1.0000   1.0000
     1.0000   1.0000   1.0000   1.0000   1.0000   1.0000   1.0000   1.0000
     1.0000   1.0457   0.0000   0.0000   0.0000   0.0000   0.0000   0.0000
     0.0000   0.0000

          k = 0.4141-0.2351 0.3431 ( 20408 PWs)   bands (ev):

  -103.4632 -69.7395 -65.3841 -65.2926 -61.5968 -61.5596 -59.9477 -38.8486
   -38.7636 -38.7208 -29.7243 -29.6252 -29.6118 -29.5610 -29.5130 -29.4823
    -8.5893  -8.3168  -8.0410  -7.8402  -7.5864  -7.3907  -7.2064  -7.0673
     0.0974   1.1638   1.7306   1.7806   1.8971   3.2129   3.3623   3.6670
     3.8161   4.0646   4.4321   4.5813   4.8526   5.1371   5.3735   5.6815
     5.8416   6.0155   6.3756   6.4649   6.6030   6.7352   6.9866   7.1289
     7.6104   7.7241   7.8090   8.1738   8.2777   8.4290   8.6599   8.9100
     9.1520   9.7308  11.9807  12.4409  12.7455  12.9416  13.0685  13.2207
    15.2292  15.8903

     occupation numbers 
     1.0000   1.0000   1.0000   1.0000   1.0000   1.0000   1.0000   1.0000
     1.0000   1.0000   1.0000   1.0000   1.0000   1.0000   1.0000   1.0000
     1.0000   1.0000   1.0000   1.0000   1.0000   1.0000   1.0000   1.0000
     1.0000   1.0000   1.0000   1.0000   1.0000   1.0000   1.0000   1.0000
     1.0000   1.0000   1.0000   1.0000   1.0000   1.0000   1.0000   1.0000
     1.0000   1.0000   1.0000   1.0000   1.0000   1.0000   1.0000   1.0000
     1.0000   1.0000   1.0000   1.0000   1.0000   1.0000   1.0000   1.0000
     1.0000   1.0295   0.0000   0.0000   0.0000   0.0000   0.0000   0.0000
     0.0000   0.0000

          k = 0.4195-0.2350-0.3847 ( 20406 PWs)   bands (ev):

  -103.4633 -69.7395 -65.3841 -65.2926 -61.5968 -61.5596 -59.9477 -38.8486
   -38.7636 -38.7208 -29.7253 -29.6246 -29.6118 -29.5601 -29.5129 -29.4829
    -8.6273  -8.2551  -8.0316  -7.8284  -7.6168  -7.4414  -7.1983  -7.0401
     0.0784   1.1598   1.7295   1.7913   1.9038   3.2373   3.3866   3.6626
     3.7987   4.0431   4.4695   4.5676   4.8483   5.1610   5.4536   5.6191
     5.8788   6.0630   6.1995   6.4733   6.6240   6.8513   6.9566   7.0809
     7.5302   7.7631   7.8675   8.0816   8.3320   8.4666   8.6686   8.8285
     9.1124   9.7615  12.0398  12.3036  12.7985  12.8954  12.9947  13.2648
    15.4385  15.8697

     occupation numbers 
     1.0000   1.0000   1.0000   1.0000   1.0000   1.0000   1.0000   1.0000
     1.0000   1.0000   1.0000   1.0000   1.0000   1.0000   1.0000   1.0000
     1.0000   1.0000   1.0000   1.0000   1.0000   1.0000   1.0000   1.0000
     1.0000   1.0000   1.0000   1.0000   1.0000   1.0000   1.0000   1.0000
     1.0000   1.0000   1.0000   1.0000   1.0000   1.0000   1.0000   1.0000
     1.0000   1.0000   1.0000   1.0000   1.0000   1.0000   1.0000   1.0000
     1.0000   1.0000   1.0000   1.0000   1.0000   1.0000   1.0000   1.0000
     1.0000   1.0385   0.0000   0.0000   0.0000   0.0000   0.0000   0.0000
     0.0000   0.0000

          k = 0.4184-0.2350-0.2391 ( 20396 PWs)   bands (ev):

  -103.4632 -69.7395 -65.3841 -65.2923 -61.5968 -61.5596 -59.9477 -38.8487
   -38.7636 -38.7208 -29.7276 -29.6256 -29.6072 -29.5589 -29.5136 -29.4850
    -8.7863  -8.1453  -7.9482  -7.7449  -7.6351  -7.5024  -7.2355  -7.0393
     0.0400   1.1484   1.7230   1.7917   1.9040   3.2081   3.4651   3.7598
     3.8769   4.1155   4.2418   4.6871   4.9858   5.1200   5.3350   5.5245
     5.8567   5.9637   6.2878   6.4873   6.7684   6.8691   7.0831   7.1962
     7.3626   7.6881   7.7927   7.9553   8.2538   8.4714   8.7232   8.8288
     9.0527   9.8096  11.8583  12.4917  12.6221  12.8796  12.9845  13.4031
    15.6004  16.2428

     occupation numbers 
     1.0000   1.0000   1.0000   1.0000   1.0000   1.0000   1.0000   1.0000
     1.0000   1.0000   1.0000   1.0000   1.0000   1.0000   1.0000   1.0000
     1.0000   1.0000   1.0000   1.0000   1.0000   1.0000   1.0000   1.0000
     1.0000   1.0000   1.0000   1.0000   1.0000   1.0000   1.0000   1.0000
     1.0000   1.0000   1.0000   1.0000   1.0000   1.0000   1.0000   1.0000
     1.0000   1.0000   1.0000   1.0000   1.0000   1.0000   1.0000   1.0000
     1.0000   1.0000   1.0000   1.0000   1.0000   1.0000   1.0000   1.0000
     1.0000   1.0546   0.0000   0.0000   0.0000   0.0000   0.0000   0.0000
     0.0000   0.0000

          k = 0.4173-0.2350-0.0936 ( 20390 PWs)   bands (ev):

  -103.4632 -69.7394 -65.3840 -65.2920 -61.5968 -61.5596 -59.9477 -38.8487
   -38.7636 -38.7208 -29.7288 -29.6271 -29.6025 -29.5586 -29.5140 -29.4869
    -8.8789  -8.1263  -7.9018  -7.6795  -7.6039  -7.4764  -7.2756  -7.0917
     0.0207   1.1409   1.7183   1.7781   1.9100   3.1995   3.4724   3.7282
     3.9454   4.1739   4.3392   4.6817   4.9564   5.0995   5.3133   5.6198
     5.8336   5.9999   6.3294   6.4365   6.5290   6.8722   7.0503   7.2108
     7.3945   7.6145   7.8758   8.0521   8.1928   8.3932   8.6944   8.9462
     9.0346   9.7805  11.9831  12.3385  12.4626  12.9317  12.9823  13.5485
    15.7115  16.2673

     occupation numbers 
     1.0000   1.0000   1.0000   1.0000   1.0000   1.0000   1.0000   1.0000
     1.0000   1.0000   1.0000   1.0000   1.0000   1.0000   1.0000   1.0000
     1.0000   1.0000   1.0000   1.0000   1.0000   1.0000   1.0000   1.0000
     1.0000   1.0000   1.0000   1.0000   1.0000   1.0000   1.0000   1.0000
     1.0000   1.0000   1.0000   1.0000   1.0000   1.0000   1.0000   1.0000
     1.0000   1.0000   1.0000   1.0000   1.0000   1.0000   1.0000   1.0000
     1.0000   1.0000   1.0000   1.0000   1.0000   1.0000   1.0000   1.0000
     1.0000   1.0447   0.0000   0.0000   0.0000   0.0000   0.0000   0.0000
     0.0000   0.0000

          k = 0.4163-0.0859 0.0485 ( 20397 PWs)   bands (ev):

  -103.4632 -69.7394 -65.3836 -65.2919 -61.5968 -61.5596 -59.9477 -38.8487
   -38.7636 -38.7208 -29.7290 -29.6276 -29.6036 -29.5585 -29.5139 -29.4860
    -8.9244  -8.0934  -7.8817  -7.6743  -7.5809  -7.3799  -7.3413  -7.1551
     0.0890   1.1256   1.7272   1.7804   1.9275   3.3094   3.5003   3.5987
     3.7203   4.1952   4.3223   4.5410   4.7014   5.0369   5.1824   5.4876
     5.9670   6.0621   6.2287   6.5566   6.6439   6.9064   7.0092   7.2481
     7.4058   7.7368   7.9199   8.1317   8.3440   8.5070   8.7345   9.0014
     9.2534   9.9988  11.9452  12.2074  12.3914  12.9434  13.1938  13.6226
    15.5687  16.1730

     occupation numbers 
     1.0000   1.0000   1.0000   1.0000   1.0000   1.0000   1.0000   1.0000
     1.0000   1.0000   1.0000   1.0000   1.0000   1.0000   1.0000   1.0000
     1.0000   1.0000   1.0000   1.0000   1.0000   1.0000   1.0000   1.0000
     1.0000   1.0000   1.0000   1.0000   1.0000   1.0000   1.0000   1.0000
     1.0000   1.0000   1.0000   1.0000   1.0000   1.0000   1.0000   1.0000
     1.0000   1.0000   1.0000   1.0000   1.0000   1.0000   1.0000   1.0000
     1.0000   1.0000   1.0000   1.0000   1.0000   1.0000   1.0000   1.0000
     1.0000   1.0639   0.0000   0.0000   0.0000   0.0000   0.0000   0.0000
     0.0000   0.0000

          k = 0.4152-0.0859 0.1941 ( 20398 PWs)   bands (ev):

  -103.4632 -69.7394 -65.3837 -65.2922 -61.5968 -61.5596 -59.9477 -38.8487
   -38.7636 -38.7208 -29.7262 -29.6263 -29.6076 -29.5601 -29.5139 -29.4843
    -8.8065  -8.0802  -8.0315  -7.7393  -7.6087  -7.4028  -7.2695  -7.0985
     0.1405   1.1363   1.7322   1.7789   1.9160   3.2752   3.4511   3.7519
     3.8443   4.0216   4.1464   4.5198   4.5852   5.0134   5.2765   5.5354
     5.8288   6.0596   6.3065   6.4255   6.6929   6.8737   7.1375   7.2824
     7.5805   7.6482   7.8258   8.1841   8.4662   8.6611   8.7684   8.9649
     9.1942   9.9021  11.8970  12.4481  12.6577  12.9101  13.1084  13.4550
    15.3421  16.1925

     occupation numbers 
     1.0000   1.0000   1.0000   1.0000   1.0000   1.0000   1.0000   1.0000
     1.0000   1.0000   1.0000   1.0000   1.0000   1.0000   1.0000   1.0000
     1.0000   1.0000   1.0000   1.0000   1.0000   1.0000   1.0000   1.0000
     1.0000   1.0000   1.0000   1.0000   1.0000   1.0000   1.0000   1.0000
     1.0000   1.0000   1.0000   1.0000   1.0000   1.0000   1.0000   1.0000
     1.0000   1.0000   1.0000   1.0000   1.0000   1.0000   1.0000   1.0000
     1.0000   1.0000   1.0000   1.0000   1.0000   1.0000   1.0000   1.0000
     1.0000   1.0811   0.0000   0.0000   0.0000   0.0000   0.0000   0.0000
     0.0000   0.0000

          k = 0.4141-0.0860 0.3396 ( 20393 PWs)   bands (ev):

  -103.4632 -69.7395 -65.3837 -65.2925 -61.5968 -61.5596 -59.9477 -38.8487
   -38.7636 -38.7208 -29.7239 -29.6248 -29.6116 -29.5614 -29.5135 -29.4831
    -8.6067  -8.2616  -8.0357  -7.8311  -7.6241  -7.4313  -7.2067  -7.0462
     0.1734   1.1406   1.7404   1.7847   1.9244   3.2751   3.3774   3.6027
     3.7418   4.0902   4.2891   4.5543   4.7238   5.1057   5.3158   5.4954
     5.6691   6.0016   6.2067   6.4290   6.6052   6.6566   7.0810   7.2352
     7.6344   7.8326   8.0500   8.3386   8.4794   8.6137   8.8159   8.9583
     9.1982   9.7881  12.1549  12.5994  12.7252  12.8794  12.9740  13.1639
    15.3817  15.9570

     occupation numbers 
     1.0000   1.0000   1.0000   1.0000   1.0000   1.0000   1.0000   1.0000
     1.0000   1.0000   1.0000   1.0000   1.0000   1.0000   1.0000   1.0000
     1.0000   1.0000   1.0000   1.0000   1.0000   1.0000   1.0000   1.0000
     1.0000   1.0000   1.0000   1.0000   1.0000   1.0000   1.0000   1.0000
     1.0000   1.0000   1.0000   1.0000   1.0000   1.0000   1.0000   1.0000
     1.0000   1.0000   1.0000   1.0000   1.0000   1.0000   1.0000   1.0000
     1.0000   1.0000   1.0000   1.0000   1.0000   1.0000   1.0000   1.0000
     1.0000   1.0472   0.0000   0.0000   0.0000   0.0000   0.0000   0.0000
     0.0000   0.0000

          k = 0.4196-0.0859-0.3882 ( 20425 PWs)   bands (ev):

  -103.4633 -69.7395 -65.3837 -65.2925 -61.5968 -61.5596 -59.9477 -38.8487
   -38.7636 -38.7208 -29.7243 -29.6245 -29.6116 -29.5609 -29.5135 -29.4834
    -8.6064  -8.2503  -8.0136  -7.8643  -7.6252  -7.4552  -7.1934  -7.0358
     0.1517   1.1350   1.7441   1.7958   1.9291   3.2333   3.3625   3.6391
     3.7150   4.1216   4.4137   4.6097   4.7407   5.1223   5.2412   5.4815
     5.7544   5.9500   6.0392   6.4750   6.5982   6.7354   7.0404   7.2341
     7.5447   7.7929   8.1458   8.3116   8.5038   8.6319   8.7702   8.8764
     9.2075   9.8402  12.1871  12.5072  12.7454  12.8529  12.9725  13.1503
    15.6025  16.0018

     occupation numbers 
     1.0000   1.0000   1.0000   1.0000   1.0000   1.0000   1.0000   1.0000
     1.0000   1.0000   1.0000   1.0000   1.0000   1.0000   1.0000   1.0000
     1.0000   1.0000   1.0000   1.0000   1.0000   1.0000   1.0000   1.0000
     1.0000   1.0000   1.0000   1.0000   1.0000   1.0000   1.0000   1.0000
     1.0000   1.0000   1.0000   1.0000   1.0000   1.0000   1.0000   1.0000
     1.0000   1.0000   1.0000   1.0000   1.0000   1.0000   1.0000   1.0000
     1.0000   1.0000   1.0000   1.0000   1.0000   1.0000   1.0000   1.0000
     1.0000   1.0650   0.0000   0.0000   0.0000   0.0000   0.0000   0.0000
     0.0000   0.0000

          k = 0.4185-0.0859-0.2426 ( 20405 PWs)   bands (ev):

  -103.4633 -69.7395 -65.3836 -65.2922 -61.5968 -61.5596 -59.9477 -38.8487
   -38.7636 -38.7208 -29.7272 -29.6259 -29.6075 -29.5592 -29.5138 -29.4849
    -8.8043  -8.0752  -7.9666  -7.7917  -7.6233  -7.4829  -7.2320  -7.0623
     0.0996   1.1244   1.7384   1.7994   1.9290   3.2332   3.3657   3.7305
     3.8350   4.0557   4.3625   4.6111   4.8023   5.1047   5.2124   5.6044
     5.7330   5.7917   6.0849   6.6036   6.7034   6.8498   7.0465   7.2650
     7.4605   7.6744   8.0561   8.1474   8.4536   8.6125   8.7165   8.8666
     9.1868   9.9754  11.8836  12.5382  12.6407  12.8655  12.9619  13.4138
    15.8581  16.2580

     occupation numbers 
     1.0000   1.0000   1.0000   1.0000   1.0000   1.0000   1.0000   1.0000
     1.0000   1.0000   1.0000   1.0000   1.0000   1.0000   1.0000   1.0000
     1.0000   1.0000   1.0000   1.0000   1.0000   1.0000   1.0000   1.0000
     1.0000   1.0000   1.0000   1.0000   1.0000   1.0000   1.0000   1.0000
     1.0000   1.0000   1.0000   1.0000   1.0000   1.0000   1.0000   1.0000
     1.0000   1.0000   1.0000   1.0000   1.0000   1.0000   1.0000   1.0000
     1.0000   1.0000   1.0000   1.0000   1.0000   1.0000   1.0000   1.0000
     1.0000   1.0753   0.0000   0.0000   0.0000   0.0000   0.0000   0.0000
     0.0000   0.0000

          k = 0.4174-0.0859-0.0970 ( 20391 PWs)   bands (ev):

  -103.4632 -69.7394 -65.3836 -65.2919 -61.5968 -61.5596 -59.9477 -38.8487
   -38.7636 -38.7208 -29.7294 -29.6274 -29.6036 -29.5581 -29.5137 -29.4864
    -8.9234  -8.0919  -7.8063  -7.7463  -7.5691  -7.4723  -7.3029  -7.1194
     0.0696   1.1193   1.7297   1.7898   1.9359   3.2970   3.4081   3.6072
     3.7493   4.2311   4.3402   4.7088   4.7285   5.0586   5.2421   5.6374
     5.7534   5.9153   6.2131   6.4845   6.6062   6.8225   7.0143   7.3327
     7.4775   7.7194   8.0241   8.1470   8.3067   8.4178   8.7337   8.9668
     9.2348  10.0283  11.8983  12.3244  12.3597  12.9667  13.0657  13.5994
    15.9313  16.0992

     occupation numbers 
     1.0000   1.0000   1.0000   1.0000   1.0000   1.0000   1.0000   1.0000
     1.0000   1.0000   1.0000   1.0000   1.0000   1.0000   1.0000   1.0000
     1.0000   1.0000   1.0000   1.0000   1.0000   1.0000   1.0000   1.0000
     1.0000   1.0000   1.0000   1.0000   1.0000   1.0000   1.0000   1.0000
     1.0000   1.0000   1.0000   1.0000   1.0000   1.0000   1.0000   1.0000
     1.0000   1.0000   1.0000   1.0000   1.0000   1.0000   1.0000   1.0000
     1.0000   1.0000   1.0000   1.0000   1.0000   1.0000   1.0000   1.0000
     1.0000   1.0410   0.0000   0.0000   0.0000   0.0000   0.0000   0.0000
     0.0000   0.0000

 ------ SPIN DOWN ----------


          k = 0.0829 0.0723 0.0658 ( 20395 PWs)   bands (ev):

  -102.6305 -65.3325 -65.2480 -65.1764 -60.3668 -60.3295 -59.6011 -34.0164
   -33.9505 -33.9180 -29.6630 -29.5605 -29.5356 -29.4955 -29.4609 -29.4185
    -9.1342  -8.0413  -7.6879  -7.5422  -7.3077  -7.2388  -7.0824  -7.0204
     1.6053   2.1073   2.2921   2.3361   3.2871   3.6595   3.8593   4.0934
     4.1818   4.7483   5.0335   5.3157   5.5724   5.7031   6.2161   6.4988
     6.5970   6.6980   6.8804   7.1160   7.2517   7.4940   7.9673   8.2093
     8.4285   8.5386   8.6855   9.0141  11.3036  11.9990  12.2530  12.3589
    12.8761  13.3240  13.4470  14.9612  15.3320  15.5418  15.6583  16.0506
    16.2067  16.6476

     occupation numbers 
     1.0000   1.0000   1.0000   1.0000   1.0000   1.0000   1.0000   1.0000
     1.0000   1.0000   1.0000   1.0000   1.0000   1.0000   1.0000   1.0000
     1.0000   1.0000   1.0000   1.0000   1.0000   1.0000   1.0000   1.0000
     1.0000   1.0000   1.0000   1.0000   1.0000   1.0000   1.0000   1.0000
     1.0000   1.0000   1.0000   1.0000   1.0000   1.0000   1.0000   1.0000
     1.0000   1.0000   1.0000   1.0000   1.0000   1.0000   1.0000   1.0000
     1.0000   1.0000   1.0000   1.0000   0.0000   0.0000   0.0000   0.0000
     0.0000   0.0000   0.0000   0.0000   0.0000   0.0000   0.0000   0.0000
     0.0000   0.0000

          k = 0.0818 0.0723 0.2114 ( 20393 PWs)   bands (ev):

  -102.6305 -65.3325 -65.2480 -65.1764 -60.3668 -60.3295 -59.6011 -34.0164
   -33.9504 -33.9179 -29.6612 -29.5592 -29.5390 -29.4977 -29.4592 -29.4182
    -8.9985  -8.0751  -7.8841  -7.5959  -7.2912  -7.1921  -7.0497  -6.9863
     1.6005   2.1693   2.2569   2.3170   3.3992   3.6373   3.8381   4.1606
     4.3163   4.4953   5.0563   5.1962   5.5042   5.9940   6.1057   6.4044
     6.5964   6.6507   6.9125   7.0345   7.2949   7.6363   7.9646   8.1727
     8.4342   8.6042   8.7037   8.9555  11.2959  11.9660  12.3395  12.5178
    12.8942  13.1525  13.2632  15.1155  15.3727  15.5629  15.6890  15.9278
    16.2045  16.5911

     occupation numbers 
     1.0000   1.0000   1.0000   1.0000   1.0000   1.0000   1.0000   1.0000
     1.0000   1.0000   1.0000   1.0000   1.0000   1.0000   1.0000   1.0000
     1.0000   1.0000   1.0000   1.0000   1.0000   1.0000   1.0000   1.0000
     1.0000   1.0000   1.0000   1.0000   1.0000   1.0000   1.0000   1.0000
     1.0000   1.0000   1.0000   1.0000   1.0000   1.0000   1.0000   1.0000
     1.0000   1.0000   1.0000   1.0000   1.0000   1.0000   1.0000   1.0000
     1.0000   1.0000   1.0000   1.0000   0.0000   0.0000   0.0000   0.0000
     0.0000   0.0000   0.0000   0.0000   0.0000   0.0000   0.0000   0.0000
     0.0000   0.0000

          k = 0.0807 0.0722 0.3569 ( 20409 PWs)   bands (ev):

  -102.6305 -65.3324 -65.2479 -65.1764 -60.3668 -60.3295 -59.6011 -34.0164
   -33.9504 -33.9179 -29.6588 -29.5577 -29.5426 -29.5004 -29.4577 -29.4176
    -8.7491  -8.3151  -7.9398  -7.6586  -7.2783  -7.1851  -7.0326  -6.9394
     1.5871   2.2119   2.2611   2.3116   3.3572   3.6066   3.9846   4.2382
     4.4412   4.5807   4.9426   5.1887   5.5510   5.9149   6.0440   6.1387
     6.2914   6.4831   7.0929   7.2894   7.3976   7.6960   8.0499   8.1883
     8.3756   8.5915   8.6978   8.8742  11.3308  12.1132  12.2851  12.6159
    12.8044  13.0028  13.0775  15.2024  15.3846  15.7174  15.8043  15.8630
    16.4932  16.5980

     occupation numbers 
     1.0000   1.0000   1.0000   1.0000   1.0000   1.0000   1.0000   1.0000
     1.0000   1.0000   1.0000   1.0000   1.0000   1.0000   1.0000   1.0000
     1.0000   1.0000   1.0000   1.0000   1.0000   1.0000   1.0000   1.0000
     1.0000   1.0000   1.0000   1.0000   1.0000   1.0000   1.0000   1.0000
     1.0000   1.0000   1.0000   1.0000   1.0000   1.0000   1.0000   1.0000
     1.0000   1.0000   1.0000   1.0000   1.0000   1.0000   1.0000   1.0000
     1.0000   1.0000   1.0000   1.0000   0.0000   0.0000   0.0000   0.0000
     0.0000   0.0000   0.0000   0.0000   0.0000   0.0000   0.0000   0.0000
     0.0000   0.0000

          k = 0.0861 0.0723-0.3708 ( 20434 PWs)   bands (ev):

  -102.6305 -65.3324 -65.2479 -65.1764 -60.3668 -60.3295 -59.6011 -34.0164
   -33.9504 -33.9179 -29.6583 -29.5578 -29.5429 -29.5007 -29.4581 -29.4172
    -8.7053  -8.3643  -7.9238  -7.6644  -7.2739  -7.1908  -7.0551  -6.9277
     1.5802   2.2243   2.2588   2.3288   3.3817   3.5550   3.9678   4.3196
     4.3672   4.6821   5.0577   5.2288   5.5218   5.8365   5.9191   6.1059
     6.3513   6.4280   7.1614   7.2346   7.4322   7.6930   7.9664   8.2384
     8.3840   8.5199   8.7384   8.8376  11.3751  12.0239  12.4332  12.5987
    12.7766  12.9276  13.0548  15.3058  15.4325  15.6528  15.8131  16.0083
    16.4892  16.7202

     occupation numbers 
     1.0000   1.0000   1.0000   1.0000   1.0000   1.0000   1.0000   1.0000
     1.0000   1.0000   1.0000   1.0000   1.0000   1.0000   1.0000   1.0000
     1.0000   1.0000   1.0000   1.0000   1.0000   1.0000   1.0000   1.0000
     1.0000   1.0000   1.0000   1.0000   1.0000   1.0000   1.0000   1.0000
     1.0000   1.0000   1.0000   1.0000   1.0000   1.0000   1.0000   1.0000
     1.0000   1.0000   1.0000   1.0000   1.0000   1.0000   1.0000   1.0000
     1.0000   1.0000   1.0000   1.0000   0.0000   0.0000   0.0000   0.0000
     0.0000   0.0000   0.0000   0.0000   0.0000   0.0000   0.0000   0.0000
     0.0000   0.0000

          k = 0.0850 0.0723-0.2253 ( 20438 PWs)   bands (ev):

  -102.6305 -65.3325 -65.2479 -65.1764 -60.3668 -60.3295 -59.6011 -34.0164
   -33.9504 -33.9179 -29.6603 -29.5592 -29.5395 -29.4982 -29.4600 -29.4174
    -8.9653  -8.0865  -7.8949  -7.6004  -7.2710  -7.2002  -7.1180  -6.9516
     1.5873   2.1766   2.2763   2.3468   3.3578   3.5806   3.9175   4.2116
     4.3721   4.5778   4.9968   5.3609   5.5559   5.8396   6.0439   6.3851
     6.4861   6.6610   6.8493   6.9864   7.3487   7.7695   7.7872   8.1952
     8.4459   8.5020   8.7440   8.9198  11.3874  11.9042  12.3846  12.5502
    12.8720  12.9685  13.2563  15.3454  15.4629  15.5727  15.8002  16.0660
    16.2978  16.5762

     occupation numbers 
     1.0000   1.0000   1.0000   1.0000   1.0000   1.0000   1.0000   1.0000
     1.0000   1.0000   1.0000   1.0000   1.0000   1.0000   1.0000   1.0000
     1.0000   1.0000   1.0000   1.0000   1.0000   1.0000   1.0000   1.0000
     1.0000   1.0000   1.0000   1.0000   1.0000   1.0000   1.0000   1.0000
     1.0000   1.0000   1.0000   1.0000   1.0000   1.0000   1.0000   1.0000
     1.0000   1.0000   1.0000   1.0000   1.0000   1.0000   1.0000   1.0000
     1.0000   1.0000   1.0000   1.0000   0.0000   0.0000   0.0000   0.0000
     0.0000   0.0000   0.0000   0.0000   0.0000   0.0000   0.0000   0.0000
     0.0000   0.0000

          k = 0.0839 0.0723-0.0797 ( 20395 PWs)   bands (ev):

  -102.6305 -65.3325 -65.2479 -65.1764 -60.3668 -60.3295 -59.6011 -34.0164
   -33.9505 -33.9179 -29.6626 -29.5605 -29.5359 -29.4957 -29.4613 -29.4181
    -9.1225  -8.0307  -7.7071  -7.5527  -7.2889  -7.2040  -7.1689  -6.9875
     1.5991   2.1102   2.3036   2.3513   3.2479   3.6761   3.8087   4.1729
     4.3369   4.6775   4.9171   5.3211   5.7525   5.8100   6.0963   6.2942
     6.6078   6.7294   6.9086   7.0635   7.1864   7.6008   7.9042   8.1956
     8.4459   8.5144   8.6929   9.0036  11.3482  12.0192  12.1929  12.3632
    12.8652  13.2507  13.4508  15.0752  15.4543  15.5372  15.6896  16.0734
    16.3264  16.5506

     occupation numbers 
     1.0000   1.0000   1.0000   1.0000   1.0000   1.0000   1.0000   1.0000
     1.0000   1.0000   1.0000   1.0000   1.0000   1.0000   1.0000   1.0000
     1.0000   1.0000   1.0000   1.0000   1.0000   1.0000   1.0000   1.0000
     1.0000   1.0000   1.0000   1.0000   1.0000   1.0000   1.0000   1.0000
     1.0000   1.0000   1.0000   1.0000   1.0000   1.0000   1.0000   1.0000
     1.0000   1.0000   1.0000   1.0000   1.0000   1.0000   1.0000   1.0000
     1.0000   1.0000   1.0000   1.0000   0.0000   0.0000   0.0000   0.0000
     0.0000   0.0000   0.0000   0.0000   0.0000   0.0000   0.0000   0.0000
     0.0000   0.0000

          k = 0.0829 0.2214 0.0623 ( 20394 PWs)   bands (ev):

  -102.6305 -65.3324 -65.2480 -65.1764 -60.3668 -60.3295 -59.6011 -34.0164
   -33.9505 -33.9180 -29.6625 -29.5604 -29.5348 -29.4962 -29.4611 -29.4192
    -9.0346  -7.9889  -7.7844  -7.6168  -7.3569  -7.3114  -7.0477  -6.9548
     1.6108   2.1561   2.3078   2.3812   3.4282   3.6866   3.9414   4.1020
     4.2992   4.5983   5.0458   5.3538   5.6723   5.8230   5.9694   6.2773
     6.5529   6.8178   6.9164   7.1715   7.3639   7.6258   7.8532   8.0908
     8.2339   8.3688   8.4367   8.9045  11.3336  11.9584  12.3091  12.4313
    12.9009  13.2471  13.3834  15.2624  15.3735  15.5764  15.7090  16.0736
    16.3702  16.6030

     occupation numbers 
     1.0000   1.0000   1.0000   1.0000   1.0000   1.0000   1.0000   1.0000
     1.0000   1.0000   1.0000   1.0000   1.0000   1.0000   1.0000   1.0000
     1.0000   1.0000   1.0000   1.0000   1.0000   1.0000   1.0000   1.0000
     1.0000   1.0000   1.0000   1.0000   1.0000   1.0000   1.0000   1.0000
     1.0000   1.0000   1.0000   1.0000   1.0000   1.0000   1.0000   1.0000
     1.0000   1.0000   1.0000   1.0000   1.0000   1.0000   1.0000   1.0000
     1.0000   1.0000   1.0000   1.0000   0.0000   0.0000   0.0000   0.0000
     0.0000   0.0000   0.0000   0.0000   0.0000   0.0000   0.0000   0.0000
     0.0000   0.0000

          k = 0.0818 0.2214 0.2079 ( 20411 PWs)   bands (ev):

  -102.6305 -65.3323 -65.2480 -65.1764 -60.3668 -60.3295 -59.6011 -34.0164
   -33.9504 -33.9179 -29.6616 -29.5593 -29.5388 -29.4977 -29.4587 -29.4185
    -8.9237  -7.9878  -7.9469  -7.6253  -7.3628  -7.2385  -7.0902  -6.9412
     1.6068   2.2079   2.2908   2.3793   3.4316   3.6154   3.9513   4.2147
     4.3665   4.5061   5.1492   5.3585   5.4572   5.9783   6.0540   6.2862
     6.5357   6.7441   6.8980   7.0361   7.3040   7.6834   7.8243   8.0368
     8.2671   8.4109   8.5340   8.8639  11.3282  11.9446  12.4044  12.4931
    12.8883  13.1596  13.2156  15.3045  15.4887  15.6282  15.7036  15.9550
    16.4340  16.6118

     occupation numbers 
     1.0000   1.0000   1.0000   1.0000   1.0000   1.0000   1.0000   1.0000
     1.0000   1.0000   1.0000   1.0000   1.0000   1.0000   1.0000   1.0000
     1.0000   1.0000   1.0000   1.0000   1.0000   1.0000   1.0000   1.0000
     1.0000   1.0000   1.0000   1.0000   1.0000   1.0000   1.0000   1.0000
     1.0000   1.0000   1.0000   1.0000   1.0000   1.0000   1.0000   1.0000
     1.0000   1.0000   1.0000   1.0000   1.0000   1.0000   1.0000   1.0000
     1.0000   1.0000   1.0000   1.0000   0.0000   0.0000   0.0000   0.0000
     0.0000   0.0000   0.0000   0.0000   0.0000   0.0000   0.0000   0.0000
     0.0000   0.0000

          k = 0.0807 0.2213 0.3534 ( 20403 PWs)   bands (ev):

  -102.6305 -65.3323 -65.2480 -65.1764 -60.3668 -60.3295 -59.6011 -34.0164
   -33.9504 -33.9179 -29.6597 -29.5581 -29.5433 -29.4998 -29.4568 -29.4172
    -8.7137  -8.2244  -7.9661  -7.6432  -7.3412  -7.1786  -7.1373  -6.9393
     1.5960   2.2510   2.3038   2.3852   3.3794   3.6781   3.9175   4.1709
     4.4958   4.6765   5.0610   5.3710   5.6478   5.9091   5.9999   6.1491
     6.2861   6.6750   6.9485   7.0920   7.2961   7.5912   7.8815   8.1335
     8.3093   8.4252   8.5833   8.7700  11.3533  11.9962  12.2434  12.6139
    12.9252  13.0043  13.0906  15.4148  15.4558  15.7225  15.7808  15.9465
    16.5648  16.7134

     occupation numbers 
     1.0000   1.0000   1.0000   1.0000   1.0000   1.0000   1.0000   1.0000
     1.0000   1.0000   1.0000   1.0000   1.0000   1.0000   1.0000   1.0000
     1.0000   1.0000   1.0000   1.0000   1.0000   1.0000   1.0000   1.0000
     1.0000   1.0000   1.0000   1.0000   1.0000   1.0000   1.0000   1.0000
     1.0000   1.0000   1.0000   1.0000   1.0000   1.0000   1.0000   1.0000
     1.0000   1.0000   1.0000   1.0000   1.0000   1.0000   1.0000   1.0000
     1.0000   1.0000   1.0000   1.0000   0.0000   0.0000   0.0000   0.0000
     0.0000   0.0000   0.0000   0.0000   0.0000   0.0000   0.0000   0.0000
     0.0000   0.0000

          k = 0.0862 0.2214-0.3743 ( 20399 PWs)   bands (ev):

  -102.6305 -65.3323 -65.2479 -65.1764 -60.3668 -60.3295 -59.6011 -34.0164
   -33.9504 -33.9179 -29.6588 -29.5581 -29.5438 -29.5005 -29.4575 -29.4164
    -8.6312  -8.3377  -7.9518  -7.6237  -7.2995  -7.2353  -7.1502  -6.9214
     1.5904   2.2530   2.3112   2.4025   3.4446   3.6823   3.8749   4.1808
     4.3914   4.7999   5.1746   5.2867   5.6603   5.7985   5.9584   6.1393
     6.3164   6.6171   7.0556   7.1753   7.2843   7.5263   7.7859   8.0994
     8.3547   8.4874   8.5756   8.7267  11.3702  11.8956  12.3623  12.6313
    12.8272  12.9539  13.1214  15.3963  15.5955  15.7039  15.8449  15.9983
    16.5789  16.7019

     occupation numbers 
     1.0000   1.0000   1.0000   1.0000   1.0000   1.0000   1.0000   1.0000
     1.0000   1.0000   1.0000   1.0000   1.0000   1.0000   1.0000   1.0000
     1.0000   1.0000   1.0000   1.0000   1.0000   1.0000   1.0000   1.0000
     1.0000   1.0000   1.0000   1.0000   1.0000   1.0000   1.0000   1.0000
     1.0000   1.0000   1.0000   1.0000   1.0000   1.0000   1.0000   1.0000
     1.0000   1.0000   1.0000   1.0000   1.0000   1.0000   1.0000   1.0000
     1.0000   1.0000   1.0000   1.0000   0.0000   0.0000   0.0000   0.0000
     0.0000   0.0000   0.0000   0.0000   0.0000   0.0000   0.0000   0.0000
     0.0000   0.0000

          k = 0.0851 0.2214-0.2288 ( 20426 PWs)   bands (ev):

  -102.6305 -65.3323 -65.2479 -65.1764 -60.3668 -60.3295 -59.6011 -34.0164
   -33.9504 -33.9179 -29.6599 -29.5593 -29.5398 -29.4988 -29.4602 -29.4169
    -8.8575  -8.1168  -7.9116  -7.6089  -7.3082  -7.2634  -7.1518  -6.9124
     1.5960   2.2176   2.3000   2.4121   3.4967   3.7311   3.8607   4.1707
     4.3189   4.6773   5.0269   5.3455   5.4686   5.9143   6.0510   6.2681
     6.5760   6.7212   6.9761   7.0537   7.3458   7.5164   7.7076   8.0497
     8.3358   8.4101   8.5724   8.8129  11.3379  11.8805  12.3961  12.6183
    12.8399  12.9495  13.2669  15.3469  15.6278  15.7075  15.8518  16.1137
    16.3270  16.6176

     occupation numbers 
     1.0000   1.0000   1.0000   1.0000   1.0000   1.0000   1.0000   1.0000
     1.0000   1.0000   1.0000   1.0000   1.0000   1.0000   1.0000   1.0000
     1.0000   1.0000   1.0000   1.0000   1.0000   1.0000   1.0000   1.0000
     1.0000   1.0000   1.0000   1.0000   1.0000   1.0000   1.0000   1.0000
     1.0000   1.0000   1.0000   1.0000   1.0000   1.0000   1.0000   1.0000
     1.0000   1.0000   1.0000   1.0000   1.0000   1.0000   1.0000   1.0000
     1.0000   1.0000   1.0000   1.0000   0.0000   0.0000   0.0000   0.0000
     0.0000   0.0000   0.0000   0.0000   0.0000   0.0000   0.0000   0.0000
     0.0000   0.0000

          k = 0.0840 0.2214-0.0832 ( 20404 PWs)   bands (ev):

  -102.6305 -65.3324 -65.2480 -65.1764 -60.3668 -60.3295 -59.6011 -34.0164
   -33.9505 -33.9180 -29.6617 -29.5604 -29.5354 -29.4966 -29.4619 -29.4184
    -9.0116  -8.0133  -7.7593  -7.6717  -7.3349  -7.2834  -7.0956  -6.9330
     1.6058   2.1616   2.3113   2.3969   3.4248   3.8100   3.8752   4.1949
     4.2331   4.5712   4.9620   5.3950   5.6629   5.8436   5.9541   6.3178
     6.5004   6.8380   6.9555   7.1853   7.3097   7.5530   7.8487   8.0626
     8.2436   8.3949   8.4633   8.8859  11.3296  11.9803  12.2370  12.4639
    12.9225  13.1478  13.4006  15.2850  15.4803  15.6107  15.7673  16.1729
    16.3857  16.4830

     occupation numbers 
     1.0000   1.0000   1.0000   1.0000   1.0000   1.0000   1.0000   1.0000
     1.0000   1.0000   1.0000   1.0000   1.0000   1.0000   1.0000   1.0000
     1.0000   1.0000   1.0000   1.0000   1.0000   1.0000   1.0000   1.0000
     1.0000   1.0000   1.0000   1.0000   1.0000   1.0000   1.0000   1.0000
     1.0000   1.0000   1.0000   1.0000   1.0000   1.0000   1.0000   1.0000
     1.0000   1.0000   1.0000   1.0000   1.0000   1.0000   1.0000   1.0000
     1.0000   1.0000   1.0000   1.0000   0.0000   0.0000   0.0000   0.0000
     0.0000   0.0000   0.0000   0.0000   0.0000   0.0000   0.0000   0.0000
     0.0000   0.0000

          k = 0.0830 0.3705 0.0588 ( 20393 PWs)   bands (ev):

  -102.6305 -65.3322 -65.2480 -65.1764 -60.3668 -60.3295 -59.6011 -34.0164
   -33.9504 -33.9180 -29.6616 -29.5603 -29.5342 -29.4972 -29.4617 -29.4195
    -8.8867  -8.0462  -7.8674  -7.6346  -7.4064  -7.3664  -7.0374  -6.8913
     1.6240   2.2048   2.3174   2.4160   3.6295   3.7386   3.9552   4.1591
     4.3987   4.5364   5.0074   5.4237   5.5882   5.7865   5.9345   6.0781
     6.7122   6.9031   6.9971   7.2066   7.4214   7.5610   7.7777   7.8858
     8.0557   8.1932   8.3015   8.7910  11.3591  11.9096  12.3766  12.5987
    12.9036  13.1286  13.3331  15.2823  15.5035  15.7095  15.8213  16.1061
    16.4511  16.7003

     occupation numbers 
     1.0000   1.0000   1.0000   1.0000   1.0000   1.0000   1.0000   1.0000
     1.0000   1.0000   1.0000   1.0000   1.0000   1.0000   1.0000   1.0000
     1.0000   1.0000   1.0000   1.0000   1.0000   1.0000   1.0000   1.0000
     1.0000   1.0000   1.0000   1.0000   1.0000   1.0000   1.0000   1.0000
     1.0000   1.0000   1.0000   1.0000   1.0000   1.0000   1.0000   1.0000
     1.0000   1.0000   1.0000   1.0000   1.0000   1.0000   1.0000   1.0000
     1.0000   1.0000   1.0000   1.0000   0.0000   0.0000   0.0000   0.0000
     0.0000   0.0000   0.0000   0.0000   0.0000   0.0000   0.0000   0.0000
     0.0000   0.0000

          k = 0.0819 0.3705 0.2044 ( 20401 PWs)   bands (ev):

  -102.6305 -65.3322 -65.2480 -65.1764 -60.3668 -60.3295 -59.6011 -34.0164
   -33.9504 -33.9179 -29.6612 -29.5594 -29.5391 -29.4982 -29.4589 -29.4179
    -8.7976  -8.0814  -7.9078  -7.6167  -7.4047  -7.3713  -7.0758  -6.9042
     1.6201   2.2442   2.3173   2.4344   3.4788   3.6183   3.9877   4.2476
     4.5289   4.6654   5.1198   5.4099   5.6474   5.7925   5.9008   6.0956
     6.6001   6.7052   6.9887   7.1816   7.2746   7.6495   7.7120   7.9508
     8.0504   8.2736   8.3349   8.7572  11.3522  11.9217  12.4250  12.6028
    12.8565  13.0824  13.2399  15.3763  15.5697  15.6392  15.8000  16.1220
    16.5134  16.7264

     occupation numbers 
     1.0000   1.0000   1.0000   1.0000   1.0000   1.0000   1.0000   1.0000
     1.0000   1.0000   1.0000   1.0000   1.0000   1.0000   1.0000   1.0000
     1.0000   1.0000   1.0000   1.0000   1.0000   1.0000   1.0000   1.0000
     1.0000   1.0000   1.0000   1.0000   1.0000   1.0000   1.0000   1.0000
     1.0000   1.0000   1.0000   1.0000   1.0000   1.0000   1.0000   1.0000
     1.0000   1.0000   1.0000   1.0000   1.0000   1.0000   1.0000   1.0000
     1.0000   1.0000   1.0000   1.0000   0.0000   0.0000   0.0000   0.0000
     0.0000   0.0000   0.0000   0.0000   0.0000   0.0000   0.0000   0.0000
     0.0000   0.0000

          k = 0.0808 0.3705 0.3499 ( 20419 PWs)   bands (ev):

  -102.6305 -65.3322 -65.2480 -65.1765 -60.3668 -60.3295 -59.6011 -34.0164
   -33.9504 -33.9179 -29.6602 -29.5585 -29.5442 -29.4996 -29.4562 -29.4163
    -8.6396  -8.2049  -7.8974  -7.6604  -7.4011  -7.3670  -7.0851  -6.9341
     1.6103   2.2906   2.3301   2.4593   3.4545   3.5792   3.9786   4.0789
     4.6885   4.9676   5.1460   5.5218   5.6033   5.7351   6.0358   6.1255
     6.3517   6.5562   6.9048   7.0790   7.2225   7.4585   7.7672   8.0499
     8.1566   8.2339   8.5195   8.6803  11.3928  11.9475  12.2033  12.6006
    12.8601  13.0670  13.1868  15.4483  15.5779  15.7080  15.7961  16.1614
    16.5353  16.6742

     occupation numbers 
     1.0000   1.0000   1.0000   1.0000   1.0000   1.0000   1.0000   1.0000
     1.0000   1.0000   1.0000   1.0000   1.0000   1.0000   1.0000   1.0000
     1.0000   1.0000   1.0000   1.0000   1.0000   1.0000   1.0000   1.0000
     1.0000   1.0000   1.0000   1.0000   1.0000   1.0000   1.0000   1.0000
     1.0000   1.0000   1.0000   1.0000   1.0000   1.0000   1.0000   1.0000
     1.0000   1.0000   1.0000   1.0000   1.0000   1.0000   1.0000   1.0000
     1.0000   1.0000   1.0000   1.0000   0.0000   0.0000   0.0000   0.0000
     0.0000   0.0000   0.0000   0.0000   0.0000   0.0000   0.0000   0.0000
     0.0000   0.0000

          k = 0.0862 0.3705-0.3778 ( 20418 PWs)   bands (ev):

  -102.6305 -65.3322 -65.2480 -65.1765 -60.3668 -60.3295 -59.6011 -34.0164
   -33.9504 -33.9179 -29.6598 -29.5585 -29.5444 -29.4999 -29.4566 -29.4159
    -8.5860  -8.2490  -7.9430  -7.5811  -7.4208  -7.3938  -7.1104  -6.9127
     1.6052   2.2919   2.3362   2.4829   3.4707   3.6821   3.9286   4.0735
     4.5674   4.9995   5.3077   5.3381   5.5919   5.7219   5.9611   6.1719
     6.4548   6.7180   6.8380   6.9785   7.2714   7.4085   7.7555   7.9270
     8.2075   8.3259   8.4623   8.7014  11.4045  11.8904  12.2041  12.6114
    12.7882  13.0879  13.1860  15.3892  15.6928  15.7369  15.8672  16.1525
    16.3896  16.7721

     occupation numbers 
     1.0000   1.0000   1.0000   1.0000   1.0000   1.0000   1.0000   1.0000
     1.0000   1.0000   1.0000   1.0000   1.0000   1.0000   1.0000   1.0000
     1.0000   1.0000   1.0000   1.0000   1.0000   1.0000   1.0000   1.0000
     1.0000   1.0000   1.0000   1.0000   1.0000   1.0000   1.0000   1.0000
     1.0000   1.0000   1.0000   1.0000   1.0000   1.0000   1.0000   1.0000
     1.0000   1.0000   1.0000   1.0000   1.0000   1.0000   1.0000   1.0000
     1.0000   1.0000   1.0000   1.0000   0.0000   0.0000   0.0000   0.0000
     0.0000   0.0000   0.0000   0.0000   0.0000   0.0000   0.0000   0.0000
     0.0000   0.0000

          k = 0.0852 0.3705-0.2323 ( 20414 PWs)   bands (ev):

  -102.6305 -65.3322 -65.2480 -65.1764 -60.3668 -60.3295 -59.6011 -34.0164
   -33.9504 -33.9179 -29.6603 -29.5594 -29.5396 -29.4987 -29.4597 -29.4171
    -8.7400  -8.1240  -7.9344  -7.5580  -7.4580  -7.3780  -7.1006  -6.8809
     1.6104   2.2578   2.3188   2.4733   3.5634   3.7485   3.9355   4.2780
     4.3639   4.7759   4.9937   5.2935   5.4503   5.8382   6.0192   6.2654
     6.6328   6.8037   7.0210   7.1361   7.2557   7.4675   7.6726   7.8287
     8.1402   8.2476   8.4230   8.7624  11.3227  11.9238  12.3894  12.5996
    12.8046  12.9466  13.3124  15.2928  15.6751  15.7979  15.9466  16.1138
    16.3698  16.7296

     occupation numbers 
     1.0000   1.0000   1.0000   1.0000   1.0000   1.0000   1.0000   1.0000
     1.0000   1.0000   1.0000   1.0000   1.0000   1.0000   1.0000   1.0000
     1.0000   1.0000   1.0000   1.0000   1.0000   1.0000   1.0000   1.0000
     1.0000   1.0000   1.0000   1.0000   1.0000   1.0000   1.0000   1.0000
     1.0000   1.0000   1.0000   1.0000   1.0000   1.0000   1.0000   1.0000
     1.0000   1.0000   1.0000   1.0000   1.0000   1.0000   1.0000   1.0000
     1.0000   1.0000   1.0000   1.0000   0.0000   0.0000   0.0000   0.0000
     0.0000   0.0000   0.0000   0.0000   0.0000   0.0000   0.0000   0.0000
     0.0000   0.0000

          k = 0.0841 0.3705-0.0867 ( 20380 PWs)   bands (ev):

  -102.6305 -65.3322 -65.2480 -65.1764 -60.3668 -60.3295 -59.6011 -34.0164
   -33.9504 -33.9180 -29.6612 -29.5603 -29.5345 -29.4974 -29.4621 -29.4191
    -8.8654  -8.0737  -7.7944  -7.7189  -7.4007  -7.3594  -7.0493  -6.8816
     1.6194   2.2125   2.3169   2.4319   3.6575   3.8790   3.9445   4.1675
     4.2623   4.5340   4.9867   5.3915   5.5275   5.8001   5.9117   6.1125
     6.8864   6.9502   7.0790   7.1831   7.2936   7.4384   7.7004   7.8308
     8.1822   8.2012   8.3042   8.7947  11.3257  11.9509  12.3358  12.6173
    12.8751  13.0315  13.3749  15.2437  15.5524  15.7678  15.9072  16.1699
    16.4041  16.6428

     occupation numbers 
     1.0000   1.0000   1.0000   1.0000   1.0000   1.0000   1.0000   1.0000
     1.0000   1.0000   1.0000   1.0000   1.0000   1.0000   1.0000   1.0000
     1.0000   1.0000   1.0000   1.0000   1.0000   1.0000   1.0000   1.0000
     1.0000   1.0000   1.0000   1.0000   1.0000   1.0000   1.0000   1.0000
     1.0000   1.0000   1.0000   1.0000   1.0000   1.0000   1.0000   1.0000
     1.0000   1.0000   1.0000   1.0000   1.0000   1.0000   1.0000   1.0000
     1.0000   1.0000   1.0000   1.0000   0.0000   0.0000   0.0000   0.0000
     0.0000   0.0000   0.0000   0.0000   0.0000   0.0000   0.0000   0.0000
     0.0000   0.0000

          k = 0.0827-0.3751 0.0763 ( 20379 PWs)   bands (ev):

  -102.6305 -65.3322 -65.2480 -65.1764 -60.3668 -60.3295 -59.6011 -34.0164
   -33.9504 -33.9180 -29.6611 -29.5603 -29.5345 -29.4974 -29.4621 -29.4191
    -8.8630  -8.1076  -7.8405  -7.6382  -7.4401  -7.3157  -7.0442  -6.8878
     1.6233   2.2121   2.3141   2.4189   3.7125   3.8133   3.8733   4.0837
     4.3553   4.5926   4.9403   5.3967   5.5663   5.8280   5.9643   6.0719
     6.7682   6.9018   6.9931   7.1910   7.4291   7.5597   7.7676   7.8791
     8.0472   8.2340   8.2929   8.7748  11.3589  11.8990  12.3427  12.6590
    12.9500  13.0642  13.3457  15.3006  15.4984  15.6895  15.8145  16.2437
    16.2853  16.7453

     occupation numbers 
     1.0000   1.0000   1.0000   1.0000   1.0000   1.0000   1.0000   1.0000
     1.0000   1.0000   1.0000   1.0000   1.0000   1.0000   1.0000   1.0000
     1.0000   1.0000   1.0000   1.0000   1.0000   1.0000   1.0000   1.0000
     1.0000   1.0000   1.0000   1.0000   1.0000   1.0000   1.0000   1.0000
     1.0000   1.0000   1.0000   1.0000   1.0000   1.0000   1.0000   1.0000
     1.0000   1.0000   1.0000   1.0000   1.0000   1.0000   1.0000   1.0000
     1.0000   1.0000   1.0000   1.0000   0.0000   0.0000   0.0000   0.0000
     0.0000   0.0000   0.0000   0.0000   0.0000   0.0000   0.0000   0.0000
     0.0000   0.0000

          k = 0.0816-0.3751 0.2219 ( 20415 PWs)   bands (ev):

  -102.6305 -65.3322 -65.2480 -65.1764 -60.3668 -60.3295 -59.6011 -34.0164
   -33.9504 -33.9179 -29.6603 -29.5594 -29.5396 -29.4987 -29.4596 -29.4172
    -8.7509  -8.1801  -7.8965  -7.5710  -7.4690  -7.3119  -7.0771  -6.9038
     1.6192   2.2531   2.3136   2.4368   3.5048   3.6983   3.9346   4.2151
     4.4838   4.6647   5.1284   5.3862   5.5249   5.8438   5.9041   6.1364
     6.6387   6.7588   7.0146   7.1655   7.2761   7.5525   7.7267   8.0250
     8.0751   8.2499   8.3127   8.7407  11.3514  11.8899  12.4458  12.6477
    12.9112  13.0053  13.2484  15.3881  15.5498  15.6259  15.7991  16.2220
    16.3853  16.6942

     occupation numbers 
     1.0000   1.0000   1.0000   1.0000   1.0000   1.0000   1.0000   1.0000
     1.0000   1.0000   1.0000   1.0000   1.0000   1.0000   1.0000   1.0000
     1.0000   1.0000   1.0000   1.0000   1.0000   1.0000   1.0000   1.0000
     1.0000   1.0000   1.0000   1.0000   1.0000   1.0000   1.0000   1.0000
     1.0000   1.0000   1.0000   1.0000   1.0000   1.0000   1.0000   1.0000
     1.0000   1.0000   1.0000   1.0000   1.0000   1.0000   1.0000   1.0000
     1.0000   1.0000   1.0000   1.0000   0.0000   0.0000   0.0000   0.0000
     0.0000   0.0000   0.0000   0.0000   0.0000   0.0000   0.0000   0.0000
     0.0000   0.0000

          k = 0.0805-0.3751 0.3674 ( 20422 PWs)   bands (ev):

  -102.6305 -65.3322 -65.2480 -65.1765 -60.3668 -60.3295 -59.6011 -34.0164
   -33.9504 -33.9179 -29.6597 -29.5585 -29.5444 -29.4999 -29.4565 -29.4160
    -8.5900  -8.2794  -7.8709  -7.6452  -7.4980  -7.2980  -7.0688  -6.9402
     1.6092   2.3052   2.3229   2.4626   3.4496   3.6437   3.8900   4.1041
     4.6784   4.9939   5.1837   5.4258   5.5790   5.7289   6.0339   6.1455
     6.3862   6.5424   6.9500   7.0712   7.2510   7.4241   7.7442   8.0773
     8.1841   8.2270   8.4904   8.6753  11.3930  11.9208  12.2414  12.6276
    12.8406  13.0628  13.1854  15.4059  15.6018  15.7127  15.7922  16.1608
    16.5536  16.6750

     occupation numbers 
     1.0000   1.0000   1.0000   1.0000   1.0000   1.0000   1.0000   1.0000
     1.0000   1.0000   1.0000   1.0000   1.0000   1.0000   1.0000   1.0000
     1.0000   1.0000   1.0000   1.0000   1.0000   1.0000   1.0000   1.0000
     1.0000   1.0000   1.0000   1.0000   1.0000   1.0000   1.0000   1.0000
     1.0000   1.0000   1.0000   1.0000   1.0000   1.0000   1.0000   1.0000
     1.0000   1.0000   1.0000   1.0000   1.0000   1.0000   1.0000   1.0000
     1.0000   1.0000   1.0000   1.0000   0.0000   0.0000   0.0000   0.0000
     0.0000   0.0000   0.0000   0.0000   0.0000   0.0000   0.0000   0.0000
     0.0000   0.0000

          k = 0.0859-0.3750-0.3604 ( 20416 PWs)   bands (ev):

  -102.6305 -65.3322 -65.2480 -65.1765 -60.3668 -60.3295 -59.6011 -34.0164
   -33.9504 -33.9179 -29.6602 -29.5585 -29.5442 -29.4996 -29.4563 -29.4163
    -8.6143  -8.2020  -7.8720  -7.6836  -7.5094  -7.3035  -7.0970  -6.9160
     1.6038   2.3067   2.3306   2.4871   3.4399   3.7008   3.9138   4.0650
     4.6066   5.0426   5.2764   5.3198   5.6004   5.7925   5.9092   6.1544
     6.4238   6.7314   6.8014   6.9977   7.2372   7.4616   7.7273   7.9557
     8.1952   8.3117   8.4899   8.6908  11.4126  11.9242  12.1593  12.6224
    12.7733  13.0892  13.1927  15.3513  15.6962  15.7553  15.8679  16.0917
    16.4896  16.8070

     occupation numbers 
     1.0000   1.0000   1.0000   1.0000   1.0000   1.0000   1.0000   1.0000
     1.0000   1.0000   1.0000   1.0000   1.0000   1.0000   1.0000   1.0000
     1.0000   1.0000   1.0000   1.0000   1.0000   1.0000   1.0000   1.0000
     1.0000   1.0000   1.0000   1.0000   1.0000   1.0000   1.0000   1.0000
     1.0000   1.0000   1.0000   1.0000   1.0000   1.0000   1.0000   1.0000
     1.0000   1.0000   1.0000   1.0000   1.0000   1.0000   1.0000   1.0000
     1.0000   1.0000   1.0000   1.0000   0.0000   0.0000   0.0000   0.0000
     0.0000   0.0000   0.0000   0.0000   0.0000   0.0000   0.0000   0.0000
     0.0000   0.0000

          k = 0.0849-0.3750-0.2148 ( 20402 PWs)   bands (ev):

  -102.6305 -65.3322 -65.2480 -65.1764 -60.3668 -60.3295 -59.6011 -34.0164
   -33.9504 -33.9179 -29.6612 -29.5594 -29.5392 -29.4982 -29.4590 -29.4179
    -8.7679  -8.0231  -7.9383  -7.6308  -7.4834  -7.3748  -7.0750  -6.8818
     1.6089   2.2663   2.3185   2.4779   3.5253   3.7209   3.9460   4.2917
     4.4066   4.8057   4.9686   5.3017   5.5606   5.7803   5.9845   6.2017
     6.6451   6.7945   6.9696   7.1430   7.2702   7.5284   7.6673   7.8290
     8.1023   8.2490   8.4466   8.7641  11.3311  11.9592  12.3540  12.5705
    12.7627  13.0035  13.3094  15.2761  15.6742  15.8003  15.9392  16.0731
    16.5159  16.7115

     occupation numbers 
     1.0000   1.0000   1.0000   1.0000   1.0000   1.0000   1.0000   1.0000
     1.0000   1.0000   1.0000   1.0000   1.0000   1.0000   1.0000   1.0000
     1.0000   1.0000   1.0000   1.0000   1.0000   1.0000   1.0000   1.0000
     1.0000   1.0000   1.0000   1.0000   1.0000   1.0000   1.0000   1.0000
     1.0000   1.0000   1.0000   1.0000   1.0000   1.0000   1.0000   1.0000
     1.0000   1.0000   1.0000   1.0000   1.0000   1.0000   1.0000   1.0000
     1.0000   1.0000   1.0000   1.0000   0.0000   0.0000   0.0000   0.0000
     0.0000   0.0000   0.0000   0.0000   0.0000   0.0000   0.0000   0.0000
     0.0000   0.0000

          k = 0.0838-0.3750-0.0693 ( 20388 PWs)   bands (ev):

  -102.6305 -65.3322 -65.2480 -65.1764 -60.3668 -60.3295 -59.6011 -34.0164
   -33.9504 -33.9180 -29.6616 -29.5603 -29.5343 -29.4971 -29.4617 -29.4195
    -8.8679  -8.0558  -7.7976  -7.7081  -7.4460  -7.3545  -7.0336  -6.8809
     1.6184   2.2189   2.3157   2.4358   3.7273   3.7641   3.9291   4.2021
     4.3433   4.4533   5.0513   5.3819   5.5327   5.7809   5.8624   6.1276
     6.8409   6.9569   7.0817   7.2234   7.2756   7.4494   7.7214   7.8594
     8.0928   8.2189   8.3448   8.7905  11.3282  11.9556  12.3706  12.5535
    12.8783  13.0390  13.3812  15.2465  15.5617  15.7677  15.8766  16.1907
    16.4436  16.6423

     occupation numbers 
     1.0000   1.0000   1.0000   1.0000   1.0000   1.0000   1.0000   1.0000
     1.0000   1.0000   1.0000   1.0000   1.0000   1.0000   1.0000   1.0000
     1.0000   1.0000   1.0000   1.0000   1.0000   1.0000   1.0000   1.0000
     1.0000   1.0000   1.0000   1.0000   1.0000   1.0000   1.0000   1.0000
     1.0000   1.0000   1.0000   1.0000   1.0000   1.0000   1.0000   1.0000
     1.0000   1.0000   1.0000   1.0000   1.0000   1.0000   1.0000   1.0000
     1.0000   1.0000   1.0000   1.0000   0.0000   0.0000   0.0000   0.0000
     0.0000   0.0000   0.0000   0.0000   0.0000   0.0000   0.0000   0.0000
     0.0000   0.0000

          k = 0.0827-0.2259 0.0728 ( 20385 PWs)   bands (ev):

  -102.6305 -65.3324 -65.2480 -65.1764 -60.3668 -60.3295 -59.6011 -34.0164
   -33.9504 -33.9180 -29.6616 -29.5604 -29.5354 -29.4966 -29.4619 -29.4184
    -9.0041  -8.0354  -7.8190  -7.6115  -7.3750  -7.2339  -7.0750  -6.9430
     1.6081   2.1707   2.3012   2.3891   3.5248   3.7515   3.9268   3.9802
     4.2624   4.6116   4.9221   5.3509   5.6682   5.8794   6.0392   6.1434
     6.6791   6.8239   6.8931   7.2139   7.3613   7.5746   7.9298   8.0401
     8.2568   8.3744   8.4356   8.8797  11.3312  11.9374  12.2405  12.5405
    12.9208  13.2158  13.3964  15.2738  15.4390  15.5101  15.7183  16.1386
    16.2352  16.6238

     occupation numbers 
     1.0000   1.0000   1.0000   1.0000   1.0000   1.0000   1.0000   1.0000
     1.0000   1.0000   1.0000   1.0000   1.0000   1.0000   1.0000   1.0000
     1.0000   1.0000   1.0000   1.0000   1.0000   1.0000   1.0000   1.0000
     1.0000   1.0000   1.0000   1.0000   1.0000   1.0000   1.0000   1.0000
     1.0000   1.0000   1.0000   1.0000   1.0000   1.0000   1.0000   1.0000
     1.0000   1.0000   1.0000   1.0000   1.0000   1.0000   1.0000   1.0000
     1.0000   1.0000   1.0000   1.0000   0.0000   0.0000   0.0000   0.0000
     0.0000   0.0000   0.0000   0.0000   0.0000   0.0000   0.0000   0.0000
     0.0000   0.0000

          k = 0.0817-0.2260 0.2184 ( 20411 PWs)   bands (ev):

  -102.6305 -65.3323 -65.2480 -65.1764 -60.3668 -60.3295 -59.6011 -34.0164
   -33.9504 -33.9180 -29.6598 -29.5592 -29.5397 -29.4988 -29.4601 -29.4169
    -8.8609  -8.1469  -7.9053  -7.6288  -7.3416  -7.1954  -7.0968  -6.9419
     1.6042   2.2263   2.2834   2.3855   3.5481   3.6938   3.8405   4.1467
     4.3874   4.4339   5.1441   5.3004   5.3988   5.9001   6.1486   6.3014
     6.6273   6.7129   6.9428   7.0861   7.3008   7.6444   7.8756   8.0136
     8.2392   8.4555   8.5267   8.8186  11.3277  11.8872  12.4040  12.6305
    12.9015  13.0661  13.2555  15.3003  15.4615  15.5954  15.7653  16.0389
    16.2613  16.6474

     occupation numbers 
     1.0000   1.0000   1.0000   1.0000   1.0000   1.0000   1.0000   1.0000
     1.0000   1.0000   1.0000   1.0000   1.0000   1.0000   1.0000   1.0000
     1.0000   1.0000   1.0000   1.0000   1.0000   1.0000   1.0000   1.0000
     1.0000   1.0000   1.0000   1.0000   1.0000   1.0000   1.0000   1.0000
     1.0000   1.0000   1.0000   1.0000   1.0000   1.0000   1.0000   1.0000
     1.0000   1.0000   1.0000   1.0000   1.0000   1.0000   1.0000   1.0000
     1.0000   1.0000   1.0000   1.0000   0.0000   0.0000   0.0000   0.0000
     0.0000   0.0000   0.0000   0.0000   0.0000   0.0000   0.0000   0.0000
     0.0000   0.0000

          k = 0.0806-0.2260 0.3639 ( 20412 PWs)   bands (ev):

  -102.6305 -65.3323 -65.2480 -65.1764 -60.3668 -60.3295 -59.6011 -34.0164
   -33.9504 -33.9179 -29.6588 -29.5581 -29.5438 -29.5005 -29.4574 -29.4164
    -8.6303  -8.3475  -7.9025  -7.6905  -7.3847  -7.1589  -7.0751  -6.9561
     1.5930   2.2773   2.2926   2.3932   3.4377   3.6377   3.9139   4.1387
     4.5048   4.6940   5.0944   5.3407   5.5281   5.8338   6.0033   6.2373
     6.4142   6.5056   7.0071   7.1964   7.3184   7.5459   7.8536   8.1571
     8.2793   8.4378   8.6111   8.7250  11.3574  11.9442  12.3261  12.6514
    12.8744  12.9982  13.1045  15.2967  15.5241  15.7325  15.7710  15.9864
    16.5990  16.6687

     occupation numbers 
     1.0000   1.0000   1.0000   1.0000   1.0000   1.0000   1.0000   1.0000
     1.0000   1.0000   1.0000   1.0000   1.0000   1.0000   1.0000   1.0000
     1.0000   1.0000   1.0000   1.0000   1.0000   1.0000   1.0000   1.0000
     1.0000   1.0000   1.0000   1.0000   1.0000   1.0000   1.0000   1.0000
     1.0000   1.0000   1.0000   1.0000   1.0000   1.0000   1.0000   1.0000
     1.0000   1.0000   1.0000   1.0000   1.0000   1.0000   1.0000   1.0000
     1.0000   1.0000   1.0000   1.0000   0.0000   0.0000   0.0000   0.0000
     0.0000   0.0000   0.0000   0.0000   0.0000   0.0000   0.0000   0.0000
     0.0000   0.0000

          k = 0.0860-0.2259-0.3638 ( 20430 PWs)   bands (ev):

  -102.6305 -65.3323 -65.2479 -65.1764 -60.3668 -60.3295 -59.6011 -34.0164
   -33.9504 -33.9179 -29.6597 -29.5582 -29.5434 -29.4998 -29.4569 -29.4171
    -8.6828  -8.2407  -7.8995  -7.7041  -7.4361  -7.1449  -7.1112  -6.9341
     1.5867   2.2835   2.3001   2.4122   3.4336   3.5778   3.9515   4.1655
     4.4480   4.8039   5.2275   5.2946   5.6387   5.7752   5.9551   6.0743
     6.3415   6.6567   6.9294   7.2049   7.2869   7.5830   7.7569   8.1381
     8.3213   8.4536   8.6030   8.7373  11.3851  11.9424  12.2863  12.6342
    12.8303  12.9712  13.1157  15.2876  15.6463  15.7287  15.8436  15.9717
    16.6544  16.7822

     occupation numbers 
     1.0000   1.0000   1.0000   1.0000   1.0000   1.0000   1.0000   1.0000
     1.0000   1.0000   1.0000   1.0000   1.0000   1.0000   1.0000   1.0000
     1.0000   1.0000   1.0000   1.0000   1.0000   1.0000   1.0000   1.0000
     1.0000   1.0000   1.0000   1.0000   1.0000   1.0000   1.0000   1.0000
     1.0000   1.0000   1.0000   1.0000   1.0000   1.0000   1.0000   1.0000
     1.0000   1.0000   1.0000   1.0000   1.0000   1.0000   1.0000   1.0000
     1.0000   1.0000   1.0000   1.0000   0.0000   0.0000   0.0000   0.0000
     0.0000   0.0000   0.0000   0.0000   0.0000   0.0000   0.0000   0.0000
     0.0000   0.0000

          k = 0.0849-0.2259-0.2183 ( 20427 PWs)   bands (ev):

  -102.6305 -65.3323 -65.2479 -65.1764 -60.3668 -60.3295 -59.6011 -34.0164
   -33.9504 -33.9179 -29.6616 -29.5593 -29.5389 -29.4977 -29.4588 -29.4184
    -8.8938  -7.9497  -7.9323  -7.6626  -7.4469  -7.2668  -7.0613  -6.9198
     1.5920   2.2345   2.3008   2.4227   3.4715   3.5781   3.9593   4.2496
     4.2953   4.7096   5.0512   5.3665   5.5966   5.8728   5.9610   6.1727
     6.5211   6.7982   6.9192   7.0861   7.3200   7.4834   7.8006   8.0314
     8.3008   8.4295   8.5675   8.8360  11.3531  11.9261  12.4089  12.4809
    12.8193  13.0249  13.2608  15.2911  15.6062  15.7303  15.8323  16.0906
    16.4865  16.7326

     occupation numbers 
     1.0000   1.0000   1.0000   1.0000   1.0000   1.0000   1.0000   1.0000
     1.0000   1.0000   1.0000   1.0000   1.0000   1.0000   1.0000   1.0000
     1.0000   1.0000   1.0000   1.0000   1.0000   1.0000   1.0000   1.0000
     1.0000   1.0000   1.0000   1.0000   1.0000   1.0000   1.0000   1.0000
     1.0000   1.0000   1.0000   1.0000   1.0000   1.0000   1.0000   1.0000
     1.0000   1.0000   1.0000   1.0000   1.0000   1.0000   1.0000   1.0000
     1.0000   1.0000   1.0000   1.0000   0.0000   0.0000   0.0000   0.0000
     0.0000   0.0000   0.0000   0.0000   0.0000   0.0000   0.0000   0.0000
     0.0000   0.0000

          k = 0.0838-0.2259-0.0727 ( 20411 PWs)   bands (ev):

  -102.6305 -65.3324 -65.2480 -65.1764 -60.3668 -60.3295 -59.6011 -34.0164
   -33.9504 -33.9179 -29.6625 -29.5604 -29.5348 -29.4962 -29.4611 -29.4192
    -9.0143  -7.9878  -7.7148  -7.6928  -7.4222  -7.2963  -7.0403  -6.9362
     1.6022   2.1745   2.3092   2.4069   3.4596   3.6843   3.9309   4.1713
     4.3118   4.5031   5.1069   5.3147   5.7124   5.7913   5.9467   6.2180
     6.5040   6.8598   7.0248   7.1586   7.2935   7.5248   7.9141   8.0415
     8.2989   8.3431   8.4704   8.8862  11.3321  11.9875  12.3038  12.3738
    12.9095  13.1555  13.4098  15.3135  15.4545  15.5884  15.7601  16.1907
    16.3617  16.6135

     occupation numbers 
     1.0000   1.0000   1.0000   1.0000   1.0000   1.0000   1.0000   1.0000
     1.0000   1.0000   1.0000   1.0000   1.0000   1.0000   1.0000   1.0000
     1.0000   1.0000   1.0000   1.0000   1.0000   1.0000   1.0000   1.0000
     1.0000   1.0000   1.0000   1.0000   1.0000   1.0000   1.0000   1.0000
     1.0000   1.0000   1.0000   1.0000   1.0000   1.0000   1.0000   1.0000
     1.0000   1.0000   1.0000   1.0000   1.0000   1.0000   1.0000   1.0000
     1.0000   1.0000   1.0000   1.0000   0.0000   0.0000   0.0000   0.0000
     0.0000   0.0000   0.0000   0.0000   0.0000   0.0000   0.0000   0.0000
     0.0000   0.0000

          k = 0.0828-0.0768 0.0693 ( 20395 PWs)   bands (ev):

  -102.6305 -65.3325 -65.2480 -65.1764 -60.3668 -60.3295 -59.6011 -34.0164
   -33.9505 -33.9180 -29.6626 -29.5605 -29.5359 -29.4957 -29.4613 -29.4181
    -9.1225  -8.0472  -7.7235  -7.5468  -7.2981  -7.1809  -7.1297  -7.0067
     1.6029   2.1151   2.2892   2.3409   3.3143   3.6866   3.8690   4.0278
     4.1944   4.7282   4.9491   5.3501   5.5913   5.7493   6.2062   6.3855
     6.5762   6.7789   6.9277   7.1274   7.2559   7.4964   7.9357   8.2546
     8.4167   8.5439   8.6676   9.0116  11.3010  11.9905  12.2085  12.4179
    12.8827  13.3191  13.4501  14.9676  15.3700  15.5139  15.6496  16.0414
    16.1975  16.6439

     occupation numbers 
     1.0000   1.0000   1.0000   1.0000   1.0000   1.0000   1.0000   1.0000
     1.0000   1.0000   1.0000   1.0000   1.0000   1.0000   1.0000   1.0000
     1.0000   1.0000   1.0000   1.0000   1.0000   1.0000   1.0000   1.0000
     1.0000   1.0000   1.0000   1.0000   1.0000   1.0000   1.0000   1.0000
     1.0000   1.0000   1.0000   1.0000   1.0000   1.0000   1.0000   1.0000
     1.0000   1.0000   1.0000   1.0000   1.0000   1.0000   1.0000   1.0000
     1.0000   1.0000   1.0000   1.0000   0.0000   0.0000   0.0000   0.0000
     0.0000   0.0000   0.0000   0.0000   0.0000   0.0000   0.0000   0.0000
     0.0000   0.0000

          k = 0.0817-0.0769 0.2149 ( 20413 PWs)   bands (ev):

  -102.6305 -65.3325 -65.2480 -65.1764 -60.3668 -60.3295 -59.6011 -34.0164
   -33.9504 -33.9180 -29.6603 -29.5591 -29.5395 -29.4982 -29.4599 -29.4174
    -8.9744  -8.1151  -7.8875  -7.6105  -7.2772  -7.1605  -7.0670  -6.9814
     1.5985   2.1782   2.2560   2.3189   3.4567   3.6774   3.7657   4.1484
     4.3541   4.4300   5.0109   5.2290   5.4586   5.9617   6.1892   6.4265
     6.5168   6.6782   6.8758   7.1072   7.3116   7.6819   7.9205   8.1751
     8.4258   8.6225   8.6949   8.9392  11.2958  11.9384  12.3504  12.5648
    12.8982  13.1154  13.2854  15.1042  15.3775  15.5634  15.7078  15.9383
    16.1510  16.6046

     occupation numbers 
     1.0000   1.0000   1.0000   1.0000   1.0000   1.0000   1.0000   1.0000
     1.0000   1.0000   1.0000   1.0000   1.0000   1.0000   1.0000   1.0000
     1.0000   1.0000   1.0000   1.0000   1.0000   1.0000   1.0000   1.0000
     1.0000   1.0000   1.0000   1.0000   1.0000   1.0000   1.0000   1.0000
     1.0000   1.0000   1.0000   1.0000   1.0000   1.0000   1.0000   1.0000
     1.0000   1.0000   1.0000   1.0000   1.0000   1.0000   1.0000   1.0000
     1.0000   1.0000   1.0000   1.0000   0.0000   0.0000   0.0000   0.0000
     0.0000   0.0000   0.0000   0.0000   0.0000   0.0000   0.0000   0.0000
     0.0000   0.0000

          k = 0.0806-0.0769 0.3604 ( 20415 PWs)   bands (ev):

  -102.6305 -65.3324 -65.2479 -65.1764 -60.3668 -60.3295 -59.6011 -34.0164
   -33.9504 -33.9179 -29.6583 -29.5577 -29.5429 -29.5007 -29.4581 -29.4172
    -8.7145  -8.3610  -7.9142  -7.6863  -7.3045  -7.1574  -7.0085  -6.9525
     1.5851   2.2200   2.2666   2.3107   3.4065   3.5415   4.0251   4.1961
     4.4712   4.5795   4.9421   5.1777   5.5018   5.8853   6.0469   6.1933
     6.3137   6.4355   7.1088   7.3282   7.4002   7.7006   8.0298   8.1878
     8.3687   8.5768   8.7305   8.8518  11.3343  12.0709  12.3582  12.6107
    12.7874  12.9924  13.0920  15.1530  15.4139  15.7210  15.7826  15.9009
    16.4938  16.5784

     occupation numbers 
     1.0000   1.0000   1.0000   1.0000   1.0000   1.0000   1.0000   1.0000
     1.0000   1.0000   1.0000   1.0000   1.0000   1.0000   1.0000   1.0000
     1.0000   1.0000   1.0000   1.0000   1.0000   1.0000   1.0000   1.0000
     1.0000   1.0000   1.0000   1.0000   1.0000   1.0000   1.0000   1.0000
     1.0000   1.0000   1.0000   1.0000   1.0000   1.0000   1.0000   1.0000
     1.0000   1.0000   1.0000   1.0000   1.0000   1.0000   1.0000   1.0000
     1.0000   1.0000   1.0000   1.0000   0.0000   0.0000   0.0000   0.0000
     0.0000   0.0000   0.0000   0.0000   0.0000   0.0000   0.0000   0.0000
     0.0000   0.0000

          k = 0.0861-0.0768-0.3673 ( 20418 PWs)   bands (ev):

  -102.6305 -65.3324 -65.2479 -65.1764 -60.3668 -60.3295 -59.6011 -34.0164
   -33.9504 -33.9179 -29.6588 -29.5578 -29.5427 -29.5004 -29.4578 -29.4176
    -8.7276  -8.3206  -7.9130  -7.6867  -7.3363  -7.1646  -7.0051  -6.9529
     1.5777   2.2372   2.2618   2.3284   3.3991   3.4831   4.0086   4.3175
     4.3839   4.6717   5.1163   5.2628   5.4167   5.8293   5.9427   6.1102
     6.3018   6.4924   7.0690   7.2822   7.4386   7.6991   7.9648   8.2675
     8.3562   8.5119   8.7222   8.8607  11.3819  12.0580  12.3758  12.5782
    12.8235  12.9693  13.0054  15.2158  15.5116  15.6475  15.8207  15.9967
    16.5318  16.7065

     occupation numbers 
     1.0000   1.0000   1.0000   1.0000   1.0000   1.0000   1.0000   1.0000
     1.0000   1.0000   1.0000   1.0000   1.0000   1.0000   1.0000   1.0000
     1.0000   1.0000   1.0000   1.0000   1.0000   1.0000   1.0000   1.0000
     1.0000   1.0000   1.0000   1.0000   1.0000   1.0000   1.0000   1.0000
     1.0000   1.0000   1.0000   1.0000   1.0000   1.0000   1.0000   1.0000
     1.0000   1.0000   1.0000   1.0000   1.0000   1.0000   1.0000   1.0000
     1.0000   1.0000   1.0000   1.0000   0.0000   0.0000   0.0000   0.0000
     0.0000   0.0000   0.0000   0.0000   0.0000   0.0000   0.0000   0.0000
     0.0000   0.0000

          k = 0.0850-0.0768-0.2218 ( 20422 PWs)   bands (ev):

  -102.6305 -65.3325 -65.2479 -65.1764 -60.3668 -60.3295 -59.6011 -34.0164
   -33.9504 -33.9179 -29.6612 -29.5592 -29.5390 -29.4977 -29.4593 -29.4182
    -8.9790  -8.0305  -7.9013  -7.6008  -7.3531  -7.2200  -7.0265  -6.9782
     1.5844   2.1858   2.2786   2.3510   3.3469   3.5280   3.9548   4.2334
     4.3425   4.6095   5.0228   5.4089   5.5354   5.8173   6.0428   6.3139
     6.4875   6.6834   6.8414   7.0037   7.3455   7.6608   7.8916   8.1877
     8.4399   8.5228   8.7219   8.9371  11.3936  11.9218  12.3959  12.4965
    12.8498  13.0075  13.2517  15.2770  15.4675  15.6089  15.7900  16.0811
    16.3235  16.6332

     occupation numbers 
     1.0000   1.0000   1.0000   1.0000   1.0000   1.0000   1.0000   1.0000
     1.0000   1.0000   1.0000   1.0000   1.0000   1.0000   1.0000   1.0000
     1.0000   1.0000   1.0000   1.0000   1.0000   1.0000   1.0000   1.0000
     1.0000   1.0000   1.0000   1.0000   1.0000   1.0000   1.0000   1.0000
     1.0000   1.0000   1.0000   1.0000   1.0000   1.0000   1.0000   1.0000
     1.0000   1.0000   1.0000   1.0000   1.0000   1.0000   1.0000   1.0000
     1.0000   1.0000   1.0000   1.0000   0.0000   0.0000   0.0000   0.0000
     0.0000   0.0000   0.0000   0.0000   0.0000   0.0000   0.0000   0.0000
     0.0000   0.0000

          k = 0.0839-0.0768-0.0762 ( 20419 PWs)   bands (ev):

  -102.6305 -65.3325 -65.2479 -65.1764 -60.3668 -60.3295 -59.6011 -34.0164
   -33.9505 -33.9179 -29.6630 -29.5605 -29.5357 -29.4955 -29.4609 -29.4185
    -9.1234  -8.0226  -7.6912  -7.5428  -7.3451  -7.2639  -7.0729  -7.0014
     1.5963   2.1175   2.3026   2.3573   3.2539   3.6303   3.8491   4.1774
     4.3067   4.6578   5.0288   5.2579   5.7372   5.8083   6.1413   6.3114
     6.4749   6.6800   6.9992   7.1021   7.2462   7.4881   7.9477   8.1943
     8.4699   8.5045   8.6839   9.0060  11.3476  12.0163  12.2318  12.3223
    12.8626  13.2523  13.4528  15.0818  15.4352  15.5250  15.6925  16.0867
    16.3208  16.6191

     occupation numbers 
     1.0000   1.0000   1.0000   1.0000   1.0000   1.0000   1.0000   1.0000
     1.0000   1.0000   1.0000   1.0000   1.0000   1.0000   1.0000   1.0000
     1.0000   1.0000   1.0000   1.0000   1.0000   1.0000   1.0000   1.0000
     1.0000   1.0000   1.0000   1.0000   1.0000   1.0000   1.0000   1.0000
     1.0000   1.0000   1.0000   1.0000   1.0000   1.0000   1.0000   1.0000
     1.0000   1.0000   1.0000   1.0000   1.0000   1.0000   1.0000   1.0000
     1.0000   1.0000   1.0000   1.0000   0.0000   0.0000   0.0000   0.0000
     0.0000   0.0000   0.0000   0.0000   0.0000   0.0000   0.0000   0.0000
     0.0000   0.0000

          k = 0.2496 0.0677 0.0554 ( 20367 PWs)   bands (ev):

  -102.6305 -65.3324 -65.2479 -65.1764 -60.3668 -60.3295 -59.6011 -34.0164
   -33.9504 -33.9180 -29.6633 -29.5609 -29.5356 -29.4959 -29.4610 -29.4186
    -9.0204  -8.0467  -7.6951  -7.5450  -7.3781  -7.2485  -7.1022  -7.0568
     1.5905   2.1991   2.2974   2.3987   3.4271   3.6937   3.8450   4.0184
     4.1480   4.8466   5.0093   5.1022   5.3087   5.6693   6.2475   6.5189
     6.6654   6.8372   6.9210   7.2032   7.3792   7.6763   7.7924   8.1023
     8.1934   8.5628   8.7472   9.0141  11.2443  11.9549  12.2889  12.3802
    12.9150  13.2185  13.6086  15.0986  15.4003  15.5787  15.6976  15.9887
    16.3244  16.6939

     occupation numbers 
     1.0000   1.0000   1.0000   1.0000   1.0000   1.0000   1.0000   1.0000
     1.0000   1.0000   1.0000   1.0000   1.0000   1.0000   1.0000   1.0000
     1.0000   1.0000   1.0000   1.0000   1.0000   1.0000   1.0000   1.0000
     1.0000   1.0000   1.0000   1.0000   1.0000   1.0000   1.0000   1.0000
     1.0000   1.0000   1.0000   1.0000   1.0000   1.0000   1.0000   1.0000
     1.0000   1.0000   1.0000   1.0000   1.0000   1.0000   1.0000   1.0000
     1.0000   1.0000   1.0000   1.0000   0.0000   0.0000   0.0000   0.0000
     0.0000   0.0000   0.0000   0.0000   0.0000   0.0000   0.0000   0.0000
     0.0000   0.0000

          k = 0.2485 0.0677 0.2010 ( 20380 PWs)   bands (ev):

  -102.6305 -65.3323 -65.2481 -65.1764 -60.3668 -60.3295 -59.6011 -34.0164
   -33.9504 -33.9180 -29.6614 -29.5595 -29.5389 -29.4981 -29.4593 -29.4183
    -8.9020  -8.0742  -7.8792  -7.5882  -7.3769  -7.2767  -7.0235  -6.9733
     1.5972   2.2180   2.2880   2.3720   3.4322   3.7474   3.8762   4.1267
     4.1819   4.4744   4.7661   4.9259   5.6277   6.0796   6.3778   6.4443
     6.5864   6.7034   6.8281   6.9951   7.3694   7.6562   8.0206   8.2766
     8.3193   8.4969   8.7768   8.9595  11.1492  11.9185  12.3822  12.5873
    12.9382  13.1624  13.4386  15.0621  15.3359  15.6457  15.7317  15.8336
    16.3752  16.5213

     occupation numbers 
     1.0000   1.0000   1.0000   1.0000   1.0000   1.0000   1.0000   1.0000
     1.0000   1.0000   1.0000   1.0000   1.0000   1.0000   1.0000   1.0000
     1.0000   1.0000   1.0000   1.0000   1.0000   1.0000   1.0000   1.0000
     1.0000   1.0000   1.0000   1.0000   1.0000   1.0000   1.0000   1.0000
     1.0000   1.0000   1.0000   1.0000   1.0000   1.0000   1.0000   1.0000
     1.0000   1.0000   1.0000   1.0000   1.0000   1.0000   1.0000   1.0000
     1.0000   1.0000   1.0000   1.0000   0.0000   0.0000   0.0000   0.0000
     0.0000   0.0000   0.0000   0.0000   0.0000   0.0000   0.0000   0.0000
     0.0000   0.0000

          k = 0.2474 0.0677 0.3465 ( 20406 PWs)   bands (ev):

  -102.6305 -65.3322 -65.2483 -65.1764 -60.3668 -60.3295 -59.6011 -34.0164
   -33.9504 -33.9180 -29.6590 -29.5580 -29.5426 -29.5007 -29.4578 -29.4176
    -8.6763  -8.2308  -7.9875  -7.6546  -7.3970  -7.2705  -6.9853  -6.9082
     1.5910   2.2317   2.3179   2.3701   3.3435   3.6375   3.9538   4.1080
     4.3211   4.6619   4.8458   5.0504   5.7695   5.8669   6.0280   6.2398
     6.2772   6.5463   7.0289   7.2481   7.4607   7.6381   8.1590   8.2756
     8.3767   8.5492   8.7627   8.8598  11.1198  12.0731  12.3928  12.6804
    12.8898  13.0438  13.1899  15.2406  15.3671  15.6597  15.7226  16.0081
    16.3237  16.7383

     occupation numbers 
     1.0000   1.0000   1.0000   1.0000   1.0000   1.0000   1.0000   1.0000
     1.0000   1.0000   1.0000   1.0000   1.0000   1.0000   1.0000   1.0000
     1.0000   1.0000   1.0000   1.0000   1.0000   1.0000   1.0000   1.0000
     1.0000   1.0000   1.0000   1.0000   1.0000   1.0000   1.0000   1.0000
     1.0000   1.0000   1.0000   1.0000   1.0000   1.0000   1.0000   1.0000
     1.0000   1.0000   1.0000   1.0000   1.0000   1.0000   1.0000   1.0000
     1.0000   1.0000   1.0000   1.0000   0.0000   0.0000   0.0000   0.0000
     0.0000   0.0000   0.0000   0.0000   0.0000   0.0000   0.0000   0.0000
     0.0000   0.0000

          k = 0.2529 0.0678-0.3812 ( 20416 PWs)   bands (ev):

  -102.6305 -65.3322 -65.2482 -65.1764 -60.3668 -60.3295 -59.6011 -34.0164
   -33.9504 -33.9179 -29.6585 -29.5580 -29.5429 -29.5010 -29.4582 -29.4172
    -8.6123  -8.2871  -7.9582  -7.6898  -7.3976  -7.2657  -7.0130  -6.9019
     1.5775   2.2550   2.3385   2.3750   3.3570   3.5107   3.9191   4.2190
     4.4537   4.7755   4.9892   5.2649   5.5222   5.7280   5.8703   6.0831
     6.3515   6.5074   7.0986   7.2591   7.5000   7.6660   8.0322   8.1809
     8.3624   8.5931   8.7562   8.8391  11.1696  12.0902  12.4643  12.6820
    12.8373  12.9960  13.0645  15.4659  15.5135  15.6209  15.7517  16.1952
    16.2859  16.8663

     occupation numbers 
     1.0000   1.0000   1.0000   1.0000   1.0000   1.0000   1.0000   1.0000
     1.0000   1.0000   1.0000   1.0000   1.0000   1.0000   1.0000   1.0000
     1.0000   1.0000   1.0000   1.0000   1.0000   1.0000   1.0000   1.0000
     1.0000   1.0000   1.0000   1.0000   1.0000   1.0000   1.0000   1.0000
     1.0000   1.0000   1.0000   1.0000   1.0000   1.0000   1.0000   1.0000
     1.0000   1.0000   1.0000   1.0000   1.0000   1.0000   1.0000   1.0000
     1.0000   1.0000   1.0000   1.0000   0.0000   0.0000   0.0000   0.0000
     0.0000   0.0000   0.0000   0.0000   0.0000   0.0000   0.0000   0.0000
     0.0000   0.0000

          k = 0.2518 0.0678-0.2357 ( 20435 PWs)   bands (ev):

  -102.6305 -65.3323 -65.2480 -65.1764 -60.3668 -60.3295 -59.6011 -34.0164
   -33.9504 -33.9179 -29.6606 -29.5595 -29.5395 -29.4986 -29.4602 -29.4174
    -8.8481  -8.0125  -7.9296  -7.6475  -7.3772  -7.2785  -7.0792  -6.9518
     1.5707   2.2531   2.3221   2.4078   3.3137   3.5052   4.1357   4.2852
     4.3882   4.5922   4.8277   5.3678   5.5673   5.6274   5.9989   6.2283
     6.5961   6.7041   6.8179   7.0461   7.5881   7.6614   7.8656   8.0976
     8.2444   8.5175   8.8570   8.8798  11.2708  11.9273  12.4579  12.6141
    12.8532  12.8978  13.3391  15.4221  15.5845  15.7126  15.8233  16.2168
    16.3982  16.6702

     occupation numbers 
     1.0000   1.0000   1.0000   1.0000   1.0000   1.0000   1.0000   1.0000
     1.0000   1.0000   1.0000   1.0000   1.0000   1.0000   1.0000   1.0000
     1.0000   1.0000   1.0000   1.0000   1.0000   1.0000   1.0000   1.0000
     1.0000   1.0000   1.0000   1.0000   1.0000   1.0000   1.0000   1.0000
     1.0000   1.0000   1.0000   1.0000   1.0000   1.0000   1.0000   1.0000
     1.0000   1.0000   1.0000   1.0000   1.0000   1.0000   1.0000   1.0000
     1.0000   1.0000   1.0000   1.0000   0.0000   0.0000   0.0000   0.0000
     0.0000   0.0000   0.0000   0.0000   0.0000   0.0000   0.0000   0.0000
     0.0000   0.0000

          k = 0.2507 0.0677-0.0901 ( 20409 PWs)   bands (ev):

  -102.6305 -65.3324 -65.2479 -65.1764 -60.3668 -60.3295 -59.6011 -34.0164
   -33.9504 -33.9179 -29.6629 -29.5610 -29.5359 -29.4960 -29.4615 -29.4182
    -9.0009  -8.0105  -7.7102  -7.5822  -7.3858  -7.2358  -7.1555  -7.0269
     1.5775   2.2104   2.3174   2.4238   3.3074   3.5865   3.9812   4.1005
     4.3864   4.7777   4.9884   5.2111   5.5133   5.7114   5.8084   6.3116
     6.6429   6.8521   7.0083   7.2003   7.3647   7.7568   7.8033   7.9967
     8.1209   8.5562   8.7954   8.9822  11.3206  12.0037  12.1910  12.4003
    12.8755  13.1275  13.5606  15.2666  15.5647  15.6883  15.6976  16.1853
    16.4151  16.5688

     occupation numbers 
     1.0000   1.0000   1.0000   1.0000   1.0000   1.0000   1.0000   1.0000
     1.0000   1.0000   1.0000   1.0000   1.0000   1.0000   1.0000   1.0000
     1.0000   1.0000   1.0000   1.0000   1.0000   1.0000   1.0000   1.0000
     1.0000   1.0000   1.0000   1.0000   1.0000   1.0000   1.0000   1.0000
     1.0000   1.0000   1.0000   1.0000   1.0000   1.0000   1.0000   1.0000
     1.0000   1.0000   1.0000   1.0000   1.0000   1.0000   1.0000   1.0000
     1.0000   1.0000   1.0000   1.0000   0.0000   0.0000   0.0000   0.0000
     0.0000   0.0000   0.0000   0.0000   0.0000   0.0000   0.0000   0.0000
     0.0000   0.0000

          k = 0.2497 0.2168 0.0519 ( 20388 PWs)   bands (ev):

  -102.6305 -65.3323 -65.2479 -65.1764 -60.3668 -60.3295 -59.6011 -34.0164
   -33.9505 -33.9180 -29.6628 -29.5608 -29.5347 -29.4966 -29.4613 -29.4194
    -8.9421  -8.0029  -7.8191  -7.5211  -7.4138  -7.2899  -7.1017  -7.0360
     1.6116   2.1979   2.3100   2.4019   3.4209   3.7301   3.9132   4.0915
     4.3507   4.8022   5.0159   5.2730   5.4182   5.6396   6.2498   6.3897
     6.5205   6.7617   7.0092   7.1795   7.3723   7.6237   7.9245   7.9752
     8.0461   8.4134   8.5150   8.8765  11.2096  11.9890  12.3605  12.4404
    12.9068  13.1621  13.5202  15.3063  15.3593  15.6147  15.6907  15.9997
    16.4098  16.6767

     occupation numbers 
     1.0000   1.0000   1.0000   1.0000   1.0000   1.0000   1.0000   1.0000
     1.0000   1.0000   1.0000   1.0000   1.0000   1.0000   1.0000   1.0000
     1.0000   1.0000   1.0000   1.0000   1.0000   1.0000   1.0000   1.0000
     1.0000   1.0000   1.0000   1.0000   1.0000   1.0000   1.0000   1.0000
     1.0000   1.0000   1.0000   1.0000   1.0000   1.0000   1.0000   1.0000
     1.0000   1.0000   1.0000   1.0000   1.0000   1.0000   1.0000   1.0000
     1.0000   1.0000   1.0000   1.0000   0.0000   0.0000   0.0000   0.0000
     0.0000   0.0000   0.0000   0.0000   0.0000   0.0000   0.0000   0.0000
     0.0000   0.0000

          k = 0.2486 0.2168 0.1975 ( 20405 PWs)   bands (ev):

  -102.6305 -65.3322 -65.2481 -65.1764 -60.3668 -60.3295 -59.6011 -34.0164
   -33.9504 -33.9180 -29.6618 -29.5595 -29.5387 -29.4981 -29.4588 -29.4186
    -8.8494  -8.0379  -7.9280  -7.5695  -7.3710  -7.2672  -7.1285  -6.9774
     1.6182   2.2144   2.3091   2.3835   3.3657   3.6892   4.0112   4.1623
     4.2994   4.6309   4.8470   5.2488   5.5561   5.9622   6.2663   6.3646
     6.5662   6.6674   6.9489   7.0798   7.3671   7.5330   8.0147   8.0466
     8.2089   8.3733   8.5474   8.8252  11.1898  11.9117  12.4344  12.5680
    12.8655  13.2052  13.3825  15.2056  15.3548  15.6181  15.7082  15.9189
    16.4997  16.5594

     occupation numbers 
     1.0000   1.0000   1.0000   1.0000   1.0000   1.0000   1.0000   1.0000
     1.0000   1.0000   1.0000   1.0000   1.0000   1.0000   1.0000   1.0000
     1.0000   1.0000   1.0000   1.0000   1.0000   1.0000   1.0000   1.0000
     1.0000   1.0000   1.0000   1.0000   1.0000   1.0000   1.0000   1.0000
     1.0000   1.0000   1.0000   1.0000   1.0000   1.0000   1.0000   1.0000
     1.0000   1.0000   1.0000   1.0000   1.0000   1.0000   1.0000   1.0000
     1.0000   1.0000   1.0000   1.0000   0.0000   0.0000   0.0000   0.0000
     0.0000   0.0000   0.0000   0.0000   0.0000   0.0000   0.0000   0.0000
     0.0000   0.0000

          k = 0.2475 0.2168 0.3430 ( 20393 PWs)   bands (ev):

  -102.6305 -65.3321 -65.2482 -65.1764 -60.3668 -60.3295 -59.6011 -34.0164
   -33.9504 -33.9180 -29.6599 -29.5583 -29.5433 -29.5002 -29.4568 -29.4172
    -8.6631  -8.1466  -8.0444  -7.6124  -7.3500  -7.2703  -7.1117  -6.9473
     1.6126   2.2330   2.3334   2.3935   3.3070   3.7550   3.9097   4.1736
     4.2877   4.7123   4.9703   5.3671   5.6717   5.9108   6.0491   6.2333
     6.3892   6.6528   6.9309   7.0915   7.3975   7.6622   8.0048   8.1516
     8.2068   8.3908   8.5774   8.7455  11.1880  12.0009  12.2793  12.6512
    12.8971  13.1394  13.1892  15.2472  15.4402  15.6458  15.7154  16.0692
    16.4082  16.6707

     occupation numbers 
     1.0000   1.0000   1.0000   1.0000   1.0000   1.0000   1.0000   1.0000
     1.0000   1.0000   1.0000   1.0000   1.0000   1.0000   1.0000   1.0000
     1.0000   1.0000   1.0000   1.0000   1.0000   1.0000   1.0000   1.0000
     1.0000   1.0000   1.0000   1.0000   1.0000   1.0000   1.0000   1.0000
     1.0000   1.0000   1.0000   1.0000   1.0000   1.0000   1.0000   1.0000
     1.0000   1.0000   1.0000   1.0000   1.0000   1.0000   1.0000   1.0000
     1.0000   1.0000   1.0000   1.0000   0.0000   0.0000   0.0000   0.0000
     0.0000   0.0000   0.0000   0.0000   0.0000   0.0000   0.0000   0.0000
     0.0000   0.0000

          k = 0.2529 0.2169-0.3847 ( 20405 PWs)   bands (ev):

  -102.6305 -65.3321 -65.2481 -65.1764 -60.3668 -60.3295 -59.6011 -34.0164
   -33.9504 -33.9179 -29.6590 -29.5583 -29.5438 -29.5008 -29.4576 -29.4164
    -8.5704  -8.2533  -8.0217  -7.6171  -7.3480  -7.2548  -7.1709  -6.9244
     1.6005   2.2493   2.3480   2.4103   3.3781   3.7202   3.8768   4.1704
     4.3110   4.8681   5.0903   5.3210   5.5722   5.8169   5.9766   6.2138
     6.3503   6.6908   7.0035   7.0938   7.4051   7.6998   7.8150   8.1070
     8.1960   8.4500   8.5411   8.7654  11.2127  11.9274  12.3493  12.7020
    12.8734  13.0625  13.0858  15.3415  15.5593  15.6862  15.8585  16.0885
    16.3691  16.7139

     occupation numbers 
     1.0000   1.0000   1.0000   1.0000   1.0000   1.0000   1.0000   1.0000
     1.0000   1.0000   1.0000   1.0000   1.0000   1.0000   1.0000   1.0000
     1.0000   1.0000   1.0000   1.0000   1.0000   1.0000   1.0000   1.0000
     1.0000   1.0000   1.0000   1.0000   1.0000   1.0000   1.0000   1.0000
     1.0000   1.0000   1.0000   1.0000   1.0000   1.0000   1.0000   1.0000
     1.0000   1.0000   1.0000   1.0000   1.0000   1.0000   1.0000   1.0000
     1.0000   1.0000   1.0000   1.0000   0.0000   0.0000   0.0000   0.0000
     0.0000   0.0000   0.0000   0.0000   0.0000   0.0000   0.0000   0.0000
     0.0000   0.0000

          k = 0.2518 0.2169-0.2392 ( 20403 PWs)   bands (ev):

  -102.6305 -65.3322 -65.2479 -65.1764 -60.3668 -60.3295 -59.6011 -34.0164
   -33.9504 -33.9179 -29.6601 -29.5596 -29.5398 -29.4991 -29.4604 -29.4169
    -8.7622  -8.0459  -7.9649  -7.6249  -7.3526  -7.2752  -7.1893  -6.9433
     1.5942   2.2427   2.3292   2.4309   3.3937   3.7366   4.0169   4.2044
     4.3892   4.7046   4.9076   5.2732   5.5463   5.7807   6.0751   6.2338
     6.5827   6.8128   6.9588   7.1260   7.3122   7.6426   7.6935   7.9842
     8.1956   8.3328   8.6859   8.7681  11.2220  11.8786  12.4628  12.6660
    12.7770  12.9790  13.2826  15.3688  15.5845  15.7736  15.8643  16.1519
    16.3568  16.8454

     occupation numbers 
     1.0000   1.0000   1.0000   1.0000   1.0000   1.0000   1.0000   1.0000
     1.0000   1.0000   1.0000   1.0000   1.0000   1.0000   1.0000   1.0000
     1.0000   1.0000   1.0000   1.0000   1.0000   1.0000   1.0000   1.0000
     1.0000   1.0000   1.0000   1.0000   1.0000   1.0000   1.0000   1.0000
     1.0000   1.0000   1.0000   1.0000   1.0000   1.0000   1.0000   1.0000
     1.0000   1.0000   1.0000   1.0000   1.0000   1.0000   1.0000   1.0000
     1.0000   1.0000   1.0000   1.0000   0.0000   0.0000   0.0000   0.0000
     0.0000   0.0000   0.0000   0.0000   0.0000   0.0000   0.0000   0.0000
     0.0000   0.0000

          k = 0.2508 0.2169-0.0936 ( 20391 PWs)   bands (ev):

  -102.6305 -65.3323 -65.2478 -65.1764 -60.3668 -60.3295 -59.6011 -34.0164
   -33.9505 -33.9180 -29.6619 -29.5608 -29.5353 -29.4969 -29.4622 -29.4185
    -8.9107  -7.9910  -7.7841  -7.6528  -7.3738  -7.2832  -7.1377  -7.0079
     1.5998   2.2092   2.3191   2.4293   3.3772   3.7744   4.0452   4.1136
     4.4177   4.6703   4.9478   5.3091   5.5762   5.7727   5.9309   6.1842
     6.5918   6.8084   7.0711   7.2568   7.3891   7.5619   7.7491   7.9725
     8.0623   8.3535   8.6252   8.8410  11.2179  12.0741  12.2281  12.4831
    12.9202  13.0312  13.4785  15.3307  15.5356  15.6870  15.7739  16.1781
    16.3866  16.6853

     occupation numbers 
     1.0000   1.0000   1.0000   1.0000   1.0000   1.0000   1.0000   1.0000
     1.0000   1.0000   1.0000   1.0000   1.0000   1.0000   1.0000   1.0000
     1.0000   1.0000   1.0000   1.0000   1.0000   1.0000   1.0000   1.0000
     1.0000   1.0000   1.0000   1.0000   1.0000   1.0000   1.0000   1.0000
     1.0000   1.0000   1.0000   1.0000   1.0000   1.0000   1.0000   1.0000
     1.0000   1.0000   1.0000   1.0000   1.0000   1.0000   1.0000   1.0000
     1.0000   1.0000   1.0000   1.0000   0.0000   0.0000   0.0000   0.0000
     0.0000   0.0000   0.0000   0.0000   0.0000   0.0000   0.0000   0.0000
     0.0000   0.0000

          k = 0.2497 0.3659 0.0484 ( 20387 PWs)   bands (ev):

  -102.6305 -65.3322 -65.2478 -65.1764 -60.3668 -60.3295 -59.6011 -34.0164
   -33.9505 -33.9180 -29.6618 -29.5606 -29.5342 -29.4975 -29.4619 -29.4197
    -8.8170  -8.0080  -7.9316  -7.5388  -7.4632  -7.3109  -7.0940  -6.9976
     1.6305   2.2169   2.3026   2.4127   3.4195   3.7620   3.9950   4.2386
     4.5672   4.7780   4.9927   5.4473   5.5505   5.6633   5.9162   6.1309
     6.6737   6.8545   6.9743   7.0712   7.4566   7.6115   7.7290   7.9103
     8.1058   8.1766   8.3495   8.7275  11.1829  12.0025  12.4243  12.5578
    12.9333  13.1343  13.3647  15.3237  15.4447  15.5837  15.7173  16.1058
    16.4844  16.6423

     occupation numbers 
     1.0000   1.0000   1.0000   1.0000   1.0000   1.0000   1.0000   1.0000
     1.0000   1.0000   1.0000   1.0000   1.0000   1.0000   1.0000   1.0000
     1.0000   1.0000   1.0000   1.0000   1.0000   1.0000   1.0000   1.0000
     1.0000   1.0000   1.0000   1.0000   1.0000   1.0000   1.0000   1.0000
     1.0000   1.0000   1.0000   1.0000   1.0000   1.0000   1.0000   1.0000
     1.0000   1.0000   1.0000   1.0000   1.0000   1.0000   1.0000   1.0000
     1.0000   1.0000   1.0000   1.0000   0.0000   0.0000   0.0000   0.0000
     0.0000   0.0000   0.0000   0.0000   0.0000   0.0000   0.0000   0.0000
     0.0000   0.0000

          k = 0.2486 0.3659 0.1940 ( 20403 PWs)   bands (ev):

  -102.6305 -65.3321 -65.2480 -65.1764 -60.3668 -60.3295 -59.6011 -34.0164
   -33.9504 -33.9180 -29.6614 -29.5596 -29.5390 -29.4986 -29.4590 -29.4181
    -8.7470  -8.0975  -7.9278  -7.5624  -7.4147  -7.2657  -7.1678  -6.9817
     1.6377   2.2339   2.3077   2.4052   3.3438   3.5483   4.1488   4.2137
     4.5591   4.8392   5.1403   5.3692   5.6100   5.7262   5.9186   6.0741
     6.6244   6.7599   7.0882   7.1732   7.2959   7.6987   7.7230   7.9047
     8.0957   8.2293   8.3588   8.6806  11.2157  11.8869  12.4997  12.6090
    12.8393  13.1668  13.3533  15.1811  15.4354  15.5863  15.6731  16.1030
    16.5310  16.6899

     occupation numbers 
     1.0000   1.0000   1.0000   1.0000   1.0000   1.0000   1.0000   1.0000
     1.0000   1.0000   1.0000   1.0000   1.0000   1.0000   1.0000   1.0000
     1.0000   1.0000   1.0000   1.0000   1.0000   1.0000   1.0000   1.0000
     1.0000   1.0000   1.0000   1.0000   1.0000   1.0000   1.0000   1.0000
     1.0000   1.0000   1.0000   1.0000   1.0000   1.0000   1.0000   1.0000
     1.0000   1.0000   1.0000   1.0000   1.0000   1.0000   1.0000   1.0000
     1.0000   1.0000   1.0000   1.0000   0.0000   0.0000   0.0000   0.0000
     0.0000   0.0000   0.0000   0.0000   0.0000   0.0000   0.0000   0.0000
     0.0000   0.0000

          k = 0.2476 0.3659 0.3395 ( 20380 PWs)   bands (ev):

  -102.6305 -65.3320 -65.2481 -65.1764 -60.3668 -60.3295 -59.6011 -34.0164
   -33.9504 -33.9180 -29.6604 -29.5586 -29.5442 -29.5000 -29.4562 -29.4164
    -8.6087  -8.1834  -7.9554  -7.6160  -7.4096  -7.2466  -7.1798  -6.9830
     1.6331   2.2579   2.3254   2.4318   3.3212   3.5313   4.0168   4.2222
     4.6113   4.9499   5.1023   5.3993   5.6695   5.7440   6.0494   6.1734
     6.4205   6.5720   7.0419   7.2094   7.3337   7.6744   7.7498   7.9632
     8.0604   8.1677   8.4438   8.6609  11.2388  11.9264  12.2709  12.5769
    12.9093  13.1003  13.3020  15.1693  15.4959  15.6081  15.6840  16.2008
    16.4262  16.7065

     occupation numbers 
     1.0000   1.0000   1.0000   1.0000   1.0000   1.0000   1.0000   1.0000
     1.0000   1.0000   1.0000   1.0000   1.0000   1.0000   1.0000   1.0000
     1.0000   1.0000   1.0000   1.0000   1.0000   1.0000   1.0000   1.0000
     1.0000   1.0000   1.0000   1.0000   1.0000   1.0000   1.0000   1.0000
     1.0000   1.0000   1.0000   1.0000   1.0000   1.0000   1.0000   1.0000
     1.0000   1.0000   1.0000   1.0000   1.0000   1.0000   1.0000   1.0000
     1.0000   1.0000   1.0000   1.0000   0.0000   0.0000   0.0000   0.0000
     0.0000   0.0000   0.0000   0.0000   0.0000   0.0000   0.0000   0.0000
     0.0000   0.0000

          k = 0.2530 0.3660-0.3882 ( 20403 PWs)   bands (ev):

  -102.6305 -65.3320 -65.2481 -65.1765 -60.3668 -60.3295 -59.6011 -34.0164
   -33.9504 -33.9179 -29.6600 -29.5587 -29.5445 -29.5002 -29.4566 -29.4160
    -8.5447  -8.1831  -8.0176  -7.5778  -7.4247  -7.2979  -7.2067  -6.9444
     1.6213   2.2631   2.3407   2.4639   3.4196   3.6089   3.9996   4.1825
     4.4288   4.9917   5.1602   5.3949   5.5449   5.7719   5.9968   6.3133
     6.4609   6.7395   6.9604   7.0402   7.4449   7.6142   7.7245   7.9208
     7.9565   8.1743   8.4561   8.7104  11.2562  11.8748  12.1939  12.6404
    12.9087  13.0877  13.1810  15.2493  15.5260  15.6885  15.8638  16.1493
    16.3013  16.7689

     occupation numbers 
     1.0000   1.0000   1.0000   1.0000   1.0000   1.0000   1.0000   1.0000
     1.0000   1.0000   1.0000   1.0000   1.0000   1.0000   1.0000   1.0000
     1.0000   1.0000   1.0000   1.0000   1.0000   1.0000   1.0000   1.0000
     1.0000   1.0000   1.0000   1.0000   1.0000   1.0000   1.0000   1.0000
     1.0000   1.0000   1.0000   1.0000   1.0000   1.0000   1.0000   1.0000
     1.0000   1.0000   1.0000   1.0000   1.0000   1.0000   1.0000   1.0000
     1.0000   1.0000   1.0000   1.0000   0.0000   0.0000   0.0000   0.0000
     0.0000   0.0000   0.0000   0.0000   0.0000   0.0000   0.0000   0.0000
     0.0000   0.0000

          k = 0.2519 0.3660-0.2427 ( 20399 PWs)   bands (ev):

  -102.6305 -65.3321 -65.2479 -65.1764 -60.3668 -60.3295 -59.6011 -34.0164
   -33.9504 -33.9179 -29.6605 -29.5596 -29.5397 -29.4990 -29.4599 -29.4172
    -8.6674  -8.0457  -7.9931  -7.5404  -7.5043  -7.3578  -7.1529  -6.9318
     1.6147   2.2531   2.3211   2.4661   3.5157   3.7275   4.1048   4.2159
     4.4274   4.8146   4.9139   5.2455   5.5043   5.7955   6.1407   6.3305
     6.5661   6.8324   6.9694   7.1723   7.3605   7.5586   7.7169   7.7617
     7.9034   8.1745   8.5434   8.6974  11.1777  11.9351  12.3879  12.6159
    12.7773  13.0706  13.2241  15.3106  15.5395  15.8056  15.8723  16.1495
    16.3552  16.7791

     occupation numbers 
     1.0000   1.0000   1.0000   1.0000   1.0000   1.0000   1.0000   1.0000
     1.0000   1.0000   1.0000   1.0000   1.0000   1.0000   1.0000   1.0000
     1.0000   1.0000   1.0000   1.0000   1.0000   1.0000   1.0000   1.0000
     1.0000   1.0000   1.0000   1.0000   1.0000   1.0000   1.0000   1.0000
     1.0000   1.0000   1.0000   1.0000   1.0000   1.0000   1.0000   1.0000
     1.0000   1.0000   1.0000   1.0000   1.0000   1.0000   1.0000   1.0000
     1.0000   1.0000   1.0000   1.0000   0.0000   0.0000   0.0000   0.0000
     0.0000   0.0000   0.0000   0.0000   0.0000   0.0000   0.0000   0.0000
     0.0000   0.0000

          k = 0.2508 0.3660-0.0971 ( 20385 PWs)   bands (ev):

  -102.6305 -65.3322 -65.2478 -65.1764 -60.3668 -60.3295 -59.6011 -34.0164
   -33.9505 -33.9180 -29.6614 -29.5606 -29.5345 -29.4976 -29.4624 -29.4192
    -8.7862  -8.0301  -7.8158  -7.6978  -7.4517  -7.3274  -7.0961  -6.9705
     1.6194   2.2299   2.3027   2.4409   3.4718   3.9575   4.0870   4.1376
     4.4679   4.6423   4.9466   5.3461   5.6190   5.7618   5.8630   6.1659
     6.7641   6.8231   7.0028   7.2230   7.3142   7.5609   7.6774   7.8319
     7.9907   8.1951   8.4788   8.7136  11.1430  12.1392  12.3331  12.5517
    12.7993  13.1183  13.3163  15.3347  15.5149  15.7412  15.7853  16.1816
    16.4757  16.6869

     occupation numbers 
     1.0000   1.0000   1.0000   1.0000   1.0000   1.0000   1.0000   1.0000
     1.0000   1.0000   1.0000   1.0000   1.0000   1.0000   1.0000   1.0000
     1.0000   1.0000   1.0000   1.0000   1.0000   1.0000   1.0000   1.0000
     1.0000   1.0000   1.0000   1.0000   1.0000   1.0000   1.0000   1.0000
     1.0000   1.0000   1.0000   1.0000   1.0000   1.0000   1.0000   1.0000
     1.0000   1.0000   1.0000   1.0000   1.0000   1.0000   1.0000   1.0000
     1.0000   1.0000   1.0000   1.0000   0.0000   0.0000   0.0000   0.0000
     0.0000   0.0000   0.0000   0.0000   0.0000   0.0000   0.0000   0.0000
     0.0000   0.0000

          k = 0.2494-0.3796 0.0659 ( 20376 PWs)   bands (ev):

  -102.6305 -65.3322 -65.2478 -65.1764 -60.3668 -60.3295 -59.6011 -34.0164
   -33.9505 -33.9180 -29.6613 -29.5606 -29.5345 -29.4976 -29.4623 -29.4193
    -8.7803  -8.0907  -7.8980  -7.5763  -7.4551  -7.2783  -7.0841  -6.9999
     1.6274   2.2380   2.2925   2.4190   3.4840   3.7733   3.9511   4.2096
     4.5351   4.7786   4.9716   5.4071   5.5527   5.7038   5.9825   6.0607
     6.6995   6.8201   6.9866   7.0997   7.4048   7.6228   7.7773   7.9319
     8.1147   8.1786   8.3306   8.7079  11.1836  11.9919  12.3780  12.6419
    12.9487  13.1202  13.3514  15.3170  15.4263  15.5882  15.7110  16.1575
    16.4133  16.7243

     occupation numbers 
     1.0000   1.0000   1.0000   1.0000   1.0000   1.0000   1.0000   1.0000
     1.0000   1.0000   1.0000   1.0000   1.0000   1.0000   1.0000   1.0000
     1.0000   1.0000   1.0000   1.0000   1.0000   1.0000   1.0000   1.0000
     1.0000   1.0000   1.0000   1.0000   1.0000   1.0000   1.0000   1.0000
     1.0000   1.0000   1.0000   1.0000   1.0000   1.0000   1.0000   1.0000
     1.0000   1.0000   1.0000   1.0000   1.0000   1.0000   1.0000   1.0000
     1.0000   1.0000   1.0000   1.0000   0.0000   0.0000   0.0000   0.0000
     0.0000   0.0000   0.0000   0.0000   0.0000   0.0000   0.0000   0.0000
     0.0000   0.0000

          k = 0.2483-0.3796 0.2114 ( 20386 PWs)   bands (ev):

  -102.6305 -65.3321 -65.2480 -65.1764 -60.3668 -60.3295 -59.6011 -34.0164
   -33.9504 -33.9180 -29.6604 -29.5596 -29.5396 -29.4991 -29.4597 -29.4173
    -8.6919  -8.1736  -7.9219  -7.6036  -7.4114  -7.2395  -7.1264  -6.9982
     1.6341   2.2575   2.2977   2.4131   3.3790   3.5407   4.1290   4.1969
     4.5617   4.8303   5.2238   5.3022   5.5524   5.6977   5.9014   6.0948
     6.6415   6.8183   7.0370   7.1853   7.3392   7.6465   7.7385   7.9381
     8.0921   8.2528   8.3354   8.6613  11.2185  11.8618  12.5041  12.6557
    12.8776  13.1449  13.3352  15.1228  15.4670  15.5817  15.6722  16.1394
    16.4523  16.7552

     occupation numbers 
     1.0000   1.0000   1.0000   1.0000   1.0000   1.0000   1.0000   1.0000
     1.0000   1.0000   1.0000   1.0000   1.0000   1.0000   1.0000   1.0000
     1.0000   1.0000   1.0000   1.0000   1.0000   1.0000   1.0000   1.0000
     1.0000   1.0000   1.0000   1.0000   1.0000   1.0000   1.0000   1.0000
     1.0000   1.0000   1.0000   1.0000   1.0000   1.0000   1.0000   1.0000
     1.0000   1.0000   1.0000   1.0000   1.0000   1.0000   1.0000   1.0000
     1.0000   1.0000   1.0000   1.0000   0.0000   0.0000   0.0000   0.0000
     0.0000   0.0000   0.0000   0.0000   0.0000   0.0000   0.0000   0.0000
     0.0000   0.0000

          k = 0.2473-0.3796 0.3570 ( 20398 PWs)   bands (ev):

  -102.6305 -65.3320 -65.2481 -65.1764 -60.3668 -60.3295 -59.6011 -34.0164
   -33.9504 -33.9180 -29.6599 -29.5586 -29.5444 -29.5003 -29.4565 -29.4160
    -8.5533  -8.2565  -7.8894  -7.6868  -7.4679  -7.2061  -7.1241  -7.0004
     1.6295   2.2855   2.3138   2.4419   3.3288   3.5102   3.9896   4.2278
     4.7061   4.9895   5.1129   5.2510   5.6281   5.7120   6.1040   6.1912
     6.3853   6.6092   7.0795   7.1444   7.4595   7.5474   7.7700   7.9764
     8.0667   8.1766   8.4321   8.6530  11.2468  11.9104  12.2908  12.5979
    12.9229  13.0828  13.2960  15.1122  15.5478  15.5928  15.6767  16.1773
    16.4418  16.7624

     occupation numbers 
     1.0000   1.0000   1.0000   1.0000   1.0000   1.0000   1.0000   1.0000
     1.0000   1.0000   1.0000   1.0000   1.0000   1.0000   1.0000   1.0000
     1.0000   1.0000   1.0000   1.0000   1.0000   1.0000   1.0000   1.0000
     1.0000   1.0000   1.0000   1.0000   1.0000   1.0000   1.0000   1.0000
     1.0000   1.0000   1.0000   1.0000   1.0000   1.0000   1.0000   1.0000
     1.0000   1.0000   1.0000   1.0000   1.0000   1.0000   1.0000   1.0000
     1.0000   1.0000   1.0000   1.0000   0.0000   0.0000   0.0000   0.0000
     0.0000   0.0000   0.0000   0.0000   0.0000   0.0000   0.0000   0.0000
     0.0000   0.0000

          k = 0.2527-0.3795-0.3708 ( 20397 PWs)   bands (ev):

  -102.6305 -65.3320 -65.2481 -65.1765 -60.3668 -60.3295 -59.6011 -34.0164
   -33.9504 -33.9179 -29.6604 -29.5587 -29.5443 -29.4999 -29.4563 -29.4164
    -8.5519  -8.1835  -7.9089  -7.6885  -7.5033  -7.2541  -7.1664  -6.9425
     1.6181   2.2840   2.3353   2.4767   3.3873   3.6084   3.9909   4.1897
     4.5137   4.9550   5.1030   5.3840   5.5677   5.8099   5.9690   6.2680
     6.4557   6.8374   6.8992   7.0532   7.5001   7.5441   7.7309   7.9125
     7.9752   8.1406   8.4807   8.7023  11.2742  11.9069  12.1498  12.6484
    12.8931  13.0893  13.1912  15.2120  15.5519  15.6877  15.8299  16.1453
    16.3523  16.7991

     occupation numbers 
     1.0000   1.0000   1.0000   1.0000   1.0000   1.0000   1.0000   1.0000
     1.0000   1.0000   1.0000   1.0000   1.0000   1.0000   1.0000   1.0000
     1.0000   1.0000   1.0000   1.0000   1.0000   1.0000   1.0000   1.0000
     1.0000   1.0000   1.0000   1.0000   1.0000   1.0000   1.0000   1.0000
     1.0000   1.0000   1.0000   1.0000   1.0000   1.0000   1.0000   1.0000
     1.0000   1.0000   1.0000   1.0000   1.0000   1.0000   1.0000   1.0000
     1.0000   1.0000   1.0000   1.0000   0.0000   0.0000   0.0000   0.0000
     0.0000   0.0000   0.0000   0.0000   0.0000   0.0000   0.0000   0.0000
     0.0000   0.0000

          k = 0.2516-0.3796-0.2252 ( 20393 PWs)   bands (ev):

  -102.6305 -65.3321 -65.2479 -65.1764 -60.3668 -60.3295 -59.6011 -34.0164
   -33.9504 -33.9179 -29.6614 -29.5597 -29.5392 -29.4985 -29.4593 -29.4180
    -8.6784  -8.0353  -7.9146  -7.6353  -7.4952  -7.3961  -7.1201  -6.9204
     1.6118   2.2733   2.3144   2.4765   3.5542   3.6539   4.0608   4.3276
     4.4302   4.7318   4.9313   5.2314   5.5926   5.7662   6.0876   6.2377
     6.6932   6.8137   6.9679   7.1755   7.4133   7.5008   7.6895   7.7788
     7.9639   8.1060   8.5752   8.6832  11.1956  11.9692  12.3286  12.6265
    12.7603  13.0706  13.2384  15.2997  15.5508  15.8051  15.8330  16.1614
    16.4184  16.7670

     occupation numbers 
     1.0000   1.0000   1.0000   1.0000   1.0000   1.0000   1.0000   1.0000
     1.0000   1.0000   1.0000   1.0000   1.0000   1.0000   1.0000   1.0000
     1.0000   1.0000   1.0000   1.0000   1.0000   1.0000   1.0000   1.0000
     1.0000   1.0000   1.0000   1.0000   1.0000   1.0000   1.0000   1.0000
     1.0000   1.0000   1.0000   1.0000   1.0000   1.0000   1.0000   1.0000
     1.0000   1.0000   1.0000   1.0000   1.0000   1.0000   1.0000   1.0000
     1.0000   1.0000   1.0000   1.0000   0.0000   0.0000   0.0000   0.0000
     0.0000   0.0000   0.0000   0.0000   0.0000   0.0000   0.0000   0.0000
     0.0000   0.0000

          k = 0.2505-0.3796-0.0797 ( 20379 PWs)   bands (ev):

  -102.6305 -65.3322 -65.2478 -65.1764 -60.3668 -60.3295 -59.6011 -34.0164
   -33.9505 -33.9180 -29.6618 -29.5607 -29.5343 -29.4974 -29.4620 -29.4196
    -8.7731  -8.0543  -7.7801  -7.6963  -7.4950  -7.3382  -7.0852  -6.9549
     1.6166   2.2533   2.2902   2.4477   3.5521   3.8496   4.0700   4.1466
     4.5336   4.5741   5.0023   5.3354   5.5278   5.7216   5.9946   6.1163
     6.7677   6.8287   7.0039   7.2343   7.3069   7.5414   7.6698   7.8710
     8.0434   8.1595   8.4744   8.7016  11.1500  12.1416  12.3926  12.4672
    12.8252  13.1007  13.3258  15.3527  15.5124  15.7148  15.7761  16.1740
    16.5752  16.6631

     occupation numbers 
     1.0000   1.0000   1.0000   1.0000   1.0000   1.0000   1.0000   1.0000
     1.0000   1.0000   1.0000   1.0000   1.0000   1.0000   1.0000   1.0000
     1.0000   1.0000   1.0000   1.0000   1.0000   1.0000   1.0000   1.0000
     1.0000   1.0000   1.0000   1.0000   1.0000   1.0000   1.0000   1.0000
     1.0000   1.0000   1.0000   1.0000   1.0000   1.0000   1.0000   1.0000
     1.0000   1.0000   1.0000   1.0000   1.0000   1.0000   1.0000   1.0000
     1.0000   1.0000   1.0000   1.0000   0.0000   0.0000   0.0000   0.0000
     0.0000   0.0000   0.0000   0.0000   0.0000   0.0000   0.0000   0.0000
     0.0000   0.0000

          k = 0.2495-0.2305 0.0624 ( 20408 PWs)   bands (ev):

  -102.6305 -65.3323 -65.2479 -65.1764 -60.3668 -60.3295 -59.6011 -34.0164
   -33.9504 -33.9180 -29.6618 -29.5608 -29.5354 -29.4969 -29.4621 -29.4186
    -8.8916  -8.0354  -7.8814  -7.5758  -7.3984  -7.2156  -7.0877  -7.0438
     1.6052   2.2334   2.2934   2.4194   3.5890   3.7633   3.8060   4.0022
     4.3378   4.7264   4.9634   5.2577   5.4520   5.7518   6.1004   6.3348
     6.6467   6.7683   7.0462   7.2009   7.3302   7.6016   7.9321   8.0088
     8.1137   8.4029   8.4795   8.8647  11.2026  11.9697  12.2844  12.5836
    12.9340  13.1312  13.5112  15.2100  15.4438  15.6167  15.6798  16.1181
    16.2358  16.7778

     occupation numbers 
     1.0000   1.0000   1.0000   1.0000   1.0000   1.0000   1.0000   1.0000
     1.0000   1.0000   1.0000   1.0000   1.0000   1.0000   1.0000   1.0000
     1.0000   1.0000   1.0000   1.0000   1.0000   1.0000   1.0000   1.0000
     1.0000   1.0000   1.0000   1.0000   1.0000   1.0000   1.0000   1.0000
     1.0000   1.0000   1.0000   1.0000   1.0000   1.0000   1.0000   1.0000
     1.0000   1.0000   1.0000   1.0000   1.0000   1.0000   1.0000   1.0000
     1.0000   1.0000   1.0000   1.0000   0.0000   0.0000   0.0000   0.0000
     0.0000   0.0000   0.0000   0.0000   0.0000   0.0000   0.0000   0.0000
     0.0000   0.0000

          k = 0.2484-0.2305 0.2080 ( 20404 PWs)   bands (ev):

  -102.6305 -65.3322 -65.2481 -65.1764 -60.3668 -60.3295 -59.6011 -34.0164
   -33.9504 -33.9180 -29.6600 -29.5595 -29.5398 -29.4991 -29.4602 -29.4170
    -8.7695  -8.1249  -7.9489  -7.6425  -7.3851  -7.1661  -7.0831  -7.0125
     1.6109   2.2584   2.2895   2.4031   3.4550   3.6616   3.9609   4.1095
     4.3435   4.5922   4.9369   5.1573   5.4718   5.9822   6.1868   6.4130
     6.4908   6.7728   6.9997   7.1025   7.3921   7.5039   8.0045   8.0768
     8.1721   8.3905   8.5440   8.8074  11.1885  11.8655  12.4407  12.7016
    12.8890  13.1503  13.3751  15.0497  15.4347  15.6258  15.7136  16.0207
    16.3176  16.7217

     occupation numbers 
     1.0000   1.0000   1.0000   1.0000   1.0000   1.0000   1.0000   1.0000
     1.0000   1.0000   1.0000   1.0000   1.0000   1.0000   1.0000   1.0000
     1.0000   1.0000   1.0000   1.0000   1.0000   1.0000   1.0000   1.0000
     1.0000   1.0000   1.0000   1.0000   1.0000   1.0000   1.0000   1.0000
     1.0000   1.0000   1.0000   1.0000   1.0000   1.0000   1.0000   1.0000
     1.0000   1.0000   1.0000   1.0000   1.0000   1.0000   1.0000   1.0000
     1.0000   1.0000   1.0000   1.0000   0.0000   0.0000   0.0000   0.0000
     0.0000   0.0000   0.0000   0.0000   0.0000   0.0000   0.0000   0.0000
     0.0000   0.0000

          k = 0.2473-0.2305 0.3535 ( 20407 PWs)   bands (ev):

  -102.6305 -65.3321 -65.2482 -65.1764 -60.3668 -60.3295 -59.6011 -34.0164
   -33.9504 -33.9180 -29.6589 -29.5583 -29.5438 -29.5008 -29.4575 -29.4165
    -8.5651  -8.2903  -7.9178  -7.7407  -7.4420  -7.1837  -7.0310  -6.9795
     1.6051   2.2791   2.3160   2.4179   3.3346   3.6345   3.9097   4.1787
     4.4436   4.7216   4.9543   5.3134   5.5396   5.8888   6.0599   6.2140
     6.4751   6.5739   7.0133   7.1249   7.4546   7.6296   7.9297   8.1137
     8.2370   8.4392   8.5518   8.7381  11.2023  11.9660  12.3368  12.6856
    12.9126  13.1123  13.1778  15.0918  15.5288  15.6564  15.6928  16.0745
    16.4523  16.7574

     occupation numbers 
     1.0000   1.0000   1.0000   1.0000   1.0000   1.0000   1.0000   1.0000
     1.0000   1.0000   1.0000   1.0000   1.0000   1.0000   1.0000   1.0000
     1.0000   1.0000   1.0000   1.0000   1.0000   1.0000   1.0000   1.0000
     1.0000   1.0000   1.0000   1.0000   1.0000   1.0000   1.0000   1.0000
     1.0000   1.0000   1.0000   1.0000   1.0000   1.0000   1.0000   1.0000
     1.0000   1.0000   1.0000   1.0000   1.0000   1.0000   1.0000   1.0000
     1.0000   1.0000   1.0000   1.0000   0.0000   0.0000   0.0000   0.0000
     0.0000   0.0000   0.0000   0.0000   0.0000   0.0000   0.0000   0.0000
     0.0000   0.0000

          k = 0.2528-0.2304-0.3743 ( 20409 PWs)   bands (ev):

  -102.6305 -65.3321 -65.2482 -65.1764 -60.3668 -60.3295 -59.6011 -34.0164
   -33.9504 -33.9179 -29.6599 -29.5584 -29.5434 -29.5002 -29.4569 -29.4172
    -8.5889  -8.2063  -7.8943  -7.7605  -7.4839  -7.2365  -7.0683  -6.9263
     1.5932   2.2878   2.3390   2.4387   3.3516   3.6184   3.9510   4.2404
     4.3226   4.8212   5.0710   5.3130   5.5942   5.8039   6.0067   6.1319
     6.3315   6.7365   6.9383   7.2120   7.4037   7.6742   7.8000   8.0680
     8.2117   8.4103   8.5940   8.7515  11.2470  11.9877  12.2598  12.7355
    12.8417  13.0418  13.1219  15.2377  15.5934  15.6976  15.7924  16.1111
    16.5019  16.7815

     occupation numbers 
     1.0000   1.0000   1.0000   1.0000   1.0000   1.0000   1.0000   1.0000
     1.0000   1.0000   1.0000   1.0000   1.0000   1.0000   1.0000   1.0000
     1.0000   1.0000   1.0000   1.0000   1.0000   1.0000   1.0000   1.0000
     1.0000   1.0000   1.0000   1.0000   1.0000   1.0000   1.0000   1.0000
     1.0000   1.0000   1.0000   1.0000   1.0000   1.0000   1.0000   1.0000
     1.0000   1.0000   1.0000   1.0000   1.0000   1.0000   1.0000   1.0000
     1.0000   1.0000   1.0000   1.0000   0.0000   0.0000   0.0000   0.0000
     0.0000   0.0000   0.0000   0.0000   0.0000   0.0000   0.0000   0.0000
     0.0000   0.0000

          k = 0.2517-0.2305-0.2287 ( 20399 PWs)   bands (ev):

  -102.6305 -65.3322 -65.2480 -65.1764 -60.3668 -60.3295 -59.6011 -34.0164
   -33.9504 -33.9179 -29.6618 -29.5597 -29.5389 -29.4980 -29.4590 -29.4185
    -8.7770  -7.9968  -7.8743  -7.6675  -7.5018  -7.3338  -7.0889  -6.9221
     1.5876   2.2778   2.3202   2.4547   3.4246   3.6476   4.0213   4.2657
     4.3360   4.7745   4.8469   5.2591   5.6167   5.7487   6.0632   6.1314
     6.6362   6.8058   6.9746   7.1600   7.3645   7.4772   7.7959   8.0003
     8.1813   8.3184   8.6971   8.7564  11.2592  11.9120  12.4262  12.5843
    12.7918  13.0093  13.2869  15.3409  15.5787  15.7410  15.8303  16.1745
    16.5422  16.7789

     occupation numbers 
     1.0000   1.0000   1.0000   1.0000   1.0000   1.0000   1.0000   1.0000
     1.0000   1.0000   1.0000   1.0000   1.0000   1.0000   1.0000   1.0000
     1.0000   1.0000   1.0000   1.0000   1.0000   1.0000   1.0000   1.0000
     1.0000   1.0000   1.0000   1.0000   1.0000   1.0000   1.0000   1.0000
     1.0000   1.0000   1.0000   1.0000   1.0000   1.0000   1.0000   1.0000
     1.0000   1.0000   1.0000   1.0000   1.0000   1.0000   1.0000   1.0000
     1.0000   1.0000   1.0000   1.0000   0.0000   0.0000   0.0000   0.0000
     0.0000   0.0000   0.0000   0.0000   0.0000   0.0000   0.0000   0.0000
     0.0000   0.0000

          k = 0.2506-0.2305-0.0831 ( 20405 PWs)   bands (ev):

  -102.6305 -65.3323 -65.2478 -65.1764 -60.3668 -60.3295 -59.6011 -34.0164
   -33.9504 -33.9180 -29.6628 -29.5608 -29.5349 -29.4965 -29.4614 -29.4193
    -8.8924  -8.0089  -7.7576  -7.6153  -7.4896  -7.3072  -7.1023  -6.9711
     1.5937   2.2438   2.3036   2.4480   3.5006   3.7152   3.9376   4.1233
     4.3854   4.6458   5.0651   5.2918   5.4955   5.7300   5.9358   6.2029
     6.5401   6.9642   7.0661   7.2314   7.3148   7.5278   7.8432   8.0083
     8.0381   8.4023   8.5707   8.8354  11.2279  12.0820  12.2624  12.4275
    12.9275  13.0354  13.4726  15.3659  15.5344  15.6357  15.7603  16.1721
    16.4392  16.7472

     occupation numbers 
     1.0000   1.0000   1.0000   1.0000   1.0000   1.0000   1.0000   1.0000
     1.0000   1.0000   1.0000   1.0000   1.0000   1.0000   1.0000   1.0000
     1.0000   1.0000   1.0000   1.0000   1.0000   1.0000   1.0000   1.0000
     1.0000   1.0000   1.0000   1.0000   1.0000   1.0000   1.0000   1.0000
     1.0000   1.0000   1.0000   1.0000   1.0000   1.0000   1.0000   1.0000
     1.0000   1.0000   1.0000   1.0000   1.0000   1.0000   1.0000   1.0000
     1.0000   1.0000   1.0000   1.0000   0.0000   0.0000   0.0000   0.0000
     0.0000   0.0000   0.0000   0.0000   0.0000   0.0000   0.0000   0.0000
     0.0000   0.0000

          k = 0.2495-0.0814 0.0589 ( 20408 PWs)   bands (ev):

  -102.6305 -65.3324 -65.2480 -65.1764 -60.3668 -60.3295 -59.6011 -34.0164
   -33.9504 -33.9180 -29.6628 -29.5610 -29.5359 -29.4960 -29.4615 -29.4183
    -9.0007  -8.0444  -7.7620  -7.5411  -7.3904  -7.1644  -7.1428  -7.0484
     1.5872   2.2167   2.2882   2.4097   3.4944   3.7015   3.8492   3.9434
     4.1451   4.7711   4.9989   5.1496   5.2612   5.7658   6.2008   6.4696
     6.5878   6.8963   7.0473   7.1811   7.3859   7.6347   7.7760   8.1054
     8.2508   8.5479   8.7290   9.0217  11.2355  11.9446  12.2532  12.4502
    12.9234  13.2089  13.6059  15.0691  15.4441  15.5894  15.6786  16.0265
    16.2319  16.7550

     occupation numbers 
     1.0000   1.0000   1.0000   1.0000   1.0000   1.0000   1.0000   1.0000
     1.0000   1.0000   1.0000   1.0000   1.0000   1.0000   1.0000   1.0000
     1.0000   1.0000   1.0000   1.0000   1.0000   1.0000   1.0000   1.0000
     1.0000   1.0000   1.0000   1.0000   1.0000   1.0000   1.0000   1.0000
     1.0000   1.0000   1.0000   1.0000   1.0000   1.0000   1.0000   1.0000
     1.0000   1.0000   1.0000   1.0000   1.0000   1.0000   1.0000   1.0000
     1.0000   1.0000   1.0000   1.0000   0.0000   0.0000   0.0000   0.0000
     0.0000   0.0000   0.0000   0.0000   0.0000   0.0000   0.0000   0.0000
     0.0000   0.0000

          k = 0.2485-0.0814 0.2045 ( 20382 PWs)   bands (ev):

  -102.6305 -65.3323 -65.2482 -65.1764 -60.3668 -60.3295 -59.6011 -34.0164
   -33.9504 -33.9180 -29.6605 -29.5594 -29.5394 -29.4986 -29.4600 -29.4175
    -8.8704  -8.0849  -7.9191  -7.6130  -7.4058  -7.2042  -7.0119  -6.9867
     1.5935   2.2465   2.2703   2.3840   3.5353   3.6171   3.9093   4.1041
     4.2153   4.4611   4.7702   4.8968   5.5754   6.1897   6.3115   6.3773
     6.5367   6.7387   6.8668   7.0633   7.3921   7.6200   8.0062   8.2447
     8.3768   8.4829   8.7666   8.9643  11.1450  11.8947  12.4025  12.6392
    12.9479  13.1312  13.4421  14.9837  15.3751  15.6646  15.7368  15.8731
    16.2847  16.5899

     occupation numbers 
     1.0000   1.0000   1.0000   1.0000   1.0000   1.0000   1.0000   1.0000
     1.0000   1.0000   1.0000   1.0000   1.0000   1.0000   1.0000   1.0000
     1.0000   1.0000   1.0000   1.0000   1.0000   1.0000   1.0000   1.0000
     1.0000   1.0000   1.0000   1.0000   1.0000   1.0000   1.0000   1.0000
     1.0000   1.0000   1.0000   1.0000   1.0000   1.0000   1.0000   1.0000
     1.0000   1.0000   1.0000   1.0000   1.0000   1.0000   1.0000   1.0000
     1.0000   1.0000   1.0000   1.0000   0.0000   0.0000   0.0000   0.0000
     0.0000   0.0000   0.0000   0.0000   0.0000   0.0000   0.0000   0.0000
     0.0000   0.0000

          k = 0.2474-0.0814 0.3500 ( 20422 PWs)   bands (ev):

  -102.6305 -65.3322 -65.2483 -65.1764 -60.3668 -60.3295 -59.6011 -34.0164
   -33.9504 -33.9180 -29.6585 -29.5580 -29.5429 -29.5011 -29.4581 -29.4173
    -8.6343  -8.2788  -7.9457  -7.7127  -7.4344  -7.2288  -6.9519  -6.9259
     1.5869   2.2575   2.3041   2.3855   3.3876   3.5391   3.9515   4.1457
     4.3693   4.6899   4.8255   5.0094   5.6872   5.8694   6.0983   6.1658
     6.3114   6.5316   7.0627   7.2807   7.5114   7.5757   8.1476   8.2164
     8.4257   8.5588   8.7435   8.8664  11.1264  12.0527  12.4558  12.6564
    12.8973  13.0505  13.1763  15.1147  15.4500  15.6671  15.7185  16.0192
    16.3703  16.7233

     occupation numbers 
     1.0000   1.0000   1.0000   1.0000   1.0000   1.0000   1.0000   1.0000
     1.0000   1.0000   1.0000   1.0000   1.0000   1.0000   1.0000   1.0000
     1.0000   1.0000   1.0000   1.0000   1.0000   1.0000   1.0000   1.0000
     1.0000   1.0000   1.0000   1.0000   1.0000   1.0000   1.0000   1.0000
     1.0000   1.0000   1.0000   1.0000   1.0000   1.0000   1.0000   1.0000
     1.0000   1.0000   1.0000   1.0000   1.0000   1.0000   1.0000   1.0000
     1.0000   1.0000   1.0000   1.0000   0.0000   0.0000   0.0000   0.0000
     0.0000   0.0000   0.0000   0.0000   0.0000   0.0000   0.0000   0.0000
     0.0000   0.0000

          k = 0.2528-0.0813-0.3777 ( 20414 PWs)   bands (ev):

  -102.6305 -65.3322 -65.2482 -65.1764 -60.3668 -60.3295 -59.6011 -34.0164
   -33.9504 -33.9179 -29.6589 -29.5581 -29.5427 -29.5007 -29.4579 -29.4176
    -8.6223  -8.2542  -7.9172  -7.7449  -7.4470  -7.2597  -6.9663  -6.9163
     1.5734   2.2755   2.3305   2.3924   3.3672   3.4542   3.9482   4.2541
     4.4329   4.7393   5.0273   5.2862   5.4746   5.7195   5.8739   6.1166
     6.2563   6.5929   7.0389   7.3051   7.4950   7.6811   8.0414   8.1252
     8.3838   8.5918   8.7618   8.8325  11.1859  12.1391  12.3872  12.6909
    12.8639  12.9796  13.0699  15.3320  15.5567  15.6601  15.7506  16.1509
    16.4276  16.8473

     occupation numbers 
     1.0000   1.0000   1.0000   1.0000   1.0000   1.0000   1.0000   1.0000
     1.0000   1.0000   1.0000   1.0000   1.0000   1.0000   1.0000   1.0000
     1.0000   1.0000   1.0000   1.0000   1.0000   1.0000   1.0000   1.0000
     1.0000   1.0000   1.0000   1.0000   1.0000   1.0000   1.0000   1.0000
     1.0000   1.0000   1.0000   1.0000   1.0000   1.0000   1.0000   1.0000
     1.0000   1.0000   1.0000   1.0000   1.0000   1.0000   1.0000   1.0000
     1.0000   1.0000   1.0000   1.0000   0.0000   0.0000   0.0000   0.0000
     0.0000   0.0000   0.0000   0.0000   0.0000   0.0000   0.0000   0.0000
     0.0000   0.0000

          k = 0.2517-0.0813-0.2322 ( 20420 PWs)   bands (ev):

  -102.6305 -65.3323 -65.2480 -65.1764 -60.3668 -60.3295 -59.6011 -34.0164
   -33.9504 -33.9179 -29.6614 -29.5596 -29.5390 -29.4980 -29.4595 -29.4182
    -8.8536  -7.9635  -7.9298  -7.6428  -7.4469  -7.3112  -7.0296  -6.9492
     1.5670   2.2713   2.3167   2.4212   3.3316   3.4762   4.1288   4.2853
     4.3484   4.6689   4.7890   5.3937   5.5323   5.6332   5.9899   6.2520
     6.5115   6.7309   6.9029   7.0064   7.5012   7.7286   7.9223   8.0607
     8.2340   8.5347   8.8236   8.8996  11.2887  11.9406  12.4675  12.5528
    12.8273  12.9512  13.3336  15.4141  15.5367  15.7143  15.8166  16.2002
    16.5794  16.6402

     occupation numbers 
     1.0000   1.0000   1.0000   1.0000   1.0000   1.0000   1.0000   1.0000
     1.0000   1.0000   1.0000   1.0000   1.0000   1.0000   1.0000   1.0000
     1.0000   1.0000   1.0000   1.0000   1.0000   1.0000   1.0000   1.0000
     1.0000   1.0000   1.0000   1.0000   1.0000   1.0000   1.0000   1.0000
     1.0000   1.0000   1.0000   1.0000   1.0000   1.0000   1.0000   1.0000
     1.0000   1.0000   1.0000   1.0000   1.0000   1.0000   1.0000   1.0000
     1.0000   1.0000   1.0000   1.0000   0.0000   0.0000   0.0000   0.0000
     0.0000   0.0000   0.0000   0.0000   0.0000   0.0000   0.0000   0.0000
     0.0000   0.0000

          k = 0.2506-0.0814-0.0866 ( 20419 PWs)   bands (ev):

  -102.6305 -65.3324 -65.2479 -65.1764 -60.3668 -60.3295 -59.6011 -34.0164
   -33.9504 -33.9179 -29.6633 -29.5610 -29.5356 -29.4958 -29.4612 -29.4186
    -8.9936  -8.0108  -7.7033  -7.5638  -7.4271  -7.2941  -7.1071  -7.0096
     1.5742   2.2266   2.3097   2.4354   3.3518   3.5693   3.9492   4.1186
     4.3301   4.7557   5.0889   5.1823   5.4499   5.7583   5.7935   6.2702
     6.6425   6.8502   7.0762   7.2050   7.3494   7.6606   7.9033   7.9876
     8.1285   8.5687   8.7724   8.9868  11.3229  12.0040  12.2040  12.3824
    12.8795  13.1330  13.5529  15.2807  15.5756  15.6568  15.6905  16.1760
    16.3853  16.6852

     occupation numbers 
     1.0000   1.0000   1.0000   1.0000   1.0000   1.0000   1.0000   1.0000
     1.0000   1.0000   1.0000   1.0000   1.0000   1.0000   1.0000   1.0000
     1.0000   1.0000   1.0000   1.0000   1.0000   1.0000   1.0000   1.0000
     1.0000   1.0000   1.0000   1.0000   1.0000   1.0000   1.0000   1.0000
     1.0000   1.0000   1.0000   1.0000   1.0000   1.0000   1.0000   1.0000
     1.0000   1.0000   1.0000   1.0000   1.0000   1.0000   1.0000   1.0000
     1.0000   1.0000   1.0000   1.0000   0.0000   0.0000   0.0000   0.0000
     0.0000   0.0000   0.0000   0.0000   0.0000   0.0000   0.0000   0.0000
     0.0000   0.0000

          k = 0.4164 0.0632 0.0450 ( 20397 PWs)   bands (ev):

  -102.6305 -65.3322 -65.2479 -65.1764 -60.3668 -60.3295 -59.6011 -34.0164
   -33.9504 -33.9180 -29.6635 -29.5614 -29.5355 -29.4962 -29.4613 -29.4187
    -8.8654  -8.0372  -7.7037  -7.6185  -7.4322  -7.3482  -7.1203  -7.0119
     1.5618   2.2601   2.3419   2.4833   3.5850   3.7069   3.7741   4.0810
     4.2759   4.5922   4.8771   5.1270   5.3620   5.6381   5.9835   6.5448
     6.7690   6.9378   7.1334   7.2490   7.3436   7.5413   7.7569   7.9337
     8.0458   8.7326   8.7979   8.9505  11.2434  11.9492  12.3069  12.3769
    12.9691  13.0791  13.6487  15.3117  15.4707  15.6633  15.7688  16.0473
    16.5778  16.7313

     occupation numbers 
     1.0000   1.0000   1.0000   1.0000   1.0000   1.0000   1.0000   1.0000
     1.0000   1.0000   1.0000   1.0000   1.0000   1.0000   1.0000   1.0000
     1.0000   1.0000   1.0000   1.0000   1.0000   1.0000   1.0000   1.0000
     1.0000   1.0000   1.0000   1.0000   1.0000   1.0000   1.0000   1.0000
     1.0000   1.0000   1.0000   1.0000   1.0000   1.0000   1.0000   1.0000
     1.0000   1.0000   1.0000   1.0000   1.0000   1.0000   1.0000   1.0000
     1.0000   1.0000   1.0000   1.0000   0.0000   0.0000   0.0000   0.0000
     0.0000   0.0000   0.0000   0.0000   0.0000   0.0000   0.0000   0.0000
     0.0000   0.0000

          k = 0.4153 0.0632 0.1906 ( 20393 PWs)   bands (ev):

  -102.6305 -65.3321 -65.2483 -65.1764 -60.3668 -60.3295 -59.6011 -34.0164
   -33.9504 -33.9180 -29.6616 -29.5599 -29.5389 -29.4984 -29.4595 -29.4183
    -8.7591  -8.0457  -7.8615  -7.5999  -7.5410  -7.3836  -6.9948  -6.9447
     1.5737   2.2639   2.3384   2.4768   3.4743   3.7515   3.9421   4.1217
     4.1683   4.3074   4.8252   4.8926   5.7013   5.9440   6.1777   6.3837
     6.6541   6.7294   6.9179   7.1569   7.4808   7.5988   7.8816   8.1066
     8.2441   8.6303   8.8413   8.9079  11.0919  11.9209  12.4440  12.6371
    12.9530  13.0700  13.4920  15.2640  15.4220  15.6652  15.8040  15.9168
    16.4327  16.7243

     occupation numbers 
     1.0000   1.0000   1.0000   1.0000   1.0000   1.0000   1.0000   1.0000
     1.0000   1.0000   1.0000   1.0000   1.0000   1.0000   1.0000   1.0000
     1.0000   1.0000   1.0000   1.0000   1.0000   1.0000   1.0000   1.0000
     1.0000   1.0000   1.0000   1.0000   1.0000   1.0000   1.0000   1.0000
     1.0000   1.0000   1.0000   1.0000   1.0000   1.0000   1.0000   1.0000
     1.0000   1.0000   1.0000   1.0000   1.0000   1.0000   1.0000   1.0000
     1.0000   1.0000   1.0000   1.0000   0.0000   0.0000   0.0000   0.0000
     0.0000   0.0000   0.0000   0.0000   0.0000   0.0000   0.0000   0.0000
     0.0000   0.0000

          k = 0.4142 0.0632 0.3361 ( 20401 PWs)   bands (ev):

  -102.6305 -65.3320 -65.2486 -65.1764 -60.3668 -60.3295 -59.6011 -34.0165
   -33.9504 -33.9180 -29.6591 -29.5583 -29.5426 -29.5011 -29.4578 -29.4177
    -8.5643  -8.1209  -8.0180  -7.6963  -7.5320  -7.3827  -6.9200  -6.8965
     1.5791   2.2797   2.3467   2.4943   3.4208   3.6063   3.7582   3.9139
     4.3913   4.6907   4.9100   5.1329   5.7074   5.8865   6.0110   6.1965
     6.2943   6.5065   6.9396   7.2748   7.6033   7.7721   8.0427   8.1573
     8.3983   8.5685   8.7896   8.8871  10.9852  12.0350  12.5170  12.8240
    12.9331  13.0285  13.2171  15.3750  15.4360  15.6272  15.6688  16.0908
    16.2241  16.8545

     occupation numbers 
     1.0000   1.0000   1.0000   1.0000   1.0000   1.0000   1.0000   1.0000
     1.0000   1.0000   1.0000   1.0000   1.0000   1.0000   1.0000   1.0000
     1.0000   1.0000   1.0000   1.0000   1.0000   1.0000   1.0000   1.0000
     1.0000   1.0000   1.0000   1.0000   1.0000   1.0000   1.0000   1.0000
     1.0000   1.0000   1.0000   1.0000   1.0000   1.0000   1.0000   1.0000
     1.0000   1.0000   1.0000   1.0000   1.0000   1.0000   1.0000   1.0000
     1.0000   1.0000   1.0000   1.0000   0.0000   0.0000   0.0000   0.0000
     0.0000   0.0000   0.0000   0.0000   0.0000   0.0000   0.0000   0.0000
     0.0000   0.0000

          k = 0.4196 0.0632-0.3916 ( 20409 PWs)   bands (ev):

  -102.6305 -65.3320 -65.2486 -65.1764 -60.3668 -60.3295 -59.6011 -34.0165
   -33.9504 -33.9180 -29.6587 -29.5583 -29.5429 -29.5014 -29.4582 -29.4172
    -8.5141  -8.1826  -7.9761  -7.7657  -7.4951  -7.3744  -6.9429  -6.8877
     1.5725   2.2935   2.3573   2.4902   3.4004   3.5282   3.7777   3.9595
     4.5937   4.6863   4.9371   5.3096   5.5361   5.7538   5.8879   6.1522
     6.3328   6.5112   7.0357   7.2490   7.5801   7.7283   8.0449   8.1355
     8.4473   8.5292   8.7539   8.9118  10.9956  12.0613  12.5609  12.8202
    12.8972  12.9995  13.1634  15.4322  15.5461  15.6327  15.7641  15.9977
    16.2913  16.8699

     occupation numbers 
     1.0000   1.0000   1.0000   1.0000   1.0000   1.0000   1.0000   1.0000
     1.0000   1.0000   1.0000   1.0000   1.0000   1.0000   1.0000   1.0000
     1.0000   1.0000   1.0000   1.0000   1.0000   1.0000   1.0000   1.0000
     1.0000   1.0000   1.0000   1.0000   1.0000   1.0000   1.0000   1.0000
     1.0000   1.0000   1.0000   1.0000   1.0000   1.0000   1.0000   1.0000
     1.0000   1.0000   1.0000   1.0000   1.0000   1.0000   1.0000   1.0000
     1.0000   1.0000   1.0000   1.0000   0.0000   0.0000   0.0000   0.0000
     0.0000   0.0000   0.0000   0.0000   0.0000   0.0000   0.0000   0.0000
     0.0000   0.0000

          k = 0.4185 0.0632-0.2461 ( 20409 PWs)   bands (ev):

  -102.6305 -65.3321 -65.2482 -65.1764 -60.3668 -60.3295 -59.6011 -34.0164
   -33.9504 -33.9180 -29.6607 -29.5599 -29.5395 -29.4989 -29.4603 -29.4175
    -8.7156  -7.9789  -7.9361  -7.7291  -7.4665  -7.3496  -7.0269  -6.9431
     1.5602   2.2895   2.3608   2.4766   3.3777   3.5604   4.0843   4.2241
     4.3167   4.5727   4.7183   5.1576   5.5485   5.7717   6.0602   6.1255
     6.6615   6.7458   6.9663   7.1805   7.4496   7.6596   7.8569   8.0393
     8.2868   8.5647   8.8311   8.9236  11.1213  11.9454  12.4927  12.6997
    12.8690  12.9415  13.4400  15.3981  15.5182  15.7375  15.8862  16.0792
    16.3732  16.8620

     occupation numbers 
     1.0000   1.0000   1.0000   1.0000   1.0000   1.0000   1.0000   1.0000
     1.0000   1.0000   1.0000   1.0000   1.0000   1.0000   1.0000   1.0000
     1.0000   1.0000   1.0000   1.0000   1.0000   1.0000   1.0000   1.0000
     1.0000   1.0000   1.0000   1.0000   1.0000   1.0000   1.0000   1.0000
     1.0000   1.0000   1.0000   1.0000   1.0000   1.0000   1.0000   1.0000
     1.0000   1.0000   1.0000   1.0000   1.0000   1.0000   1.0000   1.0000
     1.0000   1.0000   1.0000   1.0000   0.0000   0.0000   0.0000   0.0000
     0.0000   0.0000   0.0000   0.0000   0.0000   0.0000   0.0000   0.0000
     0.0000   0.0000

          k = 0.4174 0.0632-0.1005 ( 20406 PWs)   bands (ev):

  -102.6305 -65.3322 -65.2479 -65.1764 -60.3668 -60.3295 -59.6011 -34.0164
   -33.9504 -33.9180 -29.6631 -29.5614 -29.5359 -29.4964 -29.4617 -29.4183
    -8.8498  -8.0072  -7.7665  -7.6092  -7.4709  -7.2783  -7.1480  -7.0151
     1.5549   2.2710   2.3529   2.4882   3.4679   3.6205   3.8585   4.2315
     4.3578   4.6632   4.9448   5.0767   5.4299   5.5649   5.8755   6.3517
     6.7310   6.9543   7.0666   7.2933   7.4305   7.6341   7.7684   7.8449
     8.0365   8.6832   8.8435   8.9318  11.2682  11.9650  12.2480  12.4369
    12.9495  13.0270  13.6230  15.3575  15.5201  15.7012  15.7991  16.2151
    16.5779  16.6502

     occupation numbers 
     1.0000   1.0000   1.0000   1.0000   1.0000   1.0000   1.0000   1.0000
     1.0000   1.0000   1.0000   1.0000   1.0000   1.0000   1.0000   1.0000
     1.0000   1.0000   1.0000   1.0000   1.0000   1.0000   1.0000   1.0000
     1.0000   1.0000   1.0000   1.0000   1.0000   1.0000   1.0000   1.0000
     1.0000   1.0000   1.0000   1.0000   1.0000   1.0000   1.0000   1.0000
     1.0000   1.0000   1.0000   1.0000   1.0000   1.0000   1.0000   1.0000
     1.0000   1.0000   1.0000   1.0000   0.0000   0.0000   0.0000   0.0000
     0.0000   0.0000   0.0000   0.0000   0.0000   0.0000   0.0000   0.0000
     0.0000   0.0000

          k = 0.4164 0.2123 0.0415 ( 20372 PWs)   bands (ev):

  -102.6305 -65.3322 -65.2477 -65.1764 -60.3668 -60.3295 -59.6011 -34.0164
   -33.9505 -33.9180 -29.6630 -29.5612 -29.5347 -29.4969 -29.4615 -29.4195
    -8.8056  -8.0212  -7.8222  -7.4890  -7.4482  -7.3897  -7.1516  -7.0379
     1.5892   2.2394   2.3323   2.4449   3.4248   3.8018   3.9575   4.1800
     4.3798   4.7252   5.0889   5.1926   5.4445   5.5396   6.1570   6.3599
     6.4860   6.7078   7.1126   7.2172   7.4442   7.5995   7.7494   7.9094
     8.0283   8.5193   8.6554   8.7926  11.1233  12.0096  12.3673  12.4371
    12.8773  13.0762  13.5963  15.2590  15.4323  15.6961  15.7557  16.0240
    16.4990  16.7869

     occupation numbers 
     1.0000   1.0000   1.0000   1.0000   1.0000   1.0000   1.0000   1.0000
     1.0000   1.0000   1.0000   1.0000   1.0000   1.0000   1.0000   1.0000
     1.0000   1.0000   1.0000   1.0000   1.0000   1.0000   1.0000   1.0000
     1.0000   1.0000   1.0000   1.0000   1.0000   1.0000   1.0000   1.0000
     1.0000   1.0000   1.0000   1.0000   1.0000   1.0000   1.0000   1.0000
     1.0000   1.0000   1.0000   1.0000   1.0000   1.0000   1.0000   1.0000
     1.0000   1.0000   1.0000   1.0000   0.0000   0.0000   0.0000   0.0000
     0.0000   0.0000   0.0000   0.0000   0.0000   0.0000   0.0000   0.0000
     0.0000   0.0000

          k = 0.4153 0.2123 0.1871 ( 20379 PWs)   bands (ev):

  -102.6305 -65.3320 -65.2481 -65.1764 -60.3668 -60.3295 -59.6011 -34.0164
   -33.9504 -33.9180 -29.6620 -29.5599 -29.5387 -29.4984 -29.4590 -29.4186
    -8.7261  -8.0735  -7.8597  -7.5324  -7.5069  -7.3939  -7.0837  -6.9813
     1.6027   2.2406   2.3409   2.4311   3.3917   3.8237   3.9992   4.0887
     4.2758   4.4812   4.9479   5.2606   5.6177   5.8938   6.0505   6.3564
     6.6854   6.8180   7.0149   7.0723   7.3029   7.6210   7.7686   8.0622
     8.1305   8.5101   8.6108   8.7644  11.0749  11.9085  12.4624  12.5936
    12.8319  13.1499  13.4678  15.1888  15.3956  15.6385  15.7189  16.0257
    16.4917  16.7166

     occupation numbers 
     1.0000   1.0000   1.0000   1.0000   1.0000   1.0000   1.0000   1.0000
     1.0000   1.0000   1.0000   1.0000   1.0000   1.0000   1.0000   1.0000
     1.0000   1.0000   1.0000   1.0000   1.0000   1.0000   1.0000   1.0000
     1.0000   1.0000   1.0000   1.0000   1.0000   1.0000   1.0000   1.0000
     1.0000   1.0000   1.0000   1.0000   1.0000   1.0000   1.0000   1.0000
     1.0000   1.0000   1.0000   1.0000   1.0000   1.0000   1.0000   1.0000
     1.0000   1.0000   1.0000   1.0000   0.0000   0.0000   0.0000   0.0000
     0.0000   0.0000   0.0000   0.0000   0.0000   0.0000   0.0000   0.0000
     0.0000   0.0000

          k = 0.4142 0.2123 0.3326 ( 20384 PWs)   bands (ev):

  -102.6305 -65.3319 -65.2484 -65.1764 -60.3668 -60.3295 -59.6011 -34.0165
   -33.9504 -33.9180 -29.6601 -29.5585 -29.5433 -29.5005 -29.4569 -29.4173
    -8.5726  -8.1229  -8.0081  -7.6362  -7.4747  -7.3633  -7.0134  -6.9657
     1.6100   2.2525   2.3492   2.4463   3.3795   3.7555   3.8186   3.9286
     4.3345   4.7199   5.0358   5.3855   5.6538   5.8833   5.9840   6.2866
     6.5362   6.6762   6.9676   7.0849   7.4464   7.7605   7.9105   8.0781
     8.2026   8.4239   8.5595   8.7510  11.0190  12.0327  12.3110  12.7464
    12.8477  13.1431  13.2833  15.2271  15.3852  15.5546  15.6871  16.1622
    16.3083  16.7674

     occupation numbers 
     1.0000   1.0000   1.0000   1.0000   1.0000   1.0000   1.0000   1.0000
     1.0000   1.0000   1.0000   1.0000   1.0000   1.0000   1.0000   1.0000
     1.0000   1.0000   1.0000   1.0000   1.0000   1.0000   1.0000   1.0000
     1.0000   1.0000   1.0000   1.0000   1.0000   1.0000   1.0000   1.0000
     1.0000   1.0000   1.0000   1.0000   1.0000   1.0000   1.0000   1.0000
     1.0000   1.0000   1.0000   1.0000   1.0000   1.0000   1.0000   1.0000
     1.0000   1.0000   1.0000   1.0000   0.0000   0.0000   0.0000   0.0000
     0.0000   0.0000   0.0000   0.0000   0.0000   0.0000   0.0000   0.0000
     0.0000   0.0000

          k = 0.4197 0.2123-0.3951 ( 20397 PWs)   bands (ev):

  -102.6305 -65.3319 -65.2484 -65.1764 -60.3668 -60.3295 -59.6011 -34.0165
   -33.9504 -33.9180 -29.6592 -29.5585 -29.5438 -29.5011 -29.4576 -29.4165
    -8.5022  -8.1782  -8.0242  -7.6885  -7.4393  -7.3272  -7.0614  -6.9435
     1.6038   2.2661   2.3559   2.4446   3.4261   3.6399   3.8471   3.9610
     4.4545   4.7355   5.1118   5.2858   5.6399   5.7963   6.0225   6.2604
     6.4692   6.7398   6.9265   7.1234   7.4901   7.6683   7.9656   7.9986
     8.2321   8.3538   8.5699   8.7851  11.0246  11.9871  12.3624  12.7737
    12.9216  13.0356  13.2208  15.2702  15.4429  15.5685  15.7701  16.1258
    16.3021  16.7950

     occupation numbers 
     1.0000   1.0000   1.0000   1.0000   1.0000   1.0000   1.0000   1.0000
     1.0000   1.0000   1.0000   1.0000   1.0000   1.0000   1.0000   1.0000
     1.0000   1.0000   1.0000   1.0000   1.0000   1.0000   1.0000   1.0000
     1.0000   1.0000   1.0000   1.0000   1.0000   1.0000   1.0000   1.0000
     1.0000   1.0000   1.0000   1.0000   1.0000   1.0000   1.0000   1.0000
     1.0000   1.0000   1.0000   1.0000   1.0000   1.0000   1.0000   1.0000
     1.0000   1.0000   1.0000   1.0000   0.0000   0.0000   0.0000   0.0000
     0.0000   0.0000   0.0000   0.0000   0.0000   0.0000   0.0000   0.0000
     0.0000   0.0000

          k = 0.4186 0.2123-0.2496 ( 20389 PWs)   bands (ev):

  -102.6305 -65.3320 -65.2480 -65.1764 -60.3668 -60.3295 -59.6011 -34.0164
   -33.9504 -33.9180 -29.6603 -29.5598 -29.5398 -29.4994 -29.4605 -29.4170
    -8.6536  -8.0371  -7.9637  -7.6978  -7.4052  -7.2876  -7.1531  -6.9745
     1.5901   2.2647   2.3507   2.4394   3.3660   3.7696   4.0428   4.1826
     4.3822   4.6955   4.7866   5.3889   5.5061   5.7109   6.0198   6.2912
     6.6380   6.8795   7.0391   7.1225   7.3033   7.5000   7.8441   7.9196
     8.2167   8.3679   8.6563   8.7998  11.0804  11.8796  12.4962  12.6865
    12.8645  12.9621  13.3965  15.2775  15.4629  15.7150  15.7757  16.1765
    16.4102  16.7640

     occupation numbers 
     1.0000   1.0000   1.0000   1.0000   1.0000   1.0000   1.0000   1.0000
     1.0000   1.0000   1.0000   1.0000   1.0000   1.0000   1.0000   1.0000
     1.0000   1.0000   1.0000   1.0000   1.0000   1.0000   1.0000   1.0000
     1.0000   1.0000   1.0000   1.0000   1.0000   1.0000   1.0000   1.0000
     1.0000   1.0000   1.0000   1.0000   1.0000   1.0000   1.0000   1.0000
     1.0000   1.0000   1.0000   1.0000   1.0000   1.0000   1.0000   1.0000
     1.0000   1.0000   1.0000   1.0000   0.0000   0.0000   0.0000   0.0000
     0.0000   0.0000   0.0000   0.0000   0.0000   0.0000   0.0000   0.0000
     0.0000   0.0000

          k = 0.4175 0.2123-0.1040 ( 20392 PWs)   bands (ev):

  -102.6305 -65.3322 -65.2477 -65.1764 -60.3668 -60.3295 -59.6011 -34.0164
   -33.9505 -33.9180 -29.6622 -29.5612 -29.5353 -29.4972 -29.4624 -29.4186
    -8.7792  -7.9797  -7.8805  -7.6116  -7.4043  -7.2906  -7.1785  -7.0484
     1.5828   2.2497   2.3352   2.4547   3.3796   3.7989   4.0002   4.2925
     4.4208   4.7385   5.0036   5.1956   5.4981   5.5795   5.9706   6.2014
     6.5873   6.7849   7.0700   7.2860   7.4119   7.5751   7.7840   7.8237
     8.0714   8.4517   8.7117   8.7758  11.1231  12.0302  12.2854  12.5387
    12.8895  12.9860  13.5700  15.2850  15.4709  15.7061  15.7921  16.1674
    16.5185  16.6957

     occupation numbers 
     1.0000   1.0000   1.0000   1.0000   1.0000   1.0000   1.0000   1.0000
     1.0000   1.0000   1.0000   1.0000   1.0000   1.0000   1.0000   1.0000
     1.0000   1.0000   1.0000   1.0000   1.0000   1.0000   1.0000   1.0000
     1.0000   1.0000   1.0000   1.0000   1.0000   1.0000   1.0000   1.0000
     1.0000   1.0000   1.0000   1.0000   1.0000   1.0000   1.0000   1.0000
     1.0000   1.0000   1.0000   1.0000   1.0000   1.0000   1.0000   1.0000
     1.0000   1.0000   1.0000   1.0000   0.0000   0.0000   0.0000   0.0000
     0.0000   0.0000   0.0000   0.0000   0.0000   0.0000   0.0000   0.0000
     0.0000   0.0000

          k = 0.4165 0.3614 0.0380 ( 20356 PWs)   bands (ev):

  -102.6305 -65.3321 -65.2476 -65.1764 -60.3668 -60.3295 -59.6011 -34.0164
   -33.9505 -33.9180 -29.6620 -29.5610 -29.5342 -29.4978 -29.4622 -29.4198
    -8.7161  -8.0096  -7.9156  -7.5270  -7.4447  -7.3577  -7.1558  -7.0670
     1.6182   2.2267   2.2942   2.4305   3.3025   3.9190   4.1490   4.2273
     4.5934   4.9073   5.1630   5.3360   5.4723   5.5960   5.9406   6.1995
     6.3570   6.6927   6.9883   7.1750   7.3675   7.6059   7.7097   8.0025
     8.0754   8.2446   8.5179   8.6690  11.0090  12.0834  12.4440  12.4907
    12.8018  13.1109  13.4866  15.0951  15.4925  15.6505  15.7035  16.0715
    16.4738  16.8714

     occupation numbers 
     1.0000   1.0000   1.0000   1.0000   1.0000   1.0000   1.0000   1.0000
     1.0000   1.0000   1.0000   1.0000   1.0000   1.0000   1.0000   1.0000
     1.0000   1.0000   1.0000   1.0000   1.0000   1.0000   1.0000   1.0000
     1.0000   1.0000   1.0000   1.0000   1.0000   1.0000   1.0000   1.0000
     1.0000   1.0000   1.0000   1.0000   1.0000   1.0000   1.0000   1.0000
     1.0000   1.0000   1.0000   1.0000   1.0000   1.0000   1.0000   1.0000
     1.0000   1.0000   1.0000   1.0000   0.0000   0.0000   0.0000   0.0000
     0.0000   0.0000   0.0000   0.0000   0.0000   0.0000   0.0000   0.0000
     0.0000   0.0000

          k = 0.4154 0.3614 0.1836 ( 20375 PWs)   bands (ev):

  -102.6305 -65.3320 -65.2479 -65.1764 -60.3668 -60.3295 -59.6011 -34.0164
   -33.9505 -33.9180 -29.6616 -29.5599 -29.5391 -29.4989 -29.4592 -29.4181
    -8.6579  -8.1138  -7.8836  -7.5582  -7.4194  -7.3526  -7.1747  -7.0248
     1.6335   2.2313   2.3131   2.4057   3.3032   3.7262   4.1469   4.1999
     4.4622   4.7982   5.1222   5.3973   5.6077   5.7853   5.9645   6.1660
     6.7147   6.7777   6.8670   7.1760   7.3336   7.5634   7.8447   7.9384
     8.0302   8.2320   8.4672   8.6354  11.0425  11.8985  12.4808  12.5884
    12.7816  13.1700  13.4379  15.0203  15.4133  15.5603  15.6787  16.1348
    16.5398  16.7030

     occupation numbers 
     1.0000   1.0000   1.0000   1.0000   1.0000   1.0000   1.0000   1.0000
     1.0000   1.0000   1.0000   1.0000   1.0000   1.0000   1.0000   1.0000
     1.0000   1.0000   1.0000   1.0000   1.0000   1.0000   1.0000   1.0000
     1.0000   1.0000   1.0000   1.0000   1.0000   1.0000   1.0000   1.0000
     1.0000   1.0000   1.0000   1.0000   1.0000   1.0000   1.0000   1.0000
     1.0000   1.0000   1.0000   1.0000   1.0000   1.0000   1.0000   1.0000
     1.0000   1.0000   1.0000   1.0000   0.0000   0.0000   0.0000   0.0000
     0.0000   0.0000   0.0000   0.0000   0.0000   0.0000   0.0000   0.0000
     0.0000   0.0000

          k = 0.4143 0.3614 0.3291 ( 20391 PWs)   bands (ev):

  -102.6305 -65.3318 -65.2482 -65.1764 -60.3668 -60.3295 -59.6011 -34.0165
   -33.9504 -33.9180 -29.6606 -29.5588 -29.5442 -29.5003 -29.4563 -29.4165
    -8.5514  -8.1865  -7.9264  -7.6130  -7.4322  -7.3189  -7.1252  -7.0298
     1.6420   2.2421   2.3305   2.4110   3.3711   3.6369   3.8590   4.0423
     4.5987   4.9543   5.1845   5.3266   5.5615   5.8141   6.0762   6.3052
     6.5778   6.7610   7.0469   7.2084   7.3314   7.7232   7.8163   7.9505
     7.9856   8.1190   8.3971   8.6197  11.0432  11.9667  12.2818  12.6386
    12.7846  13.1329  13.3989  15.0626  15.3405  15.4717  15.6956  16.2142
    16.3805  16.7645

     occupation numbers 
     1.0000   1.0000   1.0000   1.0000   1.0000   1.0000   1.0000   1.0000
     1.0000   1.0000   1.0000   1.0000   1.0000   1.0000   1.0000   1.0000
     1.0000   1.0000   1.0000   1.0000   1.0000   1.0000   1.0000   1.0000
     1.0000   1.0000   1.0000   1.0000   1.0000   1.0000   1.0000   1.0000
     1.0000   1.0000   1.0000   1.0000   1.0000   1.0000   1.0000   1.0000
     1.0000   1.0000   1.0000   1.0000   1.0000   1.0000   1.0000   1.0000
     1.0000   1.0000   1.0000   1.0000   0.0000   0.0000   0.0000   0.0000
     0.0000   0.0000   0.0000   0.0000   0.0000   0.0000   0.0000   0.0000
     0.0000   0.0000

          k = 0.4197 0.3615-0.3986 ( 20397 PWs)   bands (ev):

  -102.6305 -65.3319 -65.2482 -65.1764 -60.3668 -60.3295 -59.6011 -34.0165
   -33.9504 -33.9180 -29.6601 -29.5588 -29.5445 -29.5006 -29.4567 -29.4161
    -8.5095  -8.1862  -7.9709  -7.6165  -7.4285  -7.3149  -7.1630  -7.0014
     1.6356   2.2461   2.3374   2.4210   3.4728   3.6616   3.8355   3.9647
     4.5971   4.9267   5.2069   5.3198   5.5736   5.7185   6.1401   6.3643
     6.6454   6.7486   6.9916   7.1803   7.4222   7.6287   7.8256   7.8672
     7.9406   8.1639   8.3464   8.6858  11.0490  11.9341  12.2380  12.7125
    12.8734  13.0173  13.3301  15.1620  15.3280  15.5005  15.7662  16.2129
    16.3279  16.7790

     occupation numbers 
     1.0000   1.0000   1.0000   1.0000   1.0000   1.0000   1.0000   1.0000
     1.0000   1.0000   1.0000   1.0000   1.0000   1.0000   1.0000   1.0000
     1.0000   1.0000   1.0000   1.0000   1.0000   1.0000   1.0000   1.0000
     1.0000   1.0000   1.0000   1.0000   1.0000   1.0000   1.0000   1.0000
     1.0000   1.0000   1.0000   1.0000   1.0000   1.0000   1.0000   1.0000
     1.0000   1.0000   1.0000   1.0000   1.0000   1.0000   1.0000   1.0000
     1.0000   1.0000   1.0000   1.0000   0.0000   0.0000   0.0000   0.0000
     0.0000   0.0000   0.0000   0.0000   0.0000   0.0000   0.0000   0.0000
     0.0000   0.0000

          k = 0.4186 0.3614-0.2531 ( 20387 PWs)   bands (ev):

  -102.6305 -65.3320 -65.2479 -65.1764 -60.3668 -60.3295 -59.6011 -34.0164
   -33.9505 -33.9180 -29.6607 -29.5599 -29.5397 -29.4994 -29.4600 -29.4173
    -8.6015  -8.0923  -7.9337  -7.6012  -7.4531  -7.3309  -7.1872  -6.9996
     1.6208   2.2399   2.3208   2.4300   3.3811   3.9031   4.0272   4.1991
     4.4564   4.7897   4.9701   5.3918   5.5174   5.7289   6.1795   6.3179
     6.5809   6.8154   7.0038   7.1376   7.2747   7.4518   7.7929   7.9032
     7.9854   8.2289   8.4275   8.7205  11.0278  11.9027  12.4131  12.6379
    12.8771  13.0289  13.3222  15.1805  15.4217  15.6370  15.7562  16.1868
    16.4990  16.6649

     occupation numbers 
     1.0000   1.0000   1.0000   1.0000   1.0000   1.0000   1.0000   1.0000
     1.0000   1.0000   1.0000   1.0000   1.0000   1.0000   1.0000   1.0000
     1.0000   1.0000   1.0000   1.0000   1.0000   1.0000   1.0000   1.0000
     1.0000   1.0000   1.0000   1.0000   1.0000   1.0000   1.0000   1.0000
     1.0000   1.0000   1.0000   1.0000   1.0000   1.0000   1.0000   1.0000
     1.0000   1.0000   1.0000   1.0000   1.0000   1.0000   1.0000   1.0000
     1.0000   1.0000   1.0000   1.0000   0.0000   0.0000   0.0000   0.0000
     0.0000   0.0000   0.0000   0.0000   0.0000   0.0000   0.0000   0.0000
     0.0000   0.0000

          k = 0.4176 0.3614-0.1075 ( 20360 PWs)   bands (ev):

  -102.6305 -65.3321 -65.2476 -65.1764 -60.3668 -60.3295 -59.6011 -34.0164
   -33.9505 -33.9180 -29.6616 -29.5610 -29.5345 -29.4979 -29.4627 -29.4194
    -8.6937  -8.0075  -7.8968  -7.6064  -7.4569  -7.3285  -7.1539  -7.0570
     1.6119   2.2321   2.2952   2.4436   3.3240   4.0013   4.1591   4.2575
     4.6029   4.8347   4.9711   5.2907   5.6125   5.6778   5.8285   6.2017
     6.4514   6.7543   6.9802   7.1239   7.3630   7.5099   7.7793   7.9496
     8.0442   8.2512   8.5165   8.6904  10.9928  12.1460  12.3642  12.5629
    12.7343  13.0884  13.4416  15.1625  15.4923  15.6883  15.7589  16.0974
    16.4957  16.8051

     occupation numbers 
     1.0000   1.0000   1.0000   1.0000   1.0000   1.0000   1.0000   1.0000
     1.0000   1.0000   1.0000   1.0000   1.0000   1.0000   1.0000   1.0000
     1.0000   1.0000   1.0000   1.0000   1.0000   1.0000   1.0000   1.0000
     1.0000   1.0000   1.0000   1.0000   1.0000   1.0000   1.0000   1.0000
     1.0000   1.0000   1.0000   1.0000   1.0000   1.0000   1.0000   1.0000
     1.0000   1.0000   1.0000   1.0000   1.0000   1.0000   1.0000   1.0000
     1.0000   1.0000   1.0000   1.0000   0.0000   0.0000   0.0000   0.0000
     0.0000   0.0000   0.0000   0.0000   0.0000   0.0000   0.0000   0.0000
     0.0000   0.0000

          k = 0.4162-0.3841 0.0555 ( 20358 PWs)   bands (ev):

  -102.6305 -65.3321 -65.2476 -65.1764 -60.3668 -60.3295 -59.6011 -34.0164
   -33.9505 -33.9180 -29.6616 -29.5610 -29.5345 -29.4979 -29.4626 -29.4194
    -8.6900  -8.0258  -7.9445  -7.5839  -7.3942  -7.3263  -7.1417  -7.0880
     1.6162   2.2419   2.2869   2.4322   3.3119   3.9225   4.1225   4.2521
     4.5744   4.9174   5.1423   5.3539   5.4605   5.6198   5.9285   6.1723
     6.3417   6.7184   6.9613   7.1816   7.3953   7.6075   7.6827   8.0281
     8.0770   8.2668   8.5124   8.6501  11.0058  12.0729  12.3864  12.5863
    12.8083  13.0994  13.4801  15.0676  15.4860  15.6579  15.7016  16.1048
    16.4659  16.8735

     occupation numbers 
     1.0000   1.0000   1.0000   1.0000   1.0000   1.0000   1.0000   1.0000
     1.0000   1.0000   1.0000   1.0000   1.0000   1.0000   1.0000   1.0000
     1.0000   1.0000   1.0000   1.0000   1.0000   1.0000   1.0000   1.0000
     1.0000   1.0000   1.0000   1.0000   1.0000   1.0000   1.0000   1.0000
     1.0000   1.0000   1.0000   1.0000   1.0000   1.0000   1.0000   1.0000
     1.0000   1.0000   1.0000   1.0000   1.0000   1.0000   1.0000   1.0000
     1.0000   1.0000   1.0000   1.0000   0.0000   0.0000   0.0000   0.0000
     0.0000   0.0000   0.0000   0.0000   0.0000   0.0000   0.0000   0.0000
     0.0000   0.0000

          k = 0.4151-0.3842 0.2010 ( 20364 PWs)   bands (ev):

  -102.6305 -65.3320 -65.2479 -65.1764 -60.3668 -60.3295 -59.6011 -34.0164
   -33.9504 -33.9180 -29.6607 -29.5599 -29.5396 -29.4994 -29.4599 -29.4174
    -8.6157  -8.1350  -7.9294  -7.6299  -7.3707  -7.2615  -7.2017  -7.0423
     1.6312   2.2475   2.3071   2.4074   3.2973   3.6981   4.1396   4.2380
     4.4885   4.9076   5.0290   5.3989   5.5667   5.7009   6.0265   6.1681
     6.6444   6.7930   6.9313   7.1476   7.3489   7.6076   7.7879   7.8777
     8.0874   8.2768   8.4543   8.6270  11.0367  11.8800  12.4814  12.6246
    12.8146  13.1517  13.4316  14.9679  15.4185  15.5799  15.6827  16.1549
    16.5360  16.6862

     occupation numbers 
     1.0000   1.0000   1.0000   1.0000   1.0000   1.0000   1.0000   1.0000
     1.0000   1.0000   1.0000   1.0000   1.0000   1.0000   1.0000   1.0000
     1.0000   1.0000   1.0000   1.0000   1.0000   1.0000   1.0000   1.0000
     1.0000   1.0000   1.0000   1.0000   1.0000   1.0000   1.0000   1.0000
     1.0000   1.0000   1.0000   1.0000   1.0000   1.0000   1.0000   1.0000
     1.0000   1.0000   1.0000   1.0000   1.0000   1.0000   1.0000   1.0000
     1.0000   1.0000   1.0000   1.0000   0.0000   0.0000   0.0000   0.0000
     0.0000   0.0000   0.0000   0.0000   0.0000   0.0000   0.0000   0.0000
     0.0000   0.0000

          k = 0.4140-0.3842 0.3466 ( 20382 PWs)   bands (ev):

  -102.6305 -65.3318 -65.2482 -65.1764 -60.3668 -60.3295 -59.6011 -34.0165
   -33.9504 -33.9180 -29.6601 -29.5588 -29.5445 -29.5006 -29.4566 -29.4161
    -8.5139  -8.2190  -7.9170  -7.6738  -7.4278  -7.2776  -7.1159  -7.0397
     1.6398   2.2559   2.3258   2.4162   3.3841   3.5490   3.8698   4.1181
     4.6793   4.9070   5.1603   5.3274   5.5107   5.7547   6.1808   6.2723
     6.5682   6.7999   7.0202   7.1750   7.3683   7.7241   7.7962   7.8998
     8.0088   8.1694   8.3848   8.6180  11.0457  11.9531  12.2964  12.6466
    12.8020  13.1240  13.3943  15.0171  15.3740  15.4668  15.7001  16.2082
    16.3868  16.7780

     occupation numbers 
     1.0000   1.0000   1.0000   1.0000   1.0000   1.0000   1.0000   1.0000
     1.0000   1.0000   1.0000   1.0000   1.0000   1.0000   1.0000   1.0000
     1.0000   1.0000   1.0000   1.0000   1.0000   1.0000   1.0000   1.0000
     1.0000   1.0000   1.0000   1.0000   1.0000   1.0000   1.0000   1.0000
     1.0000   1.0000   1.0000   1.0000   1.0000   1.0000   1.0000   1.0000
     1.0000   1.0000   1.0000   1.0000   1.0000   1.0000   1.0000   1.0000
     1.0000   1.0000   1.0000   1.0000   0.0000   0.0000   0.0000   0.0000
     0.0000   0.0000   0.0000   0.0000   0.0000   0.0000   0.0000   0.0000
     0.0000   0.0000

          k = 0.4194-0.3841-0.3812 ( 20391 PWs)   bands (ev):

  -102.6305 -65.3319 -65.2482 -65.1764 -60.3668 -60.3295 -59.6011 -34.0165
   -33.9504 -33.9180 -29.6606 -29.5588 -29.5443 -29.5003 -29.4563 -29.4164
    -8.5198  -8.1876  -7.9019  -7.6616  -7.4604  -7.3356  -7.1282  -6.9967
     1.6336   2.2527   2.3375   2.4295   3.4878   3.6215   3.8239   3.9964
     4.6961   4.7859   5.1879   5.3160   5.6107   5.7661   6.0981   6.3291
     6.6587   6.8150   6.9956   7.1660   7.4225   7.6103   7.7962   7.8999
     7.9880   8.1105   8.3339   8.6913  11.0631  11.9638  12.1979  12.7264
    12.8544  13.0162  13.3365  15.1717  15.3361  15.4794  15.7553  16.2196
    16.3350  16.7950

     occupation numbers 
     1.0000   1.0000   1.0000   1.0000   1.0000   1.0000   1.0000   1.0000
     1.0000   1.0000   1.0000   1.0000   1.0000   1.0000   1.0000   1.0000
     1.0000   1.0000   1.0000   1.0000   1.0000   1.0000   1.0000   1.0000
     1.0000   1.0000   1.0000   1.0000   1.0000   1.0000   1.0000   1.0000
     1.0000   1.0000   1.0000   1.0000   1.0000   1.0000   1.0000   1.0000
     1.0000   1.0000   1.0000   1.0000   1.0000   1.0000   1.0000   1.0000
     1.0000   1.0000   1.0000   1.0000   0.0000   0.0000   0.0000   0.0000
     0.0000   0.0000   0.0000   0.0000   0.0000   0.0000   0.0000   0.0000
     0.0000   0.0000

          k = 0.4184-0.3841-0.2356 ( 20374 PWs)   bands (ev):

  -102.6305 -65.3320 -65.2479 -65.1764 -60.3668 -60.3295 -59.6011 -34.0164
   -33.9505 -33.9180 -29.6616 -29.5599 -29.5392 -29.4989 -29.4593 -29.4181
    -8.6174  -8.1013  -7.8479  -7.5960  -7.4949  -7.4047  -7.1592  -6.9787
     1.6190   2.2432   2.3224   2.4372   3.4222   3.8519   4.0217   4.2098
     4.4471   4.7128   5.0219   5.3483   5.5922   5.7471   6.1013   6.3451
     6.6328   6.8005   7.0199   7.1673   7.2274   7.4566   7.8019   7.9125
     7.9996   8.1984   8.4117   8.7213  11.0468  11.9266  12.3691  12.6496
    12.8482  13.0408  13.3258  15.2141  15.4356  15.5960  15.7481  16.1640
    16.5183  16.6923

     occupation numbers 
     1.0000   1.0000   1.0000   1.0000   1.0000   1.0000   1.0000   1.0000
     1.0000   1.0000   1.0000   1.0000   1.0000   1.0000   1.0000   1.0000
     1.0000   1.0000   1.0000   1.0000   1.0000   1.0000   1.0000   1.0000
     1.0000   1.0000   1.0000   1.0000   1.0000   1.0000   1.0000   1.0000
     1.0000   1.0000   1.0000   1.0000   1.0000   1.0000   1.0000   1.0000
     1.0000   1.0000   1.0000   1.0000   1.0000   1.0000   1.0000   1.0000
     1.0000   1.0000   1.0000   1.0000   0.0000   0.0000   0.0000   0.0000
     0.0000   0.0000   0.0000   0.0000   0.0000   0.0000   0.0000   0.0000
     0.0000   0.0000

          k = 0.4173-0.3841-0.0901 ( 20386 PWs)   bands (ev):

  -102.6305 -65.3321 -65.2476 -65.1764 -60.3668 -60.3295 -59.6011 -34.0164
   -33.9505 -33.9180 -29.6620 -29.5610 -29.5342 -29.4977 -29.4623 -29.4198
    -8.6895  -8.0412  -7.8494  -7.5750  -7.5066  -7.3495  -7.1633  -7.0269
     1.6102   2.2415   2.2908   2.4474   3.3596   4.0051   4.0935   4.2565
     4.6015   4.7802   5.0384   5.3238   5.5264   5.6862   5.8461   6.2394
     6.5219   6.6829   6.9529   7.1564   7.3189   7.5255   7.7765   7.9864
     8.0703   8.2408   8.5025   8.6754  11.0017  12.1615  12.3890  12.4978
    12.7546  13.0897  13.4365  15.1731  15.5060  15.6626  15.7568  16.0804
    16.4991  16.8811

     occupation numbers 
     1.0000   1.0000   1.0000   1.0000   1.0000   1.0000   1.0000   1.0000
     1.0000   1.0000   1.0000   1.0000   1.0000   1.0000   1.0000   1.0000
     1.0000   1.0000   1.0000   1.0000   1.0000   1.0000   1.0000   1.0000
     1.0000   1.0000   1.0000   1.0000   1.0000   1.0000   1.0000   1.0000
     1.0000   1.0000   1.0000   1.0000   1.0000   1.0000   1.0000   1.0000
     1.0000   1.0000   1.0000   1.0000   1.0000   1.0000   1.0000   1.0000
     1.0000   1.0000   1.0000   1.0000   0.0000   0.0000   0.0000   0.0000
     0.0000   0.0000   0.0000   0.0000   0.0000   0.0000   0.0000   0.0000
     0.0000   0.0000

          k = 0.4162-0.2350 0.0520 ( 20383 PWs)   bands (ev):

  -102.6305 -65.3322 -65.2478 -65.1764 -60.3668 -60.3295 -59.6011 -34.0164
   -33.9504 -33.9180 -29.6621 -29.5612 -29.5353 -29.4972 -29.4624 -29.4187
    -8.7659  -8.0012  -7.9290  -7.5867  -7.4043  -7.2490  -7.1745  -7.0564
     1.5860   2.2622   2.3217   2.4514   3.4549   3.8086   3.9294   4.1666
     4.3914   4.7211   5.0582   5.2093   5.3870   5.5977   6.1634   6.3754
     6.4154   6.7143   7.1344   7.1786   7.4302   7.5916   7.7474   7.9759
     8.0718   8.4937   8.6564   8.7817  11.1082  11.9965  12.3091  12.5654
    12.8959  13.0432  13.5908  15.1635  15.4683  15.6912  15.7480  16.1319
    16.4557  16.7891

     occupation numbers 
     1.0000   1.0000   1.0000   1.0000   1.0000   1.0000   1.0000   1.0000
     1.0000   1.0000   1.0000   1.0000   1.0000   1.0000   1.0000   1.0000
     1.0000   1.0000   1.0000   1.0000   1.0000   1.0000   1.0000   1.0000
     1.0000   1.0000   1.0000   1.0000   1.0000   1.0000   1.0000   1.0000
     1.0000   1.0000   1.0000   1.0000   1.0000   1.0000   1.0000   1.0000
     1.0000   1.0000   1.0000   1.0000   1.0000   1.0000   1.0000   1.0000
     1.0000   1.0000   1.0000   1.0000   0.0000   0.0000   0.0000   0.0000
     0.0000   0.0000   0.0000   0.0000   0.0000   0.0000   0.0000   0.0000
     0.0000   0.0000

          k = 0.4152-0.2350 0.1976 ( 20393 PWs)   bands (ev):

  -102.6305 -65.3320 -65.2481 -65.1764 -60.3668 -60.3295 -59.6011 -34.0164
   -33.9504 -33.9180 -29.6602 -29.5598 -29.5398 -29.4994 -29.4604 -29.4171
    -8.6572  -8.0814  -7.9646  -7.6844  -7.4227  -7.2400  -7.1064  -7.0028
     1.5986   2.2723   2.3247   2.4398   3.3919   3.7077   4.0137   4.1584
     4.3353   4.5779   4.8988   5.2281   5.5573   5.8509   6.1220   6.2876
     6.5923   6.9434   7.0013   7.0401   7.3007   7.6378   7.7476   8.0423
     8.2476   8.4238   8.6404   8.7704  11.0539  11.8774  12.4645  12.7266
    12.8366  13.1018  13.4680  15.0331  15.4406  15.6577  15.7365  16.0972
    16.4735  16.6960

     occupation numbers 
     1.0000   1.0000   1.0000   1.0000   1.0000   1.0000   1.0000   1.0000
     1.0000   1.0000   1.0000   1.0000   1.0000   1.0000   1.0000   1.0000
     1.0000   1.0000   1.0000   1.0000   1.0000   1.0000   1.0000   1.0000
     1.0000   1.0000   1.0000   1.0000   1.0000   1.0000   1.0000   1.0000
     1.0000   1.0000   1.0000   1.0000   1.0000   1.0000   1.0000   1.0000
     1.0000   1.0000   1.0000   1.0000   1.0000   1.0000   1.0000   1.0000
     1.0000   1.0000   1.0000   1.0000   0.0000   0.0000   0.0000   0.0000
     0.0000   0.0000   0.0000   0.0000   0.0000   0.0000   0.0000   0.0000
     0.0000   0.0000

          k = 0.4141-0.2351 0.3431 ( 20408 PWs)   bands (ev):

  -102.6305 -65.3319 -65.2484 -65.1764 -60.3668 -60.3295 -59.6011 -34.0165
   -33.9504 -33.9180 -29.6591 -29.5585 -29.5438 -29.5012 -29.4575 -29.4165
    -8.4963  -8.2176  -7.9473  -7.7582  -7.4688  -7.2958  -6.9977  -6.9776
     1.6057   2.2821   2.3347   2.4604   3.4031   3.5535   3.8375   4.0794
     4.4240   4.7316   4.9860   5.3962   5.5590   5.8332   6.0738   6.1728
     6.5766   6.7179   6.9358   7.1593   7.3949   7.7503   7.9068   8.0486
     8.2585   8.3933   8.5735   8.7551  11.0200  11.9993  12.3615  12.7642
    12.8697  13.1276  13.2721  15.0954  15.4469  15.5652  15.7037  16.1488
    16.3395  16.8061

     occupation numbers 
     1.0000   1.0000   1.0000   1.0000   1.0000   1.0000   1.0000   1.0000
     1.0000   1.0000   1.0000   1.0000   1.0000   1.0000   1.0000   1.0000
     1.0000   1.0000   1.0000   1.0000   1.0000   1.0000   1.0000   1.0000
     1.0000   1.0000   1.0000   1.0000   1.0000   1.0000   1.0000   1.0000
     1.0000   1.0000   1.0000   1.0000   1.0000   1.0000   1.0000   1.0000
     1.0000   1.0000   1.0000   1.0000   1.0000   1.0000   1.0000   1.0000
     1.0000   1.0000   1.0000   1.0000   0.0000   0.0000   0.0000   0.0000
     0.0000   0.0000   0.0000   0.0000   0.0000   0.0000   0.0000   0.0000
     0.0000   0.0000

          k = 0.4195-0.2350-0.3847 ( 20406 PWs)   bands (ev):

  -102.6305 -65.3319 -65.2484 -65.1764 -60.3668 -60.3295 -59.6011 -34.0165
   -33.9504 -33.9180 -29.6601 -29.5586 -29.5433 -29.5005 -29.4569 -29.4172
    -8.5269  -8.1603  -7.9259  -7.7459  -7.4908  -7.3576  -7.0208  -6.9383
     1.6004   2.2811   2.3509   2.4645   3.4205   3.6272   3.8290   4.0190
     4.4637   4.6352   5.1125   5.2656   5.7139   5.7928   5.9958   6.2477
     6.4879   6.7915   6.9031   7.1489   7.4889   7.6673   7.8813   8.0324
     8.2440   8.3833   8.5254   8.7847  11.0535  12.0500  12.2730  12.7982
    12.9039  13.0184  13.2382  15.3015  15.4423  15.5187  15.7363  16.1698
    16.3316  16.8111

     occupation numbers 
     1.0000   1.0000   1.0000   1.0000   1.0000   1.0000   1.0000   1.0000
     1.0000   1.0000   1.0000   1.0000   1.0000   1.0000   1.0000   1.0000
     1.0000   1.0000   1.0000   1.0000   1.0000   1.0000   1.0000   1.0000
     1.0000   1.0000   1.0000   1.0000   1.0000   1.0000   1.0000   1.0000
     1.0000   1.0000   1.0000   1.0000   1.0000   1.0000   1.0000   1.0000
     1.0000   1.0000   1.0000   1.0000   1.0000   1.0000   1.0000   1.0000
     1.0000   1.0000   1.0000   1.0000   0.0000   0.0000   0.0000   0.0000
     0.0000   0.0000   0.0000   0.0000   0.0000   0.0000   0.0000   0.0000
     0.0000   0.0000

          k = 0.4184-0.2350-0.2391 ( 20396 PWs)   bands (ev):

  -102.6305 -65.3320 -65.2480 -65.1764 -60.3668 -60.3295 -59.6011 -34.0164
   -33.9504 -33.9180 -29.6620 -29.5600 -29.5388 -29.4984 -29.4591 -29.4186
    -8.6795  -8.0610  -7.8246  -7.6581  -7.4894  -7.4202  -7.1015  -6.9397
     1.5876   2.2690   2.3514   2.4575   3.4359   3.7510   4.0206   4.1725
     4.3010   4.5877   4.8786   5.3482   5.5355   5.7550   5.9756   6.3482
     6.7300   6.8817   7.0190   7.1101   7.2427   7.6251   7.7433   7.9226
     8.1726   8.4378   8.6160   8.7902  11.1232  11.9095  12.4502  12.6260
    12.8516  13.0148  13.3846  15.3898  15.4575  15.6419  15.7452  16.1180
    16.4968  16.7930

     occupation numbers 
     1.0000   1.0000   1.0000   1.0000   1.0000   1.0000   1.0000   1.0000
     1.0000   1.0000   1.0000   1.0000   1.0000   1.0000   1.0000   1.0000
     1.0000   1.0000   1.0000   1.0000   1.0000   1.0000   1.0000   1.0000
     1.0000   1.0000   1.0000   1.0000   1.0000   1.0000   1.0000   1.0000
     1.0000   1.0000   1.0000   1.0000   1.0000   1.0000   1.0000   1.0000
     1.0000   1.0000   1.0000   1.0000   1.0000   1.0000   1.0000   1.0000
     1.0000   1.0000   1.0000   1.0000   0.0000   0.0000   0.0000   0.0000
     0.0000   0.0000   0.0000   0.0000   0.0000   0.0000   0.0000   0.0000
     0.0000   0.0000

          k = 0.4173-0.2350-0.0936 ( 20390 PWs)   bands (ev):

  -102.6305 -65.3322 -65.2477 -65.1764 -60.3668 -60.3295 -59.6011 -34.0164
   -33.9504 -33.9180 -29.6630 -29.5612 -29.5348 -29.4968 -29.4616 -29.4195
    -8.7728  -8.0298  -7.8088  -7.5423  -7.4939  -7.3536  -7.1761  -6.9968
     1.5804   2.2604   2.3310   2.4655   3.4689   3.8305   3.8906   4.2191
     4.3988   4.7320   5.0544   5.2511   5.3940   5.6712   5.8078   6.3499
     6.6220   6.8056   7.0644   7.2269   7.3862   7.5987   7.7451   7.8940
     8.0428   8.5026   8.6908   8.7490  11.1421  12.0484  12.2987  12.4800
    12.8958  13.0024  13.5547  15.3182  15.4884  15.6874  15.7741  16.1077
    16.5225  16.8220

     occupation numbers 
     1.0000   1.0000   1.0000   1.0000   1.0000   1.0000   1.0000   1.0000
     1.0000   1.0000   1.0000   1.0000   1.0000   1.0000   1.0000   1.0000
     1.0000   1.0000   1.0000   1.0000   1.0000   1.0000   1.0000   1.0000
     1.0000   1.0000   1.0000   1.0000   1.0000   1.0000   1.0000   1.0000
     1.0000   1.0000   1.0000   1.0000   1.0000   1.0000   1.0000   1.0000
     1.0000   1.0000   1.0000   1.0000   1.0000   1.0000   1.0000   1.0000
     1.0000   1.0000   1.0000   1.0000   0.0000   0.0000   0.0000   0.0000
     0.0000   0.0000   0.0000   0.0000   0.0000   0.0000   0.0000   0.0000
     0.0000   0.0000

          k = 0.4163-0.0859 0.0485 ( 20397 PWs)   bands (ev):

  -102.6305 -65.3322 -65.2479 -65.1764 -60.3668 -60.3295 -59.6011 -34.0164
   -33.9504 -33.9180 -29.6631 -29.5614 -29.5359 -29.4963 -29.4617 -29.4183
    -8.8493  -8.0251  -7.8027  -7.5503  -7.4979  -7.2578  -7.1393  -7.0159
     1.5605   2.2710   2.3361   2.4877   3.6047   3.7188   3.7678   4.0522
     4.2757   4.5897   4.8920   5.1158   5.3168   5.6908   5.9755   6.5504
     6.7783   6.8747   7.1240   7.2574   7.3459   7.5731   7.7495   7.8896
     8.1230   8.7077   8.8049   8.9524  11.2299  11.9460  12.2779  12.4406
    12.9742  13.0663  13.6476  15.2416  15.5083  15.6576  15.7808  16.1036
    16.5336  16.7218

     occupation numbers 
     1.0000   1.0000   1.0000   1.0000   1.0000   1.0000   1.0000   1.0000
     1.0000   1.0000   1.0000   1.0000   1.0000   1.0000   1.0000   1.0000
     1.0000   1.0000   1.0000   1.0000   1.0000   1.0000   1.0000   1.0000
     1.0000   1.0000   1.0000   1.0000   1.0000   1.0000   1.0000   1.0000
     1.0000   1.0000   1.0000   1.0000   1.0000   1.0000   1.0000   1.0000
     1.0000   1.0000   1.0000   1.0000   1.0000   1.0000   1.0000   1.0000
     1.0000   1.0000   1.0000   1.0000   0.0000   0.0000   0.0000   0.0000
     0.0000   0.0000   0.0000   0.0000   0.0000   0.0000   0.0000   0.0000
     0.0000   0.0000

          k = 0.4152-0.0859 0.1941 ( 20398 PWs)   bands (ev):

  -102.6305 -65.3321 -65.2483 -65.1764 -60.3668 -60.3295 -59.6011 -34.0164
   -33.9504 -33.9180 -29.6607 -29.5598 -29.5395 -29.4989 -29.4602 -29.4175
    -8.7304  -8.0155  -7.9538  -7.6464  -7.5243  -7.3119  -6.9960  -6.9533
     1.5717   2.2820   2.3277   2.4817   3.4925   3.6781   3.9269   4.1500
     4.2192   4.3476   4.8284   4.8604   5.6434   6.0555   6.1658   6.2690
     6.6635   6.6936   6.9440   7.1821   7.4891   7.5916   7.8622   8.0762
     8.3428   8.5778   8.8581   8.9077  11.0770  11.9035  12.4668  12.6936
    12.9507  13.0399  13.4964  15.1487  15.4597  15.6753  15.8139  15.9742
    16.4325  16.7416

     occupation numbers 
     1.0000   1.0000   1.0000   1.0000   1.0000   1.0000   1.0000   1.0000
     1.0000   1.0000   1.0000   1.0000   1.0000   1.0000   1.0000   1.0000
     1.0000   1.0000   1.0000   1.0000   1.0000   1.0000   1.0000   1.0000
     1.0000   1.0000   1.0000   1.0000   1.0000   1.0000   1.0000   1.0000
     1.0000   1.0000   1.0000   1.0000   1.0000   1.0000   1.0000   1.0000
     1.0000   1.0000   1.0000   1.0000   1.0000   1.0000   1.0000   1.0000
     1.0000   1.0000   1.0000   1.0000   0.0000   0.0000   0.0000   0.0000
     0.0000   0.0000   0.0000   0.0000   0.0000   0.0000   0.0000   0.0000
     0.0000   0.0000

          k = 0.4141-0.0860 0.3396 ( 20393 PWs)   bands (ev):

  -102.6305 -65.3320 -65.2486 -65.1764 -60.3668 -60.3295 -59.6011 -34.0165
   -33.9504 -33.9180 -29.6587 -29.5582 -29.5429 -29.5014 -29.4582 -29.4173
    -8.5276  -8.1796  -7.9699  -7.7609  -7.5289  -7.3516  -6.9156  -6.8980
     1.5770   2.2974   2.3370   2.5013   3.4597   3.5076   3.7686   3.9464
     4.4120   4.7581   4.8604   5.1463   5.6639   5.8933   6.0078   6.0847
     6.3757   6.5102   6.9532   7.2930   7.5826   7.7693   8.0376   8.1391
     8.4420   8.5407   8.8001   8.8867  10.9840  12.0194  12.5731  12.7980
    12.9359  13.0365  13.2088  15.2526  15.4861  15.6364  15.6974  16.0834
    16.2599  16.9015

     occupation numbers 
     1.0000   1.0000   1.0000   1.0000   1.0000   1.0000   1.0000   1.0000
     1.0000   1.0000   1.0000   1.0000   1.0000   1.0000   1.0000   1.0000
     1.0000   1.0000   1.0000   1.0000   1.0000   1.0000   1.0000   1.0000
     1.0000   1.0000   1.0000   1.0000   1.0000   1.0000   1.0000   1.0000
     1.0000   1.0000   1.0000   1.0000   1.0000   1.0000   1.0000   1.0000
     1.0000   1.0000   1.0000   1.0000   1.0000   1.0000   1.0000   1.0000
     1.0000   1.0000   1.0000   1.0000   0.0000   0.0000   0.0000   0.0000
     0.0000   0.0000   0.0000   0.0000   0.0000   0.0000   0.0000   0.0000
     0.0000   0.0000

          k = 0.4196-0.0859-0.3882 ( 20425 PWs)   bands (ev):

  -102.6305 -65.3320 -65.2486 -65.1764 -60.3668 -60.3295 -59.6011 -34.0165
   -33.9504 -33.9180 -29.6591 -29.5583 -29.5426 -29.5011 -29.4579 -29.4176
    -8.5280  -8.1572  -7.9490  -7.7847  -7.5191  -7.3852  -6.9290  -6.8872
     1.5710   2.3027   2.3536   2.4993   3.3906   3.5270   3.8125   3.9510
     4.5469   4.6625   4.9621   5.2873   5.5730   5.7482   5.8877   6.1676
     6.3172   6.5396   7.0052   7.2793   7.5757   7.7197   8.0220   8.1591
     8.4119   8.5743   8.7324   8.9077  11.0103  12.0885  12.4974  12.8674
    12.9038  12.9677  13.1683  15.4778  15.5155  15.6037  15.7082  16.0715
    16.3233  16.8290

     occupation numbers 
     1.0000   1.0000   1.0000   1.0000   1.0000   1.0000   1.0000   1.0000
     1.0000   1.0000   1.0000   1.0000   1.0000   1.0000   1.0000   1.0000
     1.0000   1.0000   1.0000   1.0000   1.0000   1.0000   1.0000   1.0000
     1.0000   1.0000   1.0000   1.0000   1.0000   1.0000   1.0000   1.0000
     1.0000   1.0000   1.0000   1.0000   1.0000   1.0000   1.0000   1.0000
     1.0000   1.0000   1.0000   1.0000   1.0000   1.0000   1.0000   1.0000
     1.0000   1.0000   1.0000   1.0000   0.0000   0.0000   0.0000   0.0000
     0.0000   0.0000   0.0000   0.0000   0.0000   0.0000   0.0000   0.0000
     0.0000   0.0000

          k = 0.4185-0.0859-0.2426 ( 20405 PWs)   bands (ev):

  -102.6305 -65.3321 -65.2482 -65.1764 -60.3668 -60.3295 -59.6011 -34.0164
   -33.9504 -33.9180 -29.6616 -29.5599 -29.5390 -29.4984 -29.4596 -29.4183
    -8.7263  -8.0036  -7.8683  -7.6985  -7.4959  -7.4104  -7.0184  -6.9249
     1.5594   2.2911   2.3611   2.4856   3.4023   3.5689   4.0868   4.1997
     4.2885   4.5092   4.7575   5.1411   5.5713   5.7427   6.0143   6.2570
     6.6663   6.7509   6.9687   7.1443   7.4405   7.6734   7.8612   8.0767
     8.2063   8.6117   8.8122   8.9168  11.1442  11.9607  12.4739  12.6371
    12.8947  12.9684  13.4277  15.4360  15.5456  15.7445  15.8165  16.0488
    16.4557  16.7536

     occupation numbers 
     1.0000   1.0000   1.0000   1.0000   1.0000   1.0000   1.0000   1.0000
     1.0000   1.0000   1.0000   1.0000   1.0000   1.0000   1.0000   1.0000
     1.0000   1.0000   1.0000   1.0000   1.0000   1.0000   1.0000   1.0000
     1.0000   1.0000   1.0000   1.0000   1.0000   1.0000   1.0000   1.0000
     1.0000   1.0000   1.0000   1.0000   1.0000   1.0000   1.0000   1.0000
     1.0000   1.0000   1.0000   1.0000   1.0000   1.0000   1.0000   1.0000
     1.0000   1.0000   1.0000   1.0000   0.0000   0.0000   0.0000   0.0000
     0.0000   0.0000   0.0000   0.0000   0.0000   0.0000   0.0000   0.0000
     0.0000   0.0000

          k = 0.4174-0.0859-0.0970 ( 20391 PWs)   bands (ev):

  -102.6305 -65.3322 -65.2479 -65.1764 -60.3668 -60.3295 -59.6011 -34.0164
   -33.9504 -33.9179 -29.6635 -29.5614 -29.5356 -29.4962 -29.4613 -29.4187
    -8.8472  -8.0211  -7.7243  -7.6254  -7.4502  -7.3475  -7.1391  -6.9908
     1.5542   2.2749   2.3511   2.4950   3.5067   3.6464   3.8248   4.1947
     4.3019   4.6844   4.9444   5.1195   5.3966   5.5883   5.8249   6.3668
     6.8020   6.9650   7.0904   7.2690   7.3888   7.6241   7.7183   7.9279
     8.0050   8.7076   8.8286   8.9260  11.2795  11.9668  12.2580  12.4108
    12.9498  13.0386  13.6125  15.3684  15.5471  15.6948  15.7926  16.1723
    16.5622  16.6880

     occupation numbers 
     1.0000   1.0000   1.0000   1.0000   1.0000   1.0000   1.0000   1.0000
     1.0000   1.0000   1.0000   1.0000   1.0000   1.0000   1.0000   1.0000
     1.0000   1.0000   1.0000   1.0000   1.0000   1.0000   1.0000   1.0000
     1.0000   1.0000   1.0000   1.0000   1.0000   1.0000   1.0000   1.0000
     1.0000   1.0000   1.0000   1.0000   1.0000   1.0000   1.0000   1.0000
     1.0000   1.0000   1.0000   1.0000   1.0000   1.0000   1.0000   1.0000
     1.0000   1.0000   1.0000   1.0000   0.0000   0.0000   0.0000   0.0000
     0.0000   0.0000   0.0000   0.0000   0.0000   0.0000   0.0000   0.0000
     0.0000   0.0000

     the Fermi energy is    10.3142 ev

!    total energy              =   -1163.58455532 Ry
     estimated scf accuracy    <          5.1E-10 Ry
     smearing contrib. (-TS)   =       0.00162471 Ry
     internal energy E=F+TS    =   -1163.58618003 Ry

     The total energy is F=E-TS. E is the sum of the following terms:
     one-electron contribution =    -551.07931112 Ry
     hartree contribution      =     329.06186171 Ry
     xc contribution           =    -213.82056521 Ry
     ewald contribution        =    -727.87679779 Ry
     Hubbard energy            =       0.12863236 Ry

     total magnetization       =     6.00 Bohr mag/cell
     absolute magnetization    =     6.07 Bohr mag/cell

     convergence has been achieved in  16 iterations

     Writing all to output data dir ./tmp/MnCuWO4_FM/MnCuWO4_FM.save/ :
     XML data file, charge density, pseudopotentials, collected wavefunctions
 
     init_run     :     11.59s CPU     11.91s WALL (       1 calls)
     electrons    :    484.48s CPU    489.13s WALL (       1 calls)

     Called by init_run:
     wfcinit      :     11.52s CPU     11.79s WALL (       1 calls)
     wfcinit:atom :      0.08s CPU      0.08s WALL (     216 calls)
     wfcinit:wfcr :      8.65s CPU      8.84s WALL (     216 calls)
     potinit      :      0.01s CPU      0.05s WALL (       1 calls)
     hinit0       :      0.02s CPU      0.03s WALL (       1 calls)

     Called by electrons:
     c_bands      :    434.59s CPU    438.50s WALL (      16 calls)
     sum_band     :     49.36s CPU     50.00s WALL (      16 calls)
     v_of_rho     :      0.22s CPU      0.23s WALL (      17 calls)
     v_h          :      0.01s CPU      0.01s WALL (      17 calls)
     v_xc         :      0.21s CPU      0.22s WALL (      17 calls)
     mix_rho      :      0.31s CPU      0.32s WALL (      16 calls)

     Called by c_bands:
     init_us_2    :     10.93s CPU     11.12s WALL (    7344 calls)
     cegterg      :    397.74s CPU    401.07s WALL (    3456 calls)

     Called by sum_band:
     sum_band:wei :      0.39s CPU      0.39s WALL (      16 calls)
     sum_band:loo :     46.14s CPU     46.65s WALL (      16 calls)
     sum_band:buf :      1.24s CPU      1.27s WALL (    3456 calls)
     sum_band:ini :      4.32s CPU      4.36s WALL (    3456 calls)

     Called by *egterg:
     cdiaghg      :     48.59s CPU     48.83s WALL (   15969 calls)
     cegterg:over :     21.67s CPU     21.79s WALL (   12513 calls)
     cegterg:upda :     14.20s CPU     14.30s WALL (   12513 calls)
     cegterg:last :     29.22s CPU     29.40s WALL (    7154 calls)
     h_psi        :    280.84s CPU    283.67s WALL (   16185 calls)
     g_psi        :      0.98s CPU      0.99s WALL (   12513 calls)

     Called by h_psi:
     h_psi:calbec :     34.25s CPU     34.50s WALL (   16185 calls)
     vloc_psi     :    197.50s CPU    199.76s WALL (   16185 calls)
     add_vuspsi   :     37.88s CPU     38.12s WALL (   16185 calls)
     vhpsi        :      9.39s CPU      9.46s WALL (   16185 calls)

     General routines
     calbec       :     43.75s CPU     44.14s WALL (   36042 calls)
     fft          :      0.10s CPU      0.11s WALL (     321 calls)
     ffts         :      0.17s CPU      0.17s WALL (     525 calls)
     fftw         :    220.71s CPU    223.21s WALL ( 1375506 calls)
 
     Parallel routines

     Hubbard U routines
     new_ns       :      2.80s CPU      2.93s WALL (      16 calls)
     vhpsi        :      9.39s CPU      9.46s WALL (   16185 calls)
 
     PWSCF        :   8m17.71s CPU   8m31.05s WALL

 
   This run was terminated on:   6:26:58  19Nov2025            

=------------------------------------------------------------------------------=
   JOB DONE.
=------------------------------------------------------------------------------=
