
     Program PWSCF v.7.4.1 starts on 19Nov2025 at  6:28:27 
        Git branch: heads/qe-7.4.1
        Last git commit: 500de340b820e1cb8c05f2d8bb8fced102f377c1-dirty
        Last git commit date: Fri Feb 7 14:59:05 2025 +0000
        Last git commit subject: Merge branch 'qe-7.4.1' into 'master'

     This program is part of the open-source Quantum ESPRESSO suite
     for quantum simulation of materials; please cite
         "P. Giannozzi et al., J. Phys.:Condens. Matter 21 395502 (2009);
         "P. Giannozzi et al., J. Phys.:Condens. Matter 29 465901 (2017);
         "P. Giannozzi et al., J. Chem. Phys. 152 154105 (2020);
          URL http://www.quantum-espresso.org", 
     in publications or presentations arising from this work. More details at
     http://www.quantum-espresso.org/quote

     Parallel version (MPI), running on    16 processors

     MPI processes distributed on     1 nodes
     657057 MiB available memory on the printing compute node when the environment starts
 
     Reading input from inputs_AFM/MnCuWO4_AFM.in

     Current dimensions of program PWSCF are:
     Max number of different atomic species (ntypx) = 10
     Max number of k-points (npk) =  40000
     Max angular momentum in pseudopotentials (lmaxx) =  4
 
     R & G space division:  proc/nbgrp/npool/nimage =      16
     Subspace diagonalization in iterative solution of the eigenvalue problem:
     a serial algorithm will be used

 
     Parallelization info
     --------------------
     sticks:   dense  smooth     PW     G-vecs:    dense   smooth      PW
     Min         214     214     58                10201    10201    1449
     Max         215     215     59                10203    10203    1453
     Sum        3427    3427    933               163223   163223   23203
 
     Using Slab Decomposition
 


     bravais-lattice index     =            0
     lattice parameter (alat)  =       8.9545  a.u.
     unit-cell volume          =     918.9339 (a.u.)^3
     number of atoms/cell      =           12
     number of atomic types    =            4
     number of electrons       =       110.00
     number of Kohn-Sham states=           66
     kinetic-energy cutoff     =     120.0000  Ry
     charge density cutoff     =     480.0000  Ry
     scf convergence threshold =      1.0E-09
     mixing beta               =       0.7000
     number of iterations used =            8  local-TF  mixing
     Exchange-correlation= PBESOL
                           (   1   4  10   8   0   0   0)
     Hubbard projectors: ortho-atomic
     Hubbard parameters of DFT+U (Dudarev formulation) in eV:
     U(Mn-3d) =  4.6500
     U(Cu-3d) = 10.0000

     Internal variables: lda_plus_u = T, lda_plus_u_kind = 0

     celldm(1)=   8.954494  celldm(2)=   0.000000  celldm(3)=   0.000000
     celldm(4)=   0.000000  celldm(5)=   0.000000  celldm(6)=   0.000000

     crystal axes: (cart. coord. in units of alat)
               a(1) = (   0.999972  -0.000219   0.007471 )  
               a(2) = (   0.030480   1.117744   0.000364 )  
               a(3) = (   0.072223   0.026798   1.145603 )  

     reciprocal axes: (cart. coord. in units 2 pi/alat)
               b(1) = (  1.000488 -0.027262 -0.062437 )  
               b(2) = (  0.000353  0.894656 -0.020950 )  
               b(3) = ( -0.006525 -0.000107  0.873317 )  


     PseudoPot. # 1 for Mn read from file:
     pseudo_dojo_pbesol/Mn.upf
     MD5 check sum: ef44e22c4884c1dd3870421f9f7ffd72
     Pseudo is Norm-conserving + core correction, Zval = 15.0
     Generated using ONCVPSP code by D. R. Hamann
     Using radial grid of 1448 points,  6 beta functions with: 
                l(1) =   0
                l(2) =   0
                l(3) =   1
                l(4) =   1
                l(5) =   2
                l(6) =   2

     PseudoPot. # 2 for Cu read from file:
     pseudo_dojo_pbesol/Cu.upf
     MD5 check sum: 5521c194e1bf37484dee827cb890bc02
     Pseudo is Norm-conserving + core correction, Zval = 19.0
     Generated using ONCVPSP code by D. R. Hamann
     Using radial grid of 1492 points,  6 beta functions with: 
                l(1) =   0
                l(2) =   0
                l(3) =   1
                l(4) =   1
                l(5) =   2
                l(6) =   2

     PseudoPot. # 3 for W  read from file:
     pseudo_dojo_pbesol/W.upf
     MD5 check sum: b5ac44390825a9169ccdba7091ec60d0
     Pseudo is Norm-conserving + core correction, Zval = 14.0
     Generated using ONCVPSP code by D. R. Hamann
     Using radial grid of 1396 points,  8 beta functions with: 
                l(1) =   0
                l(2) =   0
                l(3) =   1
                l(4) =   1
                l(5) =   2
                l(6) =   2
                l(7) =   3
                l(8) =   3

     PseudoPot. # 4 for O  read from file:
     pseudo_dojo_pbesol/O.upf
     MD5 check sum: f226cbcd508cec715ff87a8f75a1dfba
     Pseudo is Norm-conserving + core correction, Zval =  6.0
     Generated using ONCVPSP code by D. R. Hamann
     Using radial grid of  936 points,  5 beta functions with: 
                l(1) =   0
                l(2) =   0
                l(3) =   1
                l(4) =   1
                l(5) =   2

     atomic species   valence    mass     pseudopotential
     Mn               15.00    54.93805     Mn( 1.00)
     Cu               19.00    63.54600     Cu( 1.00)
     W                14.00   183.84000     W ( 1.00)
     O                 6.00    15.99940     O ( 1.00)

     Starting magnetic structure 
     atomic species   magnetization
     Mn              0.200
     Cu             -0.200
     W               0.000
     O               0.000

     No symmetry found


                                    s                        frac. trans.

      isym =  1     identity                                     

 cryst.   s( 1) = (     1          0          0      )
                  (     0          1          0      )
                  (     0          0          1      )

 cart.    s( 1) = (  1.0000000 -0.0000000  0.0000000 )
                  (  0.0000000  1.0000000  0.0000000 )
                  (  0.0000000  0.0000000  1.0000000 )


   Cartesian axes

     site n.     atom                  positions (alat units)
         1        Mn     tau(   1) = (   0.5748035   0.7772642   0.8631844  )
         2        Cu     tau(   2) = (   0.5278714   0.3670585   0.2902537  )
         3        W      tau(   3) = (   0.0596150   0.2198770   0.8592672  )
         4        W      tau(   4) = (   0.0430878   0.9246650   0.2867000  )
         5        O      tau(   5) = (   0.3311047   0.4429956   1.0297836  )
         6        O      tau(   6) = (   0.8000539   0.4350032   0.6963647  )
         7        O      tau(   7) = (   0.7715702   0.7013271   0.1236545  )
         8        O      tau(   8) = (   0.3026210   0.7093195   0.4570734  )
         9        O      tau(   9) = (   0.3080787   1.0255169   1.0780379  )
        10        O      tau(  10) = (   0.8547873   1.0152428   0.6484895  )
        11        O      tau(  11) = (   0.7945962   0.1188058   0.0754002  )
        12        O      tau(  12) = (   0.2478876   0.1290799   0.5049486  )

   Crystallographic axes

     site n.     atom                  positions (cryst. coord.)
         1        Mn     tau(   1) = (  0.5000000  0.6775034  0.7500000  )
         2        Cu     tau(   2) = (  0.5000000  0.3224966  0.2500000  )
         3        W      tau(   3) = (  0.0000000  0.1787338  0.7500000  )
         4        W      tau(   4) = ( -0.0000000  0.8212662  0.2500000  )
         5        O      tau(   5) = (  0.2548931  0.3748717  0.8971196  )
         6        O      tau(   6) = (  0.7451069  0.3748717  0.6028804  )
         7        O      tau(   7) = (  0.7451069  0.6251283  0.1028804  )
         8        O      tau(   8) = (  0.2548931  0.6251283  0.3971196  )
         9        O      tau(   9) = (  0.2129623  0.8950090  0.9393489  )
        10        O      tau(  10) = (  0.7870377  0.8950090  0.5606511  )
        11        O      tau(  11) = (  0.7870377  0.1049910  0.0606511  )
        12        O      tau(  12) = (  0.2129623  0.1049910  0.4393489  )

     number of k points=   108  Marzari-Vanderbilt smearing, width (Ry)=  0.0200
                       cart. coord. in units 2pi/alat
        k(    1) = (   0.0828597   0.0722739   0.0658275), wk =   0.0092593
        k(    2) = (   0.0817723   0.0722561   0.2113803), wk =   0.0092593
        k(    3) = (   0.0806848   0.0722383   0.3569331), wk =   0.0092593
        k(    4) = (   0.0861220   0.0723274  -0.3708309), wk =   0.0092593
        k(    5) = (   0.0850346   0.0723096  -0.2252781), wk =   0.0092593
        k(    6) = (   0.0839472   0.0722918  -0.0797253), wk =   0.0092593
        k(    7) = (   0.0829185   0.2213833   0.0623359), wk =   0.0092593
        k(    8) = (   0.0818310   0.2213655   0.2078887), wk =   0.0092593
        k(    9) = (   0.0807436   0.2213477   0.3534414), wk =   0.0092593
        k(   10) = (   0.0861808   0.2214368  -0.3743225), wk =   0.0092593
        k(   11) = (   0.0850934   0.2214189  -0.2287697), wk =   0.0092593
        k(   12) = (   0.0840059   0.2214011  -0.0832169), wk =   0.0092593
        k(   13) = (   0.0829773   0.3704927   0.0588442), wk =   0.0092593
        k(   14) = (   0.0818898   0.3704749   0.2043970), wk =   0.0092593
        k(   15) = (   0.0808024   0.3704571   0.3499498), wk =   0.0092593
        k(   16) = (   0.0862396   0.3705461  -0.3778142), wk =   0.0092593
        k(   17) = (   0.0851522   0.3705283  -0.2322614), wk =   0.0092593
        k(   18) = (   0.0840647   0.3705105  -0.0867086), wk =   0.0092593
        k(   19) = (   0.0826833  -0.3750542   0.0763025), wk =   0.0092593
        k(   20) = (   0.0815959  -0.3750720   0.2218553), wk =   0.0092593
        k(   21) = (   0.0805085  -0.3750898   0.3674080), wk =   0.0092593
        k(   22) = (   0.0859457  -0.3750008  -0.3603559), wk =   0.0092593
        k(   23) = (   0.0848582  -0.3750186  -0.2148031), wk =   0.0092593
        k(   24) = (   0.0837708  -0.3750364  -0.0692503), wk =   0.0092593
        k(   25) = (   0.0827421  -0.2259448   0.0728108), wk =   0.0092593
        k(   26) = (   0.0816547  -0.2259626   0.2183636), wk =   0.0092593
        k(   27) = (   0.0805672  -0.2259804   0.3639164), wk =   0.0092593
        k(   28) = (   0.0860045  -0.2258914  -0.3638476), wk =   0.0092593
        k(   29) = (   0.0849170  -0.2259092  -0.2182948), wk =   0.0092593
        k(   30) = (   0.0838296  -0.2259270  -0.0727420), wk =   0.0092593
        k(   31) = (   0.0828009  -0.0768354   0.0693192), wk =   0.0092593
        k(   32) = (   0.0817135  -0.0768532   0.2148720), wk =   0.0092593
        k(   33) = (   0.0806260  -0.0768710   0.3604247), wk =   0.0092593
        k(   34) = (   0.0860633  -0.0767820  -0.3673392), wk =   0.0092593
        k(   35) = (   0.0849758  -0.0767998  -0.2217864), wk =   0.0092593
        k(   36) = (   0.0838884  -0.0768176  -0.0762336), wk =   0.0092593
        k(   37) = (   0.2496078   0.0677303   0.0554214), wk =   0.0092593
        k(   38) = (   0.2485203   0.0677125   0.2009742), wk =   0.0092593
        k(   39) = (   0.2474329   0.0676947   0.3465270), wk =   0.0092593
        k(   40) = (   0.2528701   0.0677837  -0.3812370), wk =   0.0092593
        k(   41) = (   0.2517827   0.0677659  -0.2356842), wk =   0.0092593
        k(   42) = (   0.2506952   0.0677481  -0.0901314), wk =   0.0092593
        k(   43) = (   0.2496666   0.2168397   0.0519297), wk =   0.0092593
        k(   44) = (   0.2485791   0.2168218   0.1974825), wk =   0.0092593
        k(   45) = (   0.2474917   0.2168040   0.3430353), wk =   0.0092593
        k(   46) = (   0.2529289   0.2168931  -0.3847287), wk =   0.0092593
        k(   47) = (   0.2518415   0.2168753  -0.2391759), wk =   0.0092593
        k(   48) = (   0.2507540   0.2168575  -0.0936231), wk =   0.0092593
        k(   49) = (   0.2497254   0.3659490   0.0484381), wk =   0.0092593
        k(   50) = (   0.2486379   0.3659312   0.1939909), wk =   0.0092593
        k(   51) = (   0.2475505   0.3659134   0.3395437), wk =   0.0092593
        k(   52) = (   0.2529877   0.3660025  -0.3882203), wk =   0.0092593
        k(   53) = (   0.2519002   0.3659847  -0.2426675), wk =   0.0092593
        k(   54) = (   0.2508128   0.3659668  -0.0971147), wk =   0.0092593
        k(   55) = (   0.2494314  -0.3795979   0.0658963), wk =   0.0092593
        k(   56) = (   0.2483440  -0.3796157   0.2114491), wk =   0.0092593
        k(   57) = (   0.2472565  -0.3796335   0.3570019), wk =   0.0092593
        k(   58) = (   0.2526938  -0.3795444  -0.3707621), wk =   0.0092593
        k(   59) = (   0.2516063  -0.3795622  -0.2252093), wk =   0.0092593
        k(   60) = (   0.2505189  -0.3795800  -0.0796565), wk =   0.0092593
        k(   61) = (   0.2494902  -0.2304885   0.0624047), wk =   0.0092593
        k(   62) = (   0.2484028  -0.2305063   0.2079575), wk =   0.0092593
        k(   63) = (   0.2473153  -0.2305241   0.3535103), wk =   0.0092593
        k(   64) = (   0.2527525  -0.2304350  -0.3742537), wk =   0.0092593
        k(   65) = (   0.2516651  -0.2304529  -0.2287009), wk =   0.0092593
        k(   66) = (   0.2505776  -0.2304707  -0.0831481), wk =   0.0092593
        k(   67) = (   0.2495490  -0.0813791   0.0589130), wk =   0.0092593
        k(   68) = (   0.2484615  -0.0813969   0.2044658), wk =   0.0092593
        k(   69) = (   0.2473741  -0.0814147   0.3500186), wk =   0.0092593
        k(   70) = (   0.2528113  -0.0813257  -0.3777454), wk =   0.0092593
        k(   71) = (   0.2517239  -0.0813435  -0.2321926), wk =   0.0092593
        k(   72) = (   0.2506364  -0.0813613  -0.0866398), wk =   0.0092593
        k(   73) = (   0.4163558   0.0631866   0.0450152), wk =   0.0092593
        k(   74) = (   0.4152684   0.0631688   0.1905680), wk =   0.0092593
        k(   75) = (   0.4141810   0.0631510   0.3361208), wk =   0.0092593
        k(   76) = (   0.4196182   0.0632400  -0.3916431), wk =   0.0092593
        k(   77) = (   0.4185307   0.0632222  -0.2460903), wk =   0.0092593
        k(   78) = (   0.4174433   0.0632044  -0.1005375), wk =   0.0092593
        k(   79) = (   0.4164146   0.2122960   0.0415236), wk =   0.0092593
        k(   80) = (   0.4153272   0.2122782   0.1870764), wk =   0.0092593
        k(   81) = (   0.4142397   0.2122604   0.3326292), wk =   0.0092593
        k(   82) = (   0.4196770   0.2123494  -0.3951348), wk =   0.0092593
        k(   83) = (   0.4185895   0.2123316  -0.2495820), wk =   0.0092593
        k(   84) = (   0.4175021   0.2123138  -0.1040292), wk =   0.0092593
        k(   85) = (   0.4164734   0.3614054   0.0380319), wk =   0.0092593
        k(   86) = (   0.4153860   0.3613876   0.1835847), wk =   0.0092593
        k(   87) = (   0.4142985   0.3613697   0.3291375), wk =   0.0092593
        k(   88) = (   0.4197358   0.3614588  -0.3986264), wk =   0.0092593
        k(   89) = (   0.4186483   0.3614410  -0.2530736), wk =   0.0092593
        k(   90) = (   0.4175609   0.3614232  -0.1075208), wk =   0.0092593
        k(   91) = (   0.4161795  -0.3841415   0.0554902), wk =   0.0092593
        k(   92) = (   0.4150920  -0.3841593   0.2010430), wk =   0.0092593
        k(   93) = (   0.4140046  -0.3841771   0.3465958), wk =   0.0092593
        k(   94) = (   0.4194418  -0.3840881  -0.3811682), wk =   0.0092593
        k(   95) = (   0.4183544  -0.3841059  -0.2356154), wk =   0.0092593
        k(   96) = (   0.4172669  -0.3841237  -0.0900626), wk =   0.0092593
        k(   97) = (   0.4162383  -0.2350321   0.0519985), wk =   0.0092593
        k(   98) = (   0.4151508  -0.2350500   0.1975513), wk =   0.0092593
        k(   99) = (   0.4140634  -0.2350678   0.3431041), wk =   0.0092593
        k(  100) = (   0.4195006  -0.2349787  -0.3846598), wk =   0.0092593
        k(  101) = (   0.4184132  -0.2349965  -0.2391070), wk =   0.0092593
        k(  102) = (   0.4173257  -0.2350143  -0.0935542), wk =   0.0092593
        k(  103) = (   0.4162971  -0.0859228   0.0485069), wk =   0.0092593
        k(  104) = (   0.4152096  -0.0859406   0.1940597), wk =   0.0092593
        k(  105) = (   0.4141222  -0.0859584   0.3396125), wk =   0.0092593
        k(  106) = (   0.4195594  -0.0858693  -0.3881515), wk =   0.0092593
        k(  107) = (   0.4184720  -0.0858871  -0.2425987), wk =   0.0092593
        k(  108) = (   0.4173845  -0.0859050  -0.0970459), wk =   0.0092593

                       cryst. coord.
        k(    1) = (   0.0833333   0.0833333   0.0833333), wk =   0.0092593
        k(    2) = (   0.0833333   0.0833333   0.2500000), wk =   0.0092593
        k(    3) = (   0.0833333   0.0833333   0.4166667), wk =   0.0092593
        k(    4) = (   0.0833333   0.0833333  -0.4166667), wk =   0.0092593
        k(    5) = (   0.0833333   0.0833333  -0.2500000), wk =   0.0092593
        k(    6) = (   0.0833333   0.0833333  -0.0833333), wk =   0.0092593
        k(    7) = (   0.0833333   0.2500000   0.0833333), wk =   0.0092593
        k(    8) = (   0.0833333   0.2500000   0.2500000), wk =   0.0092593
        k(    9) = (   0.0833333   0.2500000   0.4166667), wk =   0.0092593
        k(   10) = (   0.0833333   0.2500000  -0.4166667), wk =   0.0092593
        k(   11) = (   0.0833333   0.2500000  -0.2500000), wk =   0.0092593
        k(   12) = (   0.0833333   0.2500000  -0.0833333), wk =   0.0092593
        k(   13) = (   0.0833333   0.4166667   0.0833333), wk =   0.0092593
        k(   14) = (   0.0833333   0.4166667   0.2500000), wk =   0.0092593
        k(   15) = (   0.0833333   0.4166667   0.4166667), wk =   0.0092593
        k(   16) = (   0.0833333   0.4166667  -0.4166667), wk =   0.0092593
        k(   17) = (   0.0833333   0.4166667  -0.2500000), wk =   0.0092593
        k(   18) = (   0.0833333   0.4166667  -0.0833333), wk =   0.0092593
        k(   19) = (   0.0833333  -0.4166667   0.0833333), wk =   0.0092593
        k(   20) = (   0.0833333  -0.4166667   0.2500000), wk =   0.0092593
        k(   21) = (   0.0833333  -0.4166667   0.4166667), wk =   0.0092593
        k(   22) = (   0.0833333  -0.4166667  -0.4166667), wk =   0.0092593
        k(   23) = (   0.0833333  -0.4166667  -0.2500000), wk =   0.0092593
        k(   24) = (   0.0833333  -0.4166667  -0.0833333), wk =   0.0092593
        k(   25) = (   0.0833333  -0.2500000   0.0833333), wk =   0.0092593
        k(   26) = (   0.0833333  -0.2500000   0.2500000), wk =   0.0092593
        k(   27) = (   0.0833333  -0.2500000   0.4166667), wk =   0.0092593
        k(   28) = (   0.0833333  -0.2500000  -0.4166667), wk =   0.0092593
        k(   29) = (   0.0833333  -0.2500000  -0.2500000), wk =   0.0092593
        k(   30) = (   0.0833333  -0.2500000  -0.0833333), wk =   0.0092593
        k(   31) = (   0.0833333  -0.0833333   0.0833333), wk =   0.0092593
        k(   32) = (   0.0833333  -0.0833333   0.2500000), wk =   0.0092593
        k(   33) = (   0.0833333  -0.0833333   0.4166667), wk =   0.0092593
        k(   34) = (   0.0833333  -0.0833333  -0.4166667), wk =   0.0092593
        k(   35) = (   0.0833333  -0.0833333  -0.2500000), wk =   0.0092593
        k(   36) = (   0.0833333  -0.0833333  -0.0833333), wk =   0.0092593
        k(   37) = (   0.2500000   0.0833333   0.0833333), wk =   0.0092593
        k(   38) = (   0.2500000   0.0833333   0.2500000), wk =   0.0092593
        k(   39) = (   0.2500000   0.0833333   0.4166667), wk =   0.0092593
        k(   40) = (   0.2500000   0.0833333  -0.4166667), wk =   0.0092593
        k(   41) = (   0.2500000   0.0833333  -0.2500000), wk =   0.0092593
        k(   42) = (   0.2500000   0.0833333  -0.0833333), wk =   0.0092593
        k(   43) = (   0.2500000   0.2500000   0.0833333), wk =   0.0092593
        k(   44) = (   0.2500000   0.2500000   0.2500000), wk =   0.0092593
        k(   45) = (   0.2500000   0.2500000   0.4166667), wk =   0.0092593
        k(   46) = (   0.2500000   0.2500000  -0.4166667), wk =   0.0092593
        k(   47) = (   0.2500000   0.2500000  -0.2500000), wk =   0.0092593
        k(   48) = (   0.2500000   0.2500000  -0.0833333), wk =   0.0092593
        k(   49) = (   0.2500000   0.4166667   0.0833333), wk =   0.0092593
        k(   50) = (   0.2500000   0.4166667   0.2500000), wk =   0.0092593
        k(   51) = (   0.2500000   0.4166667   0.4166667), wk =   0.0092593
        k(   52) = (   0.2500000   0.4166667  -0.4166667), wk =   0.0092593
        k(   53) = (   0.2500000   0.4166667  -0.2500000), wk =   0.0092593
        k(   54) = (   0.2500000   0.4166667  -0.0833333), wk =   0.0092593
        k(   55) = (   0.2500000  -0.4166667   0.0833333), wk =   0.0092593
        k(   56) = (   0.2500000  -0.4166667   0.2500000), wk =   0.0092593
        k(   57) = (   0.2500000  -0.4166667   0.4166667), wk =   0.0092593
        k(   58) = (   0.2500000  -0.4166667  -0.4166667), wk =   0.0092593
        k(   59) = (   0.2500000  -0.4166667  -0.2500000), wk =   0.0092593
        k(   60) = (   0.2500000  -0.4166667  -0.0833333), wk =   0.0092593
        k(   61) = (   0.2500000  -0.2500000   0.0833333), wk =   0.0092593
        k(   62) = (   0.2500000  -0.2500000   0.2500000), wk =   0.0092593
        k(   63) = (   0.2500000  -0.2500000   0.4166667), wk =   0.0092593
        k(   64) = (   0.2500000  -0.2500000  -0.4166667), wk =   0.0092593
        k(   65) = (   0.2500000  -0.2500000  -0.2500000), wk =   0.0092593
        k(   66) = (   0.2500000  -0.2500000  -0.0833333), wk =   0.0092593
        k(   67) = (   0.2500000  -0.0833333   0.0833333), wk =   0.0092593
        k(   68) = (   0.2500000  -0.0833333   0.2500000), wk =   0.0092593
        k(   69) = (   0.2500000  -0.0833333   0.4166667), wk =   0.0092593
        k(   70) = (   0.2500000  -0.0833333  -0.4166667), wk =   0.0092593
        k(   71) = (   0.2500000  -0.0833333  -0.2500000), wk =   0.0092593
        k(   72) = (   0.2500000  -0.0833333  -0.0833333), wk =   0.0092593
        k(   73) = (   0.4166667   0.0833333   0.0833333), wk =   0.0092593
        k(   74) = (   0.4166667   0.0833333   0.2500000), wk =   0.0092593
        k(   75) = (   0.4166667   0.0833333   0.4166667), wk =   0.0092593
        k(   76) = (   0.4166667   0.0833333  -0.4166667), wk =   0.0092593
        k(   77) = (   0.4166667   0.0833333  -0.2500000), wk =   0.0092593
        k(   78) = (   0.4166667   0.0833333  -0.0833333), wk =   0.0092593
        k(   79) = (   0.4166667   0.2500000   0.0833333), wk =   0.0092593
        k(   80) = (   0.4166667   0.2500000   0.2500000), wk =   0.0092593
        k(   81) = (   0.4166667   0.2500000   0.4166667), wk =   0.0092593
        k(   82) = (   0.4166667   0.2500000  -0.4166667), wk =   0.0092593
        k(   83) = (   0.4166667   0.2500000  -0.2500000), wk =   0.0092593
        k(   84) = (   0.4166667   0.2500000  -0.0833333), wk =   0.0092593
        k(   85) = (   0.4166667   0.4166667   0.0833333), wk =   0.0092593
        k(   86) = (   0.4166667   0.4166667   0.2500000), wk =   0.0092593
        k(   87) = (   0.4166667   0.4166667   0.4166667), wk =   0.0092593
        k(   88) = (   0.4166667   0.4166667  -0.4166667), wk =   0.0092593
        k(   89) = (   0.4166667   0.4166667  -0.2500000), wk =   0.0092593
        k(   90) = (   0.4166667   0.4166667  -0.0833333), wk =   0.0092593
        k(   91) = (   0.4166667  -0.4166667   0.0833333), wk =   0.0092593
        k(   92) = (   0.4166667  -0.4166667   0.2500000), wk =   0.0092593
        k(   93) = (   0.4166667  -0.4166667   0.4166667), wk =   0.0092593
        k(   94) = (   0.4166667  -0.4166667  -0.4166667), wk =   0.0092593
        k(   95) = (   0.4166667  -0.4166667  -0.2500000), wk =   0.0092593
        k(   96) = (   0.4166667  -0.4166667  -0.0833333), wk =   0.0092593
        k(   97) = (   0.4166667  -0.2500000   0.0833333), wk =   0.0092593
        k(   98) = (   0.4166667  -0.2500000   0.2500000), wk =   0.0092593
        k(   99) = (   0.4166667  -0.2500000   0.4166667), wk =   0.0092593
        k(  100) = (   0.4166667  -0.2500000  -0.4166667), wk =   0.0092593
        k(  101) = (   0.4166667  -0.2500000  -0.2500000), wk =   0.0092593
        k(  102) = (   0.4166667  -0.2500000  -0.0833333), wk =   0.0092593
        k(  103) = (   0.4166667  -0.0833333   0.0833333), wk =   0.0092593
        k(  104) = (   0.4166667  -0.0833333   0.2500000), wk =   0.0092593
        k(  105) = (   0.4166667  -0.0833333   0.4166667), wk =   0.0092593
        k(  106) = (   0.4166667  -0.0833333  -0.4166667), wk =   0.0092593
        k(  107) = (   0.4166667  -0.0833333  -0.2500000), wk =   0.0092593
        k(  108) = (   0.4166667  -0.0833333  -0.0833333), wk =   0.0092593

     Dense  grid:   163223 G-vectors     FFT dimensions: (  64,  72,  72)

     Dynamical RAM for                 wfc:       1.28 MB

     Dynamical RAM for     wfc (w. buffer):     278.42 MB

     Dynamical RAM for             U proj.:       0.19 MB

     Dynamical RAM for  U proj. (w. buff.):      42.18 MB

     Dynamical RAM for           str. fact:       0.62 MB

     Dynamical RAM for           local pot:       0.00 MB

     Dynamical RAM for          nlocal pot:       3.97 MB

     Dynamical RAM for                qrad:      16.87 MB

     Dynamical RAM for          rho,v,vnew:       1.99 MB

     Dynamical RAM for               rhoin:       0.66 MB

     Dynamical RAM for            rho*nmix:       4.98 MB

     Dynamical RAM for           G-vectors:       0.66 MB

     Dynamical RAM for          h,s,v(r/c):       0.80 MB

     Dynamical RAM for          <psi|beta>:       0.21 MB

     Dynamical RAM for                 psi:       2.57 MB

     Dynamical RAM for                hpsi:       2.57 MB

     Dynamical RAM for      wfcinit/wfcrot:       2.67 MB

     Estimated static dynamical RAM per process >     347.21 MB

     Estimated max dynamical RAM per process >     358.32 MB

     Estimated total dynamical RAM >       5.60 GB
     Generating pointlists ...
     new r_m :   0.1745 (alat units)  1.5625 (a.u.) for type    1
     new r_m :   0.1745 (alat units)  1.5625 (a.u.) for type    2
     new r_m :   0.1559 (alat units)  1.3956 (a.u.) for type    3
     new r_m :   0.1559 (alat units)  1.3956 (a.u.) for type    4

     Initial potential from superposition of free atoms

     starting charge     109.9983, renormalised to     110.0000

     HUBBARD ENERGY =    0.0000  (Ry)

     STARTING HUBBARD OCCUPATIONS:

     =================== HUBBARD OCCUPATIONS ===================
     ------------------------ ATOM    1 ------------------------
     Tr[ns(  1)] (up, down, total) =   5.00000  0.00000  5.00000
     Atomic magnetic moment for atom   1 =   5.00000
     SPIN  1
     eigenvalues:
       1.000  1.000  1.000  1.000  1.000
     eigenvectors (columns):
       1.000  0.000  0.000  0.000  0.000
       0.000  1.000  0.000  0.000  0.000
       0.000  0.000  1.000  0.000  0.000
       0.000  0.000  0.000  1.000  0.000
       0.000  0.000  0.000  0.000  1.000
     occupation matrix ns (before diag.):
       1.000  0.000  0.000  0.000  0.000
       0.000  1.000  0.000  0.000  0.000
       0.000  0.000  1.000  0.000  0.000
       0.000  0.000  0.000  1.000  0.000
       0.000  0.000  0.000  0.000  1.000
     SPIN  2
     eigenvalues:
       0.000  0.000  0.000  0.000  0.000
     eigenvectors (columns):
       1.000  0.000  0.000  0.000  0.000
       0.000  1.000  0.000  0.000  0.000
       0.000  0.000  1.000  0.000  0.000
       0.000  0.000  0.000  1.000  0.000
       0.000  0.000  0.000  0.000  1.000
     occupation matrix ns (before diag.):
       0.000  0.000  0.000  0.000  0.000
       0.000  0.000  0.000  0.000  0.000
       0.000  0.000  0.000  0.000  0.000
       0.000  0.000  0.000  0.000  0.000
       0.000  0.000  0.000  0.000  0.000
     ------------------------ ATOM    2 ------------------------
     Tr[ns(  2)] (up, down, total) =   5.00000  5.00000 10.00000
     Atomic magnetic moment for atom   2 =   0.00000
     SPIN  1
     eigenvalues:
       1.000  1.000  1.000  1.000  1.000
     eigenvectors (columns):
       1.000  0.000  0.000  0.000  0.000
       0.000  1.000  0.000  0.000  0.000
       0.000  0.000  1.000  0.000  0.000
       0.000  0.000  0.000  1.000  0.000
       0.000  0.000  0.000  0.000  1.000
     occupation matrix ns (before diag.):
       1.000  0.000  0.000  0.000  0.000
       0.000  1.000  0.000  0.000  0.000
       0.000  0.000  1.000  0.000  0.000
       0.000  0.000  0.000  1.000  0.000
       0.000  0.000  0.000  0.000  1.000
     SPIN  2
     eigenvalues:
       1.000  1.000  1.000  1.000  1.000
     eigenvectors (columns):
       1.000  0.000  0.000  0.000  0.000
       0.000  1.000  0.000  0.000  0.000
       0.000  0.000  1.000  0.000  0.000
       0.000  0.000  0.000  1.000  0.000
       0.000  0.000  0.000  0.000  1.000
     occupation matrix ns (before diag.):
       1.000  0.000  0.000  0.000  0.000
       0.000  1.000  0.000  0.000  0.000
       0.000  0.000  1.000  0.000  0.000
       0.000  0.000  0.000  1.000  0.000
       0.000  0.000  0.000  0.000  1.000

     Number of occupied Hubbard levels =   15.0000

     Atomic wfc used for Hubbard projectors are orthogonalized

     Starting wfcs are   72 randomized atomic wfcs

     total cpu time spent up to now is       12.0 secs

     per-process dynamical memory:   407.8 Mb

     Self-consistent Calculation

     iteration #  1     ecut=   120.00 Ry     beta= 0.70
     Davidson diagonalization with overlap

---- Real-time Memory Report at c_bands before calling an iterative solver
           433 MiB given to the printing process from OS
           398 MiB allocation reported by mallinfo(arena+hblkhd)
        654625 MiB available memory on the node where the printing process lives
------------------
     ethr =  1.00E-02,  avg # of iterations =  2.1

     =================== HUBBARD OCCUPATIONS ===================
     ------------------------ ATOM    1 ------------------------
     Tr[ns(  1)] (up, down, total) =   4.95553  0.21965  5.17518
     Atomic magnetic moment for atom   1 =   4.73589
     SPIN  1
     eigenvalues:
       0.980  0.985  0.996  0.997  0.997
     eigenvectors (columns):
       0.023 -0.323 -0.578  0.626 -0.412
      -0.104  0.935 -0.278  0.143 -0.131
       0.634  0.045  0.006 -0.421 -0.648
       0.049 -0.092 -0.767 -0.515  0.369
       0.765  0.105  0.024  0.382  0.508
     occupation matrix ns (before diag.):
       0.995  0.003  0.000 -0.001  0.000
       0.003  0.987  0.001  0.001  0.000
       0.000  0.001  0.990 -0.001 -0.008
      -0.001  0.001 -0.001  0.996 -0.000
       0.000  0.000 -0.008 -0.000  0.987
     SPIN  2
     eigenvalues:
       0.018  0.020  0.031  0.059  0.091
     eigenvectors (columns):
      -0.019 -0.831 -0.370  0.414 -0.002
      -0.009 -0.331 -0.269 -0.904  0.005
      -0.802  0.007  0.025  0.001  0.597
       0.006  0.446 -0.888  0.102  0.039
       0.597 -0.026  0.026  0.001  0.802
     occupation matrix ns (before diag.):
       0.029 -0.014 -0.000  0.005 -0.000
      -0.014  0.053  0.000 -0.001  0.000
      -0.000  0.000  0.044  0.001  0.035
       0.005 -0.001  0.001  0.029  0.002
      -0.000  0.000  0.035  0.002  0.065
     ------------------------ ATOM    2 ------------------------
     Tr[ns(  2)] (up, down, total) =   4.18415  4.98020  9.16435
     Atomic magnetic moment for atom   2 =  -0.79605
     SPIN  1
     eigenvalues:
       0.257  0.951  0.991  0.992  0.993
     eigenvectors (columns):
      -0.006 -0.381 -0.860 -0.014 -0.339
       0.012  0.916 -0.397 -0.047 -0.021
       0.593 -0.013  0.090 -0.777 -0.192
       0.039 -0.123 -0.303 -0.229  0.916
       0.804 -0.000 -0.052  0.585  0.095
     occupation matrix ns (before diag.):
       0.985  0.014  0.003 -0.002  0.004
       0.014  0.957 -0.004  0.004 -0.007
       0.003 -0.004  0.734 -0.017 -0.351
      -0.002  0.004 -0.017  0.991 -0.023
       0.004 -0.007 -0.351 -0.023  0.517
     SPIN  2
     eigenvalues:
       0.993  0.993  0.998  0.998  0.998
     eigenvectors (columns):
       0.181  0.285  0.654 -0.589  0.333
      -0.531 -0.771  0.300 -0.135  0.122
       0.556 -0.344  0.002  0.378  0.656
       0.078  0.050  0.694  0.600 -0.387
       0.608 -0.450 -0.024 -0.364 -0.542
     occupation matrix ns (before diag.):
       0.997  0.002 -0.000 -0.000  0.000
       0.002  0.994  0.000  0.000  0.000
      -0.000  0.000  0.996 -0.000 -0.003
      -0.000  0.000 -0.000  0.998 -0.000
       0.000  0.000 -0.003 -0.000  0.995

     Number of occupied Hubbard levels =   14.3395

     HUBBARD ENERGY =    0.1458  (Ry)

     total cpu time spent up to now is       42.2 secs

     total energy              =   -1162.69645123 Ry
     estimated scf accuracy    <       5.23762948 Ry

     total magnetization       =     4.00 Bohr mag/cell
     absolute magnetization    =     6.04 Bohr mag/cell

     iteration #  2     ecut=   120.00 Ry     beta= 0.70
     Davidson diagonalization with overlap

---- Real-time Memory Report at c_bands before calling an iterative solver
           442 MiB given to the printing process from OS
           405 MiB allocation reported by mallinfo(arena+hblkhd)
        651184 MiB available memory on the node where the printing process lives
------------------
     ethr =  4.76E-03,  avg # of iterations =  2.0

     =================== HUBBARD OCCUPATIONS ===================
     ------------------------ ATOM    1 ------------------------
     Tr[ns(  1)] (up, down, total) =   4.92615  0.29826  5.22440
     Atomic magnetic moment for atom   1 =   4.62789
     SPIN  1
     eigenvalues:
       0.963  0.978  0.993  0.995  0.996
     eigenvectors (columns):
       0.002  0.399  0.386 -0.826 -0.104
      -0.027 -0.911  0.271 -0.307 -0.051
       0.584 -0.005  0.004  0.102 -0.806
       0.036  0.105  0.881  0.451  0.087
       0.811 -0.032 -0.034 -0.102  0.575
     occupation matrix ns (before diag.):
       0.992  0.006  0.000 -0.001  0.000
       0.006  0.980  0.000  0.001  0.000
       0.000  0.000  0.985 -0.001 -0.016
      -0.001  0.001 -0.001  0.994 -0.001
       0.000  0.000 -0.016 -0.001  0.975
     SPIN  2
     eigenvalues:
       0.025  0.029  0.045  0.079  0.121
     eigenvectors (columns):
       0.018  0.865 -0.286  0.411 -0.004
       0.009  0.356 -0.225 -0.907  0.006
       0.804 -0.005  0.031  0.003  0.594
       0.003 -0.352 -0.930  0.093  0.040
      -0.595  0.023  0.024  0.002  0.803
     occupation matrix ns (before diag.):
       0.039 -0.018 -0.000  0.006 -0.000
      -0.018  0.071  0.000 -0.001  0.000
      -0.000  0.000  0.059  0.002  0.045
       0.006 -0.001  0.002  0.043  0.003
      -0.000  0.000  0.045  0.003  0.087
     ------------------------ ATOM    2 ------------------------
     Tr[ns(  2)] (up, down, total) =   4.08774  4.97376  9.06151
     Atomic magnetic moment for atom   2 =  -0.88602
     SPIN  1
     eigenvalues:
       0.112  0.985  0.996  0.997  0.997
     eigenvectors (columns):
      -0.006 -0.409 -0.486 -0.765 -0.109
       0.011  0.903 -0.336 -0.262 -0.055
       0.594 -0.019  0.013  0.111 -0.796
       0.039 -0.130 -0.806  0.568  0.099
       0.803  0.004  0.031 -0.112  0.584
     occupation matrix ns (before diag.):
       0.995  0.004  0.003 -0.001  0.005
       0.004  0.987 -0.006  0.001 -0.008
       0.003 -0.006  0.685 -0.021 -0.423
      -0.001  0.001 -0.021  0.995 -0.028
       0.005 -0.008 -0.423 -0.028  0.426
     SPIN  2
     eigenvalues:
       0.990  0.991  0.997  0.998  0.998
     eigenvectors (columns):
       0.040 -0.416 -0.312  0.853 -0.025
      -0.105  0.892 -0.278  0.338 -0.025
       0.590  0.056  0.000 -0.024 -0.805
       0.050 -0.126 -0.908 -0.395  0.039
       0.798  0.105  0.036  0.044  0.590
     occupation matrix ns (before diag.):
       0.997  0.002 -0.000 -0.001  0.000
       0.002  0.992  0.000  0.001  0.000
      -0.000  0.000  0.995 -0.000 -0.004
      -0.001  0.001 -0.000  0.997 -0.000
       0.000  0.000 -0.004 -0.000  0.993

     Number of occupied Hubbard levels =   14.2859

     HUBBARD ENERGY =    0.1258  (Ry)

     total cpu time spent up to now is       71.2 secs

     total energy              =   -1163.57362697 Ry
     estimated scf accuracy    <       0.34692225 Ry

     total magnetization       =     4.00 Bohr mag/cell
     absolute magnetization    =     5.96 Bohr mag/cell

     iteration #  3     ecut=   120.00 Ry     beta= 0.70
     Davidson diagonalization with overlap

---- Real-time Memory Report at c_bands before calling an iterative solver
           442 MiB given to the printing process from OS
           406 MiB allocation reported by mallinfo(arena+hblkhd)
        655709 MiB available memory on the node where the printing process lives
------------------
     ethr =  3.15E-04,  avg # of iterations =  4.2

     =================== HUBBARD OCCUPATIONS ===================
     ------------------------ ATOM    1 ------------------------
     Tr[ns(  1)] (up, down, total) =   4.92255  0.27493  5.19748
     Atomic magnetic moment for atom   1 =   4.64763
     SPIN  1
     eigenvalues:
       0.961  0.977  0.993  0.995  0.996
     eigenvectors (columns):
       0.002  0.399  0.364 -0.833 -0.117
      -0.026 -0.911  0.253 -0.318 -0.057
       0.589 -0.004  0.009  0.115 -0.800
       0.037  0.094  0.895  0.422  0.098
       0.807 -0.031 -0.040 -0.111  0.578
     occupation matrix ns (before diag.):
       0.992  0.006  0.000 -0.001  0.000
       0.006  0.980  0.000  0.001  0.000
       0.000  0.000  0.984 -0.001 -0.017
      -0.001  0.001 -0.001  0.994 -0.001
       0.000  0.000 -0.017 -0.001  0.973
     SPIN  2
     eigenvalues:
       0.023  0.026  0.041  0.073  0.113
     eigenvectors (columns):
       0.040 -0.861 -0.303  0.407 -0.003
       0.019 -0.349 -0.229 -0.909  0.004
       0.801  0.026  0.031  0.002  0.597
      -0.007  0.368 -0.924  0.091  0.041
      -0.597 -0.039  0.024 -0.000  0.801
     occupation matrix ns (before diag.):
       0.035 -0.016 -0.000  0.006 -0.000
      -0.016  0.065 -0.000 -0.001  0.000
      -0.000 -0.000  0.055  0.002  0.043
       0.006 -0.001  0.002  0.039  0.002
      -0.000  0.000  0.043  0.002  0.081
     ------------------------ ATOM    2 ------------------------
     Tr[ns(  2)] (up, down, total) =   4.10160  4.97657  9.07817
     Atomic magnetic moment for atom   2 =  -0.87497
     SPIN  1
     eigenvalues:
       0.118  0.991  0.997  0.998  0.998
     eigenvectors (columns):
      -0.007  0.414  0.399 -0.808 -0.131
       0.011 -0.902  0.301 -0.303 -0.066
       0.595  0.020 -0.003  0.133 -0.792
       0.040  0.122  0.865  0.473  0.108
       0.803 -0.005 -0.041 -0.124  0.582
     occupation matrix ns (before diag.):
       0.997  0.003  0.003 -0.000  0.005
       0.003  0.992 -0.006  0.000 -0.008
       0.003 -0.006  0.686 -0.021 -0.421
      -0.000  0.000 -0.021  0.996 -0.028
       0.005 -0.008 -0.421 -0.028  0.431
     SPIN  2
     eigenvalues:
       0.991  0.992  0.997  0.998  0.998
     eigenvectors (columns):
       0.038 -0.422 -0.292  0.857 -0.033
      -0.099  0.891 -0.266  0.352 -0.027
       0.603  0.055 -0.002 -0.031 -0.795
       0.051 -0.119 -0.918 -0.372  0.047
       0.789  0.098  0.041  0.051  0.603
     occupation matrix ns (before diag.):
       0.997  0.002 -0.000 -0.000  0.000
       0.002  0.993  0.000  0.000  0.000
      -0.000  0.000  0.996 -0.000 -0.003
      -0.000  0.000 -0.000  0.997 -0.000
       0.000  0.000 -0.003 -0.000  0.994

     Number of occupied Hubbard levels =   14.2757

     HUBBARD ENERGY =    0.1047  (Ry)

     total cpu time spent up to now is      100.3 secs

     total energy              =   -1163.57296136 Ry
     estimated scf accuracy    <       0.09365589 Ry

     total magnetization       =     4.00 Bohr mag/cell
     absolute magnetization    =     5.95 Bohr mag/cell

     iteration #  4     ecut=   120.00 Ry     beta= 0.70
     Davidson diagonalization with overlap

---- Real-time Memory Report at c_bands before calling an iterative solver
           443 MiB given to the printing process from OS
           406 MiB allocation reported by mallinfo(arena+hblkhd)
        651980 MiB available memory on the node where the printing process lives
------------------
     ethr =  8.51E-05,  avg # of iterations =  6.8

     =================== HUBBARD OCCUPATIONS ===================
     ------------------------ ATOM    1 ------------------------
     Tr[ns(  1)] (up, down, total) =   4.91715  0.25962  5.17677
     Atomic magnetic moment for atom   1 =   4.65753
     SPIN  1
     eigenvalues:
       0.957  0.976  0.993  0.995  0.996
     eigenvectors (columns):
      -0.002  0.402  0.376 -0.826 -0.120
      -0.020 -0.911  0.256 -0.318 -0.058
       0.592 -0.001  0.010  0.119 -0.797
       0.036  0.091  0.890  0.434  0.103
       0.805 -0.025 -0.040 -0.117  0.580
     occupation matrix ns (before diag.):
       0.992  0.007  0.000 -0.001  0.000
       0.007  0.979  0.000  0.001  0.000
       0.000  0.000  0.982 -0.001 -0.019
      -0.001  0.001 -0.001  0.993 -0.001
       0.000  0.000 -0.019 -0.001  0.971
     SPIN  2
     eigenvalues:
       0.021  0.024  0.038  0.069  0.108
     eigenvectors (columns):
       0.041 -0.855 -0.314  0.410 -0.003
       0.020 -0.346 -0.239 -0.907  0.004
       0.800  0.027  0.029  0.002  0.599
      -0.009  0.382 -0.918  0.096  0.040
      -0.599 -0.040  0.024 -0.001  0.800
     occupation matrix ns (before diag.):
       0.033 -0.016 -0.000  0.006 -0.000
      -0.016  0.062 -0.000 -0.001  0.000
      -0.000 -0.000  0.052  0.002  0.041
       0.006 -0.001  0.002  0.036  0.002
      -0.000  0.000  0.041  0.002  0.076
     ------------------------ ATOM    2 ------------------------
     Tr[ns(  2)] (up, down, total) =   4.13015  4.97744  9.10759
     Atomic magnetic moment for atom   2 =  -0.84729
     SPIN  1
     eigenvalues:
       0.144  0.993  0.997  0.998  0.998
     eigenvectors (columns):
      -0.007 -0.408 -0.357 -0.831 -0.121
       0.011  0.905 -0.276 -0.317 -0.062
       0.596 -0.019  0.002  0.119 -0.794
       0.040 -0.117 -0.891  0.426  0.094
       0.802  0.004  0.043 -0.113  0.586
     occupation matrix ns (before diag.):
       0.997  0.002  0.004 -0.000  0.005
       0.002  0.993 -0.005 -0.000 -0.008
       0.004 -0.005  0.694 -0.020 -0.408
      -0.000 -0.000 -0.020  0.996 -0.027
       0.005 -0.008 -0.408 -0.027  0.450
     SPIN  2
     eigenvalues:
       0.992  0.993  0.997  0.998  0.998
     eigenvectors (columns):
       0.017 -0.423 -0.294  0.857 -0.016
      -0.059  0.896 -0.261  0.353 -0.019
       0.613  0.029 -0.001 -0.014 -0.789
       0.047 -0.116 -0.918 -0.373  0.040
       0.786  0.062  0.042  0.040  0.612
     occupation matrix ns (before diag.):
       0.997  0.002 -0.000 -0.000  0.000
       0.002  0.994  0.000  0.000  0.000
      -0.000  0.000  0.996 -0.000 -0.003
      -0.000  0.000 -0.000  0.997 -0.000
       0.000  0.000 -0.003 -0.000  0.994

     Number of occupied Hubbard levels =   14.2844

     HUBBARD ENERGY =    0.1124  (Ry)

     total cpu time spent up to now is      136.5 secs

     total energy              =   -1163.58295943 Ry
     estimated scf accuracy    <       0.01118090 Ry

     total magnetization       =     4.00 Bohr mag/cell
     absolute magnetization    =     5.94 Bohr mag/cell

     iteration #  5     ecut=   120.00 Ry     beta= 0.70
     Davidson diagonalization with overlap

---- Real-time Memory Report at c_bands before calling an iterative solver
           444 MiB given to the printing process from OS
           407 MiB allocation reported by mallinfo(arena+hblkhd)
        651959 MiB available memory on the node where the printing process lives
------------------
     c_bands:  1 eigenvalues not converged
     c_bands:  1 eigenvalues not converged
     c_bands:  1 eigenvalues not converged
     c_bands:  1 eigenvalues not converged
     ethr =  1.02E-05,  avg # of iterations =  5.9

     =================== HUBBARD OCCUPATIONS ===================
     ------------------------ ATOM    1 ------------------------
     Tr[ns(  1)] (up, down, total) =   4.91421  0.26033  5.17454
     Atomic magnetic moment for atom   1 =   4.65388
     SPIN  1
     eigenvalues:
       0.955  0.975  0.993  0.995  0.996
     eigenvectors (columns):
      -0.003  0.402  0.375 -0.826 -0.127
      -0.019 -0.911  0.254 -0.319 -0.060
       0.594 -0.001  0.011  0.125 -0.795
       0.036  0.090  0.890  0.431  0.108
       0.803 -0.023 -0.041 -0.122  0.581
     occupation matrix ns (before diag.):
       0.992  0.007  0.000 -0.001  0.000
       0.007  0.979  0.000  0.001  0.000
       0.000  0.000  0.982 -0.001 -0.020
      -0.001  0.001 -0.001  0.993 -0.001
       0.000  0.000 -0.020 -0.001  0.969
     SPIN  2
     eigenvalues:
       0.021  0.024  0.038  0.069  0.108
     eigenvectors (columns):
       0.043 -0.855 -0.316  0.409 -0.003
       0.020 -0.345 -0.239 -0.907  0.004
       0.799  0.028  0.029  0.002  0.600
      -0.010  0.384 -0.918  0.095  0.040
      -0.599 -0.042  0.024 -0.001  0.799
     occupation matrix ns (before diag.):
       0.033 -0.016 -0.000  0.006 -0.000
      -0.016  0.062 -0.000 -0.001  0.000
      -0.000 -0.000  0.052  0.002  0.042
       0.006 -0.001  0.002  0.036  0.002
      -0.000  0.000  0.042  0.002  0.077
     ------------------------ ATOM    2 ------------------------
     Tr[ns(  2)] (up, down, total) =   4.17065  4.97746  9.14811
     Atomic magnetic moment for atom   2 =  -0.80681
     SPIN  1
     eigenvalues:
       0.185  0.993  0.997  0.998  0.998
     eigenvectors (columns):
      -0.007 -0.406 -0.331 -0.847 -0.087
       0.011  0.907 -0.259 -0.329 -0.050
       0.598 -0.020  0.000  0.086 -0.797
       0.040 -0.110 -0.906  0.399  0.075
       0.801  0.004  0.045 -0.088  0.591
     occupation matrix ns (before diag.):
       0.997  0.002  0.004 -0.000  0.005
       0.002  0.994 -0.005 -0.000 -0.007
       0.004 -0.005  0.708 -0.019 -0.389
      -0.000 -0.000 -0.019  0.996 -0.026
       0.005 -0.007 -0.389 -0.026  0.477
     SPIN  2
     eigenvalues:
       0.992  0.993  0.997  0.997  0.998
     eigenvectors (columns):
       0.012 -0.420 -0.291  0.860 -0.009
      -0.050  0.899 -0.253  0.354 -0.016
       0.615  0.022 -0.002 -0.006 -0.788
       0.046 -0.112 -0.922 -0.366  0.037
       0.785  0.053  0.043  0.036  0.614
     occupation matrix ns (before diag.):
       0.997  0.001 -0.000 -0.000  0.000
       0.001  0.994  0.000  0.000  0.000
      -0.000  0.000  0.996 -0.000 -0.003
      -0.000  0.000 -0.000  0.997 -0.000
       0.000  0.000 -0.003 -0.000  0.994

     Number of occupied Hubbard levels =   14.3226

     HUBBARD ENERGY =    0.1239  (Ry)

     total cpu time spent up to now is      173.4 secs

     total energy              =   -1163.58594284 Ry
     estimated scf accuracy    <       0.00236871 Ry

     total magnetization       =     4.00 Bohr mag/cell
     absolute magnetization    =     5.93 Bohr mag/cell

     iteration #  6     ecut=   120.00 Ry     beta= 0.70
     Davidson diagonalization with overlap

---- Real-time Memory Report at c_bands before calling an iterative solver
           444 MiB given to the printing process from OS
           408 MiB allocation reported by mallinfo(arena+hblkhd)
        651945 MiB available memory on the node where the printing process lives
------------------
     c_bands:  1 eigenvalues not converged
     c_bands:  1 eigenvalues not converged
     c_bands:  1 eigenvalues not converged
     c_bands:  1 eigenvalues not converged
     ethr =  2.15E-06,  avg # of iterations =  4.7

     =================== HUBBARD OCCUPATIONS ===================
     ------------------------ ATOM    1 ------------------------
     Tr[ns(  1)] (up, down, total) =   4.91405  0.26098  5.17503
     Atomic magnetic moment for atom   1 =   4.65306
     SPIN  1
     eigenvalues:
       0.955  0.975  0.993  0.995  0.996
     eigenvectors (columns):
      -0.003  0.401  0.368 -0.829 -0.129
      -0.019 -0.911  0.252 -0.320 -0.060
       0.595 -0.001  0.012  0.126 -0.794
       0.036  0.090  0.894  0.424  0.109
       0.803 -0.023 -0.042 -0.124  0.582
     occupation matrix ns (before diag.):
       0.992  0.007  0.000 -0.001  0.000
       0.007  0.979  0.000  0.001  0.000
       0.000  0.000  0.981 -0.001 -0.020
      -0.001  0.001 -0.001  0.993 -0.001
       0.000  0.000 -0.020 -0.001  0.969
     SPIN  2
     eigenvalues:
       0.021  0.024  0.038  0.069  0.108
     eigenvectors (columns):
       0.041 -0.855 -0.317  0.409 -0.003
       0.019 -0.345 -0.238 -0.908  0.004
       0.799  0.026  0.029  0.002  0.600
      -0.010  0.385 -0.917  0.095  0.040
      -0.599 -0.040  0.024 -0.001  0.799
     occupation matrix ns (before diag.):
       0.033 -0.016 -0.000  0.006 -0.000
      -0.016  0.062 -0.000 -0.001  0.000
      -0.000 -0.000  0.053  0.002  0.042
       0.006 -0.001  0.002  0.036  0.002
      -0.000  0.000  0.042  0.002  0.077
     ------------------------ ATOM    2 ------------------------
     Tr[ns(  2)] (up, down, total) =   4.19809  4.97776  9.17584
     Atomic magnetic moment for atom   2 =  -0.77967
     SPIN  1
     eigenvalues:
       0.212  0.993  0.997  0.998  0.998
     eigenvectors (columns):
      -0.008 -0.404 -0.333 -0.847 -0.089
       0.011  0.908 -0.258 -0.327 -0.051
       0.598 -0.020  0.000  0.087 -0.796
       0.040 -0.110 -0.906  0.400  0.076
       0.800  0.005  0.045 -0.089  0.591
     occupation matrix ns (before diag.):
       0.997  0.002  0.004 -0.000  0.005
       0.002  0.994 -0.005 -0.000 -0.007
       0.004 -0.005  0.717 -0.019 -0.376
      -0.000 -0.000 -0.019  0.996 -0.025
       0.005 -0.007 -0.376 -0.025  0.495
     SPIN  2
     eigenvalues:
       0.992  0.994  0.997  0.998  0.998
     eigenvectors (columns):
       0.014 -0.417 -0.292  0.861 -0.009
      -0.054  0.900 -0.251  0.352 -0.017
       0.616  0.025 -0.001 -0.007 -0.788
       0.046 -0.110 -0.922 -0.366  0.038
       0.785  0.057  0.043  0.036  0.615
     occupation matrix ns (before diag.):
       0.997  0.001 -0.000 -0.000  0.000
       0.001  0.994  0.000  0.000  0.000
      -0.000  0.000  0.996 -0.000 -0.003
      -0.000  0.000 -0.000  0.997 -0.000
       0.000  0.000 -0.003 -0.000  0.994

     Number of occupied Hubbard levels =   14.3509

     HUBBARD ENERGY =    0.1302  (Ry)

     total cpu time spent up to now is      202.7 secs

     total energy              =   -1163.58459540 Ry
     estimated scf accuracy    <       0.00072835 Ry

     total magnetization       =     4.00 Bohr mag/cell
     absolute magnetization    =     5.93 Bohr mag/cell

     iteration #  7     ecut=   120.00 Ry     beta= 0.70
     Davidson diagonalization with overlap

---- Real-time Memory Report at c_bands before calling an iterative solver
           445 MiB given to the printing process from OS
           408 MiB allocation reported by mallinfo(arena+hblkhd)
        657081 MiB available memory on the node where the printing process lives
------------------
     ethr =  6.62E-07,  avg # of iterations =  2.0

     =================== HUBBARD OCCUPATIONS ===================
     ------------------------ ATOM    1 ------------------------
     Tr[ns(  1)] (up, down, total) =   4.91292  0.26022  5.17315
     Atomic magnetic moment for atom   1 =   4.65270
     SPIN  1
     eigenvalues:
       0.954  0.975  0.993  0.995  0.996
     eigenvectors (columns):
      -0.003  0.402  0.361 -0.832 -0.128
      -0.019 -0.911  0.250 -0.322 -0.060
       0.595 -0.001  0.013  0.125 -0.794
       0.036  0.091  0.897  0.417  0.107
       0.803 -0.023 -0.043 -0.122  0.582
     occupation matrix ns (before diag.):
       0.992  0.007  0.000 -0.001  0.000
       0.007  0.978  0.000  0.001  0.000
       0.000  0.000  0.981 -0.001 -0.020
      -0.001  0.001 -0.001  0.993 -0.001
       0.000  0.000 -0.020 -0.001  0.969
     SPIN  2
     eigenvalues:
       0.021  0.024  0.038  0.069  0.108
     eigenvectors (columns):
       0.042 -0.855 -0.317  0.409 -0.003
       0.020 -0.345 -0.238 -0.908  0.004
       0.799  0.027  0.029  0.002  0.600
      -0.010  0.385 -0.917  0.095  0.040
      -0.599 -0.041  0.024 -0.001  0.799
     occupation matrix ns (before diag.):
       0.033 -0.016 -0.000  0.006 -0.000
      -0.016  0.062 -0.000 -0.001  0.000
      -0.000 -0.000  0.052  0.002  0.042
       0.006 -0.001  0.002  0.036  0.002
      -0.000  0.000  0.042  0.002  0.077
     ------------------------ ATOM    2 ------------------------
     Tr[ns(  2)] (up, down, total) =   4.21531  4.97792  9.19323
     Atomic magnetic moment for atom   2 =  -0.76261
     SPIN  1
     eigenvalues:
       0.229  0.993  0.997  0.998  0.998
     eigenvectors (columns):
      -0.008 -0.405 -0.334 -0.846 -0.090
       0.010  0.908 -0.259 -0.326 -0.051
       0.599 -0.020  0.000  0.089 -0.795
       0.040 -0.110 -0.905  0.402  0.077
       0.799  0.005  0.045 -0.091  0.592
     occupation matrix ns (before diag.):
       0.997  0.002  0.004 -0.000  0.005
       0.002  0.994 -0.005 -0.000 -0.006
       0.004 -0.005  0.722 -0.018 -0.368
      -0.000 -0.000 -0.018  0.996 -0.025
       0.005 -0.006 -0.368 -0.025  0.507
     SPIN  2
     eigenvalues:
       0.992  0.993  0.997  0.998  0.998
     eigenvectors (columns):
       0.017 -0.417 -0.293  0.860 -0.013
      -0.061  0.900 -0.252  0.351 -0.019
       0.615  0.029 -0.002 -0.010 -0.788
       0.047 -0.111 -0.921 -0.368  0.039
       0.785  0.063  0.043  0.038  0.614
     occupation matrix ns (before diag.):
       0.997  0.001 -0.000 -0.000  0.000
       0.001  0.994  0.000  0.000  0.000
      -0.000  0.000  0.996 -0.000 -0.003
      -0.000  0.000 -0.000  0.997 -0.000
       0.000  0.000 -0.003 -0.000  0.994

     Number of occupied Hubbard levels =   14.3664

     HUBBARD ENERGY =    0.1361  (Ry)

     total cpu time spent up to now is      229.7 secs

     total energy              =   -1163.58143367 Ry
     estimated scf accuracy    <       0.00032632 Ry

     total magnetization       =     4.01 Bohr mag/cell
     absolute magnetization    =     5.93 Bohr mag/cell

     iteration #  8     ecut=   120.00 Ry     beta= 0.70
     Davidson diagonalization with overlap

---- Real-time Memory Report at c_bands before calling an iterative solver
           446 MiB given to the printing process from OS
           409 MiB allocation reported by mallinfo(arena+hblkhd)
        651926 MiB available memory on the node where the printing process lives
------------------
     ethr =  2.97E-07,  avg # of iterations =  3.2
     Minimization algorithm failed to find Fermi energy: reverting to bisection
     Possible cause: smearing is larger than the electronic band-gap.

     =================== HUBBARD OCCUPATIONS ===================
     ------------------------ ATOM    1 ------------------------
     Tr[ns(  1)] (up, down, total) =   4.91026  0.25984  5.17010
     Atomic magnetic moment for atom   1 =   4.65041
     SPIN  1
     eigenvalues:
       0.951  0.975  0.993  0.995  0.996
     eigenvectors (columns):
      -0.005  0.404  0.354 -0.833 -0.132
      -0.016 -0.910  0.250 -0.325 -0.062
       0.585  0.002  0.013  0.130 -0.800
       0.037  0.093  0.900  0.410  0.108
       0.810 -0.021 -0.043 -0.124  0.572
     occupation matrix ns (before diag.):
       0.992  0.007  0.000 -0.001  0.000
       0.007  0.979  0.000  0.001  0.000
       0.000  0.000  0.981 -0.001 -0.021
      -0.001  0.001 -0.001  0.993 -0.001
       0.000  0.000 -0.021 -0.001  0.967
     SPIN  2
     eigenvalues:
       0.021  0.024  0.038  0.069  0.108
     eigenvectors (columns):
       0.041 -0.855 -0.317  0.408 -0.003
       0.020 -0.345 -0.238 -0.908  0.004
       0.799  0.027  0.029  0.002  0.600
      -0.010  0.385 -0.917  0.094  0.040
      -0.599 -0.041  0.024 -0.001  0.799
     occupation matrix ns (before diag.):
       0.033 -0.016 -0.000  0.006 -0.000
      -0.016  0.062 -0.000 -0.001  0.000
      -0.000 -0.000  0.052  0.002  0.042
       0.006 -0.001  0.002  0.036  0.002
      -0.000  0.000  0.042  0.002  0.077
     ------------------------ ATOM    2 ------------------------
     Tr[ns(  2)] (up, down, total) =   4.22673  4.97812  9.20485
     Atomic magnetic moment for atom   2 =  -0.75138
     SPIN  1
     eigenvalues:
       0.240  0.993  0.997  0.998  0.998
     eigenvectors (columns):
      -0.009 -0.406 -0.343 -0.842 -0.098
       0.010  0.907 -0.264 -0.323 -0.054
       0.600 -0.020 -0.000  0.096 -0.794
       0.040 -0.111 -0.900  0.410  0.083
       0.799  0.005  0.045 -0.098  0.592
     occupation matrix ns (before diag.):
       0.997  0.002  0.004 -0.000  0.005
       0.002  0.994 -0.004  0.000 -0.006
       0.004 -0.004  0.725 -0.018 -0.363
      -0.000  0.000 -0.018  0.996 -0.024
       0.005 -0.006 -0.363 -0.024  0.515
     SPIN  2
     eigenvalues:
       0.992  0.993  0.997  0.998  0.998
     eigenvectors (columns):
       0.021 -0.416 -0.298  0.859 -0.018
      -0.069  0.899 -0.254  0.348 -0.021
       0.614  0.034 -0.002 -0.015 -0.788
       0.047 -0.111 -0.919 -0.372  0.041
       0.785  0.070  0.042  0.042  0.613
     occupation matrix ns (before diag.):
       0.997  0.002 -0.000 -0.000  0.000
       0.002  0.994  0.000  0.000  0.000
      -0.000  0.000  0.996 -0.000 -0.003
      -0.000  0.000 -0.000  0.997 -0.000
       0.000  0.000 -0.003 -0.000  0.994

     Number of occupied Hubbard levels =   14.3750

     HUBBARD ENERGY =    0.1353  (Ry)

     total cpu time spent up to now is      261.2 secs

     total energy              =   -1163.58651001 Ry
     estimated scf accuracy    <       0.00003920 Ry

     total magnetization       =     4.00 Bohr mag/cell
     absolute magnetization    =     5.93 Bohr mag/cell

     iteration #  9     ecut=   120.00 Ry     beta= 0.70
     Davidson diagonalization with overlap

---- Real-time Memory Report at c_bands before calling an iterative solver
           446 MiB given to the printing process from OS
           410 MiB allocation reported by mallinfo(arena+hblkhd)
        651917 MiB available memory on the node where the printing process lives
------------------
     ethr =  3.56E-08,  avg # of iterations =  3.5
     Minimization algorithm failed to find Fermi energy: reverting to bisection
     Possible cause: smearing is larger than the electronic band-gap.

     =================== HUBBARD OCCUPATIONS ===================
     ------------------------ ATOM    1 ------------------------
     Tr[ns(  1)] (up, down, total) =   4.91069  0.26012  5.17080
     Atomic magnetic moment for atom   1 =   4.65057
     SPIN  1
     eigenvalues:
       0.951  0.975  0.993  0.995  0.996
     eigenvectors (columns):
      -0.004  0.404  0.355 -0.833 -0.133
      -0.016 -0.910  0.250 -0.325 -0.063
       0.585  0.002  0.013  0.130 -0.800
       0.037  0.093  0.900  0.411  0.108
       0.810 -0.021 -0.043 -0.124  0.572
     occupation matrix ns (before diag.):
       0.992  0.007  0.000 -0.001  0.000
       0.007  0.979  0.000  0.001  0.000
       0.000  0.000  0.981 -0.001 -0.021
      -0.001  0.001 -0.001  0.993 -0.001
       0.000  0.000 -0.021 -0.001  0.967
     SPIN  2
     eigenvalues:
       0.021  0.024  0.038  0.069  0.108
     eigenvectors (columns):
       0.041 -0.855 -0.317  0.408 -0.003
       0.020 -0.345 -0.238 -0.908  0.004
       0.799  0.027  0.029  0.002  0.600
      -0.010  0.385 -0.917  0.094  0.040
      -0.599 -0.041  0.024 -0.001  0.799
     occupation matrix ns (before diag.):
       0.033 -0.016 -0.000  0.006 -0.000
      -0.016  0.062 -0.000 -0.001  0.000
      -0.000 -0.000  0.052  0.002  0.042
       0.006 -0.001  0.002  0.036  0.002
      -0.000  0.000  0.042  0.002  0.077
     ------------------------ ATOM    2 ------------------------
     Tr[ns(  2)] (up, down, total) =   4.22497  4.97813  9.20309
     Atomic magnetic moment for atom   2 =  -0.75316
     SPIN  1
     eigenvalues:
       0.239  0.993  0.997  0.998  0.998
     eigenvectors (columns):
      -0.009 -0.406 -0.344 -0.841 -0.098
       0.010  0.907 -0.264 -0.323 -0.054
       0.600 -0.020 -0.000  0.096 -0.794
       0.040 -0.111 -0.900  0.411  0.084
       0.799  0.005  0.045 -0.098  0.592
     occupation matrix ns (before diag.):
       0.997  0.002  0.004 -0.000  0.005
       0.002  0.994 -0.004  0.000 -0.006
       0.004 -0.004  0.724 -0.018 -0.364
      -0.000  0.000 -0.018  0.996 -0.024
       0.005 -0.006 -0.364 -0.024  0.514
     SPIN  2
     eigenvalues:
       0.992  0.993  0.997  0.998  0.998
     eigenvectors (columns):
       0.020 -0.416 -0.297  0.859 -0.017
      -0.067  0.899 -0.254  0.348 -0.021
       0.614  0.033 -0.002 -0.014 -0.788
       0.047 -0.111 -0.919 -0.372  0.041
       0.785  0.069  0.042  0.042  0.613
     occupation matrix ns (before diag.):
       0.997  0.002 -0.000 -0.000  0.000
       0.002  0.994  0.000  0.000  0.000
      -0.000  0.000  0.996 -0.000 -0.003
      -0.000  0.000 -0.000  0.997 -0.000
       0.000  0.000 -0.003 -0.000  0.994

     Number of occupied Hubbard levels =   14.3739

     HUBBARD ENERGY =    0.1358  (Ry)

     total cpu time spent up to now is      290.9 secs

     total energy              =   -1163.58651939 Ry
     estimated scf accuracy    <       0.00000959 Ry

     total magnetization       =     4.00 Bohr mag/cell
     absolute magnetization    =     5.93 Bohr mag/cell

     iteration # 10     ecut=   120.00 Ry     beta= 0.70
     Davidson diagonalization with overlap

---- Real-time Memory Report at c_bands before calling an iterative solver
           447 MiB given to the printing process from OS
           410 MiB allocation reported by mallinfo(arena+hblkhd)
        655247 MiB available memory on the node where the printing process lives
------------------
     ethr =  8.72E-09,  avg # of iterations =  2.7
     Minimization algorithm failed to find Fermi energy: reverting to bisection
     Possible cause: smearing is larger than the electronic band-gap.

     =================== HUBBARD OCCUPATIONS ===================
     ------------------------ ATOM    1 ------------------------
     Tr[ns(  1)] (up, down, total) =   4.91071  0.26041  5.17112
     Atomic magnetic moment for atom   1 =   4.65030
     SPIN  1
     eigenvalues:
       0.951  0.976  0.993  0.995  0.996
     eigenvectors (columns):
      -0.005  0.404  0.355 -0.833 -0.132
      -0.016 -0.910  0.250 -0.325 -0.063
       0.585  0.002  0.013  0.130 -0.800
       0.037  0.093  0.900  0.411  0.108
       0.810 -0.021 -0.043 -0.124  0.571
     occupation matrix ns (before diag.):
       0.992  0.007  0.000 -0.001  0.000
       0.007  0.979  0.000  0.001  0.000
       0.000  0.000  0.981 -0.001 -0.021
      -0.001  0.001 -0.001  0.993 -0.001
       0.000  0.000 -0.021 -0.001  0.967
     SPIN  2
     eigenvalues:
       0.021  0.024  0.038  0.069  0.108
     eigenvectors (columns):
       0.041 -0.855 -0.317  0.408 -0.003
       0.020 -0.345 -0.238 -0.908  0.004
       0.799  0.027  0.029  0.002  0.600
      -0.010  0.384 -0.917  0.094  0.040
      -0.599 -0.041  0.024 -0.001  0.799
     occupation matrix ns (before diag.):
       0.033 -0.016 -0.000  0.006 -0.000
      -0.016  0.062 -0.000 -0.001  0.000
      -0.000 -0.000  0.052  0.002  0.042
       0.006 -0.001  0.002  0.036  0.002
      -0.000  0.000  0.042  0.002  0.077
     ------------------------ ATOM    2 ------------------------
     Tr[ns(  2)] (up, down, total) =   4.22668  4.97812  9.20480
     Atomic magnetic moment for atom   2 =  -0.75144
     SPIN  1
     eigenvalues:
       0.240  0.993  0.997  0.998  0.998
     eigenvectors (columns):
      -0.009 -0.406 -0.344 -0.841 -0.099
       0.010  0.907 -0.264 -0.323 -0.054
       0.601 -0.020 -0.001  0.096 -0.793
       0.040 -0.111 -0.900  0.411  0.084
       0.798  0.005  0.045 -0.099  0.593
     occupation matrix ns (before diag.):
       0.997  0.002  0.004 -0.000  0.005
       0.002  0.994 -0.004  0.000 -0.006
       0.004 -0.004  0.724 -0.018 -0.364
      -0.000  0.000 -0.018  0.996 -0.024
       0.005 -0.006 -0.364 -0.024  0.516
     SPIN  2
     eigenvalues:
       0.992  0.993  0.997  0.998  0.998
     eigenvectors (columns):
       0.020 -0.416 -0.297  0.859 -0.017
      -0.067  0.899 -0.254  0.349 -0.020
       0.614  0.033 -0.002 -0.014 -0.788
       0.047 -0.111 -0.919 -0.372  0.041
       0.785  0.069  0.043  0.041  0.613
     occupation matrix ns (before diag.):
       0.997  0.002 -0.000 -0.000  0.000
       0.002  0.994  0.000  0.000  0.000
      -0.000  0.000  0.996 -0.000 -0.003
      -0.000  0.000 -0.000  0.997 -0.000
       0.000  0.000 -0.003 -0.000  0.994

     Number of occupied Hubbard levels =   14.3759

     HUBBARD ENERGY =    0.1363  (Ry)

     total cpu time spent up to now is      319.3 secs

     total energy              =   -1163.58652142 Ry
     estimated scf accuracy    <       0.00000564 Ry

     total magnetization       =     4.00 Bohr mag/cell
     absolute magnetization    =     5.94 Bohr mag/cell

     iteration # 11     ecut=   120.00 Ry     beta= 0.70
     Davidson diagonalization with overlap

---- Real-time Memory Report at c_bands before calling an iterative solver
           447 MiB given to the printing process from OS
           411 MiB allocation reported by mallinfo(arena+hblkhd)
        653833 MiB available memory on the node where the printing process lives
------------------
     ethr =  5.13E-09,  avg # of iterations =  2.1
     Minimization algorithm failed to find Fermi energy: reverting to bisection
     Possible cause: smearing is larger than the electronic band-gap.

     =================== HUBBARD OCCUPATIONS ===================
     ------------------------ ATOM    1 ------------------------
     Tr[ns(  1)] (up, down, total) =   4.91076  0.26052  5.17128
     Atomic magnetic moment for atom   1 =   4.65023
     SPIN  1
     eigenvalues:
       0.951  0.976  0.993  0.995  0.996
     eigenvectors (columns):
      -0.005  0.404  0.355 -0.833 -0.132
      -0.016 -0.910  0.250 -0.325 -0.063
       0.585  0.002  0.013  0.130 -0.800
       0.037  0.093  0.900  0.411  0.108
       0.810 -0.021 -0.043 -0.124  0.571
     occupation matrix ns (before diag.):
       0.992  0.007  0.000 -0.001  0.000
       0.007  0.979  0.000  0.001  0.000
       0.000  0.000  0.981 -0.001 -0.021
      -0.001  0.001 -0.001  0.993 -0.001
       0.000  0.000 -0.021 -0.001  0.967
     SPIN  2
     eigenvalues:
       0.021  0.024  0.038  0.069  0.108
     eigenvectors (columns):
       0.041 -0.855 -0.317  0.408 -0.003
       0.020 -0.345 -0.238 -0.908  0.004
       0.799  0.027  0.029  0.002  0.600
      -0.010  0.384 -0.917  0.094  0.040
      -0.599 -0.041  0.024 -0.001  0.799
     occupation matrix ns (before diag.):
       0.033 -0.016 -0.000  0.006 -0.000
      -0.016  0.062 -0.000 -0.001  0.000
      -0.000 -0.000  0.052  0.002  0.042
       0.006 -0.001  0.002  0.036  0.002
      -0.000  0.000  0.042  0.002  0.077
     ------------------------ ATOM    2 ------------------------
     Tr[ns(  2)] (up, down, total) =   4.22746  4.97813  9.20559
     Atomic magnetic moment for atom   2 =  -0.75067
     SPIN  1
     eigenvalues:
       0.241  0.993  0.997  0.998  0.998
     eigenvectors (columns):
      -0.009 -0.406 -0.344 -0.841 -0.099
       0.010  0.907 -0.265 -0.323 -0.054
       0.602 -0.020 -0.001  0.096 -0.793
       0.040 -0.111 -0.900  0.412  0.084
       0.798  0.005  0.045 -0.099  0.593
     occupation matrix ns (before diag.):
       0.997  0.002  0.004 -0.000  0.005
       0.002  0.994 -0.004  0.000 -0.006
       0.004 -0.004  0.724 -0.018 -0.363
      -0.000  0.000 -0.018  0.996 -0.024
       0.005 -0.006 -0.363 -0.024  0.517
     SPIN  2
     eigenvalues:
       0.992  0.993  0.997  0.998  0.998
     eigenvectors (columns):
       0.021 -0.416 -0.298  0.859 -0.017
      -0.068  0.899 -0.254  0.348 -0.021
       0.614  0.034 -0.002 -0.015 -0.788
       0.047 -0.111 -0.919 -0.373  0.041
       0.785  0.069  0.043  0.042  0.613
     occupation matrix ns (before diag.):
       0.997  0.002 -0.000 -0.000  0.000
       0.002  0.994  0.000  0.000  0.000
      -0.000  0.000  0.996 -0.000 -0.003
      -0.000  0.000 -0.000  0.997 -0.000
       0.000  0.000 -0.003 -0.000  0.994

     Number of occupied Hubbard levels =   14.3769

     HUBBARD ENERGY =    0.1363  (Ry)

     total cpu time spent up to now is      347.9 secs

     total energy              =   -1163.58652312 Ry
     estimated scf accuracy    <       0.00000069 Ry

     total magnetization       =     4.00 Bohr mag/cell
     absolute magnetization    =     5.94 Bohr mag/cell

     iteration # 12     ecut=   120.00 Ry     beta= 0.70
     Davidson diagonalization with overlap

---- Real-time Memory Report at c_bands before calling an iterative solver
           447 MiB given to the printing process from OS
           411 MiB allocation reported by mallinfo(arena+hblkhd)
        650244 MiB available memory on the node where the printing process lives
------------------
     ethr =  6.31E-10,  avg # of iterations =  4.2
     Minimization algorithm failed to find Fermi energy: reverting to bisection
     Possible cause: smearing is larger than the electronic band-gap.

     =================== HUBBARD OCCUPATIONS ===================
     ------------------------ ATOM    1 ------------------------
     Tr[ns(  1)] (up, down, total) =   4.91081  0.26053  5.17134
     Atomic magnetic moment for atom   1 =   4.65028
     SPIN  1
     eigenvalues:
       0.951  0.976  0.993  0.995  0.996
     eigenvectors (columns):
      -0.005  0.404  0.355 -0.833 -0.132
      -0.016 -0.910  0.250 -0.325 -0.063
       0.585  0.002  0.013  0.130 -0.800
       0.037  0.093  0.900  0.411  0.108
       0.810 -0.021 -0.043 -0.124  0.571
     occupation matrix ns (before diag.):
       0.992  0.007  0.000 -0.001  0.000
       0.007  0.979  0.000  0.001  0.000
       0.000  0.000  0.981 -0.001 -0.021
      -0.001  0.001 -0.001  0.993 -0.001
       0.000  0.000 -0.021 -0.001  0.967
     SPIN  2
     eigenvalues:
       0.021  0.024  0.038  0.069  0.108
     eigenvectors (columns):
       0.041 -0.855 -0.317  0.408 -0.003
       0.020 -0.345 -0.238 -0.908  0.004
       0.799  0.027  0.029  0.002  0.600
      -0.010  0.384 -0.917  0.094  0.040
      -0.599 -0.041  0.024 -0.001  0.799
     occupation matrix ns (before diag.):
       0.033 -0.016 -0.000  0.006 -0.000
      -0.016  0.062 -0.000 -0.001  0.000
      -0.000 -0.000  0.052  0.002  0.042
       0.006 -0.001  0.002  0.036  0.002
      -0.000  0.000  0.042  0.002  0.077
     ------------------------ ATOM    2 ------------------------
     Tr[ns(  2)] (up, down, total) =   4.22729  4.97814  9.20543
     Atomic magnetic moment for atom   2 =  -0.75085
     SPIN  1
     eigenvalues:
       0.241  0.993  0.997  0.998  0.998
     eigenvectors (columns):
      -0.009 -0.406 -0.345 -0.841 -0.099
       0.010  0.907 -0.265 -0.323 -0.054
       0.602 -0.020 -0.001  0.096 -0.792
       0.040 -0.111 -0.899  0.412  0.084
       0.797  0.005  0.045 -0.100  0.593
     occupation matrix ns (before diag.):
       0.997  0.002  0.004 -0.000  0.006
       0.002  0.994 -0.004  0.000 -0.006
       0.004 -0.004  0.724 -0.018 -0.363
      -0.000  0.000 -0.018  0.996 -0.024
       0.006 -0.006 -0.363 -0.024  0.517
     SPIN  2
     eigenvalues:
       0.992  0.993  0.997  0.998  0.998
     eigenvectors (columns):
       0.021 -0.416 -0.298  0.859 -0.017
      -0.068  0.899 -0.254  0.348 -0.021
       0.614  0.034 -0.002 -0.015 -0.788
       0.047 -0.111 -0.919 -0.373  0.041
       0.785  0.069  0.043  0.042  0.613
     occupation matrix ns (before diag.):
       0.997  0.002 -0.000 -0.000  0.000
       0.002  0.994  0.000  0.000  0.000
      -0.000  0.000  0.996 -0.000 -0.003
      -0.000  0.000 -0.000  0.997 -0.000
       0.000  0.000 -0.003 -0.000  0.994

     Number of occupied Hubbard levels =   14.3768

     HUBBARD ENERGY =    0.1363  (Ry)

     total cpu time spent up to now is      381.9 secs

     total energy              =   -1163.58652351 Ry
     estimated scf accuracy    <       0.00000031 Ry

     total magnetization       =     4.00 Bohr mag/cell
     absolute magnetization    =     5.94 Bohr mag/cell

     iteration # 13     ecut=   120.00 Ry     beta= 0.70
     Davidson diagonalization with overlap

---- Real-time Memory Report at c_bands before calling an iterative solver
           447 MiB given to the printing process from OS
           411 MiB allocation reported by mallinfo(arena+hblkhd)
        653488 MiB available memory on the node where the printing process lives
------------------
     ethr =  2.78E-10,  avg # of iterations =  1.9
     Minimization algorithm failed to find Fermi energy: reverting to bisection
     Possible cause: smearing is larger than the electronic band-gap.

     =================== HUBBARD OCCUPATIONS ===================
     ------------------------ ATOM    1 ------------------------
     Tr[ns(  1)] (up, down, total) =   4.91080  0.26054  5.17134
     Atomic magnetic moment for atom   1 =   4.65026
     SPIN  1
     eigenvalues:
       0.951  0.976  0.993  0.995  0.996
     eigenvectors (columns):
      -0.005  0.404  0.355 -0.833 -0.132
      -0.016 -0.910  0.250 -0.325 -0.063
       0.585  0.002  0.013  0.130 -0.800
       0.037  0.093  0.900  0.411  0.108
       0.810 -0.021 -0.043 -0.124  0.571
     occupation matrix ns (before diag.):
       0.992  0.007  0.000 -0.001  0.000
       0.007  0.979  0.000  0.001  0.000
       0.000  0.000  0.981 -0.001 -0.021
      -0.001  0.001 -0.001  0.993 -0.001
       0.000  0.000 -0.021 -0.001  0.967
     SPIN  2
     eigenvalues:
       0.021  0.024  0.038  0.069  0.108
     eigenvectors (columns):
       0.041 -0.855 -0.317  0.408 -0.003
       0.020 -0.345 -0.238 -0.908  0.004
       0.799  0.027  0.029  0.002  0.600
      -0.010  0.384 -0.917  0.094  0.040
      -0.599 -0.041  0.024 -0.001  0.799
     occupation matrix ns (before diag.):
       0.033 -0.016 -0.000  0.006 -0.000
      -0.016  0.062 -0.000 -0.001  0.000
      -0.000 -0.000  0.052  0.002  0.042
       0.006 -0.001  0.002  0.036  0.002
      -0.000  0.000  0.042  0.002  0.077
     ------------------------ ATOM    2 ------------------------
     Tr[ns(  2)] (up, down, total) =   4.22742  4.97814  9.20556
     Atomic magnetic moment for atom   2 =  -0.75072
     SPIN  1
     eigenvalues:
       0.241  0.993  0.997  0.998  0.998
     eigenvectors (columns):
      -0.009 -0.406 -0.345 -0.841 -0.099
       0.010  0.907 -0.265 -0.323 -0.054
       0.602 -0.020 -0.001  0.096 -0.792
       0.040 -0.111 -0.899  0.412  0.084
       0.797  0.005  0.045 -0.100  0.594
     occupation matrix ns (before diag.):
       0.997  0.002  0.004 -0.000  0.006
       0.002  0.994 -0.004  0.000 -0.006
       0.004 -0.004  0.724 -0.018 -0.363
      -0.000  0.000 -0.018  0.996 -0.024
       0.006 -0.006 -0.363 -0.024  0.517
     SPIN  2
     eigenvalues:
       0.992  0.993  0.997  0.998  0.998
     eigenvectors (columns):
       0.021 -0.416 -0.298  0.859 -0.017
      -0.068  0.899 -0.254  0.348 -0.021
       0.614  0.034 -0.002 -0.015 -0.788
       0.047 -0.111 -0.919 -0.373  0.041
       0.785  0.069  0.043  0.042  0.613
     occupation matrix ns (before diag.):
       0.997  0.002 -0.000 -0.000  0.000
       0.002  0.994  0.000  0.000  0.000
      -0.000  0.000  0.996 -0.000 -0.003
      -0.000  0.000 -0.000  0.997 -0.000
       0.000  0.000 -0.003 -0.000  0.994

     Number of occupied Hubbard levels =   14.3769

     HUBBARD ENERGY =    0.1363  (Ry)

     total cpu time spent up to now is      406.7 secs

     total energy              =   -1163.58652363 Ry
     estimated scf accuracy    <       0.00000014 Ry

     total magnetization       =     4.00 Bohr mag/cell
     absolute magnetization    =     5.94 Bohr mag/cell

     iteration # 14     ecut=   120.00 Ry     beta= 0.70
     Davidson diagonalization with overlap

---- Real-time Memory Report at c_bands before calling an iterative solver
           447 MiB given to the printing process from OS
           411 MiB allocation reported by mallinfo(arena+hblkhd)
        655275 MiB available memory on the node where the printing process lives
------------------
     ethr =  1.26E-10,  avg # of iterations =  2.2
     Minimization algorithm failed to find Fermi energy: reverting to bisection
     Possible cause: smearing is larger than the electronic band-gap.

     =================== HUBBARD OCCUPATIONS ===================
     ------------------------ ATOM    1 ------------------------
     Tr[ns(  1)] (up, down, total) =   4.91079  0.26055  5.17134
     Atomic magnetic moment for atom   1 =   4.65024
     SPIN  1
     eigenvalues:
       0.951  0.976  0.993  0.995  0.996
     eigenvectors (columns):
      -0.005  0.404  0.355 -0.833 -0.132
      -0.016 -0.910  0.250 -0.325 -0.063
       0.585  0.002  0.013  0.130 -0.800
       0.037  0.093  0.900  0.411  0.108
       0.810 -0.021 -0.043 -0.124  0.571
     occupation matrix ns (before diag.):
       0.992  0.007  0.000 -0.001  0.000
       0.007  0.979  0.000  0.001  0.000
       0.000  0.000  0.981 -0.001 -0.021
      -0.001  0.001 -0.001  0.993 -0.001
       0.000  0.000 -0.021 -0.001  0.967
     SPIN  2
     eigenvalues:
       0.021  0.024  0.038  0.069  0.108
     eigenvectors (columns):
       0.041 -0.855 -0.317  0.408 -0.003
       0.020 -0.345 -0.238 -0.908  0.004
       0.799  0.027  0.029  0.002  0.600
      -0.010  0.384 -0.917  0.094  0.040
      -0.599 -0.041  0.024 -0.001  0.799
     occupation matrix ns (before diag.):
       0.033 -0.016 -0.000  0.006 -0.000
      -0.016  0.062 -0.000 -0.001  0.000
      -0.000 -0.000  0.052  0.002  0.042
       0.006 -0.001  0.002  0.036  0.002
      -0.000  0.000  0.042  0.002  0.077
     ------------------------ ATOM    2 ------------------------
     Tr[ns(  2)] (up, down, total) =   4.22757  4.97814  9.20571
     Atomic magnetic moment for atom   2 =  -0.75056
     SPIN  1
     eigenvalues:
       0.241  0.993  0.997  0.998  0.998
     eigenvectors (columns):
      -0.010 -0.406 -0.345 -0.841 -0.099
       0.009  0.907 -0.265 -0.323 -0.054
       0.603 -0.019 -0.001  0.096 -0.792
       0.040 -0.111 -0.899  0.412  0.084
       0.797  0.005  0.045 -0.100  0.594
     occupation matrix ns (before diag.):
       0.997  0.002  0.004 -0.000  0.006
       0.002  0.994 -0.004  0.000 -0.006
       0.004 -0.004  0.723 -0.018 -0.364
      -0.000  0.000 -0.018  0.996 -0.024
       0.006 -0.006 -0.364 -0.024  0.518
     SPIN  2
     eigenvalues:
       0.992  0.993  0.997  0.998  0.998
     eigenvectors (columns):
       0.021 -0.416 -0.298  0.859 -0.017
      -0.068  0.899 -0.254  0.348 -0.020
       0.614  0.034 -0.002 -0.014 -0.788
       0.047 -0.111 -0.919 -0.373  0.041
       0.785  0.069  0.043  0.042  0.613
     occupation matrix ns (before diag.):
       0.997  0.002 -0.000 -0.000  0.000
       0.002  0.994  0.000  0.000  0.000
      -0.000  0.000  0.996 -0.000 -0.003
      -0.000  0.000 -0.000  0.997 -0.000
       0.000  0.000 -0.003 -0.000  0.994

     Number of occupied Hubbard levels =   14.3770

     HUBBARD ENERGY =    0.1363  (Ry)

     total cpu time spent up to now is      433.1 secs

     total energy              =   -1163.58652352 Ry
     estimated scf accuracy    <       0.00000008 Ry

     total magnetization       =     4.00 Bohr mag/cell
     absolute magnetization    =     5.94 Bohr mag/cell

     iteration # 15     ecut=   120.00 Ry     beta= 0.70
     Davidson diagonalization with overlap

---- Real-time Memory Report at c_bands before calling an iterative solver
           447 MiB given to the printing process from OS
           411 MiB allocation reported by mallinfo(arena+hblkhd)
        653454 MiB available memory on the node where the printing process lives
------------------
     ethr =  7.57E-11,  avg # of iterations =  3.7
     Minimization algorithm failed to find Fermi energy: reverting to bisection
     Possible cause: smearing is larger than the electronic band-gap.

     =================== HUBBARD OCCUPATIONS ===================
     ------------------------ ATOM    1 ------------------------
     Tr[ns(  1)] (up, down, total) =   4.91078  0.26055  5.17134
     Atomic magnetic moment for atom   1 =   4.65023
     SPIN  1
     eigenvalues:
       0.951  0.976  0.993  0.995  0.996
     eigenvectors (columns):
      -0.005  0.404  0.355 -0.833 -0.132
      -0.016 -0.910  0.250 -0.325 -0.063
       0.585  0.002  0.013  0.130 -0.800
       0.037  0.093  0.900  0.411  0.108
       0.810 -0.021 -0.043 -0.124  0.571
     occupation matrix ns (before diag.):
       0.992  0.007  0.000 -0.001  0.000
       0.007  0.979  0.000  0.001  0.000
       0.000  0.000  0.981 -0.001 -0.021
      -0.001  0.001 -0.001  0.993 -0.001
       0.000  0.000 -0.021 -0.001  0.967
     SPIN  2
     eigenvalues:
       0.021  0.024  0.038  0.069  0.108
     eigenvectors (columns):
       0.041 -0.855 -0.317  0.408 -0.003
       0.020 -0.345 -0.238 -0.908  0.004
       0.799  0.027  0.029  0.002  0.600
      -0.010  0.384 -0.917  0.094  0.040
      -0.599 -0.041  0.024 -0.001  0.799
     occupation matrix ns (before diag.):
       0.033 -0.016 -0.000  0.006 -0.000
      -0.016  0.062 -0.000 -0.001  0.000
      -0.000 -0.000  0.052  0.002  0.042
       0.006 -0.001  0.002  0.036  0.002
      -0.000  0.000  0.042  0.002  0.077
     ------------------------ ATOM    2 ------------------------
     Tr[ns(  2)] (up, down, total) =   4.22766  4.97814  9.20579
     Atomic magnetic moment for atom   2 =  -0.75048
     SPIN  1
     eigenvalues:
       0.241  0.993  0.997  0.998  0.998
     eigenvectors (columns):
      -0.010 -0.406 -0.345 -0.840 -0.099
       0.009  0.907 -0.265 -0.323 -0.054
       0.603 -0.019 -0.001  0.096 -0.791
       0.040 -0.111 -0.899  0.413  0.084
       0.796  0.005  0.045 -0.100  0.595
     occupation matrix ns (before diag.):
       0.997  0.002  0.004 -0.000  0.006
       0.002  0.994 -0.004  0.000 -0.006
       0.004 -0.004  0.723 -0.018 -0.364
      -0.000  0.000 -0.018  0.996 -0.024
       0.006 -0.006 -0.364 -0.024  0.518
     SPIN  2
     eigenvalues:
       0.992  0.993  0.997  0.998  0.998
     eigenvectors (columns):
       0.021 -0.416 -0.298  0.859 -0.017
      -0.068  0.899 -0.254  0.348 -0.020
       0.614  0.034 -0.002 -0.014 -0.788
       0.047 -0.111 -0.919 -0.373  0.041
       0.785  0.069  0.043  0.042  0.613
     occupation matrix ns (before diag.):
       0.997  0.002 -0.000 -0.000  0.000
       0.002  0.994  0.000  0.000  0.000
      -0.000  0.000  0.996 -0.000 -0.003
      -0.000  0.000 -0.000  0.997 -0.000
       0.000  0.000 -0.003 -0.000  0.994

     Number of occupied Hubbard levels =   14.3771

     HUBBARD ENERGY =    0.1363  (Ry)

     total cpu time spent up to now is      463.7 secs

     total energy              =   -1163.58652378 Ry
     estimated scf accuracy    <       0.00000004 Ry

     total magnetization       =     4.00 Bohr mag/cell
     absolute magnetization    =     5.94 Bohr mag/cell

     iteration # 16     ecut=   120.00 Ry     beta= 0.70
     Davidson diagonalization with overlap

---- Real-time Memory Report at c_bands before calling an iterative solver
           447 MiB given to the printing process from OS
           411 MiB allocation reported by mallinfo(arena+hblkhd)
        655241 MiB available memory on the node where the printing process lives
------------------
     ethr =  3.41E-11,  avg # of iterations =  3.6
     Minimization algorithm failed to find Fermi energy: reverting to bisection
     Possible cause: smearing is larger than the electronic band-gap.

     =================== HUBBARD OCCUPATIONS ===================
     ------------------------ ATOM    1 ------------------------
     Tr[ns(  1)] (up, down, total) =   4.91079  0.26055  5.17134
     Atomic magnetic moment for atom   1 =   4.65024
     SPIN  1
     eigenvalues:
       0.951  0.976  0.993  0.995  0.996
     eigenvectors (columns):
      -0.005  0.404  0.355 -0.833 -0.132
      -0.016 -0.910  0.250 -0.325 -0.063
       0.585  0.002  0.013  0.130 -0.800
       0.037  0.093  0.900  0.411  0.108
       0.810 -0.021 -0.043 -0.124  0.571
     occupation matrix ns (before diag.):
       0.992  0.007  0.000 -0.001  0.000
       0.007  0.979  0.000  0.001  0.000
       0.000  0.000  0.981 -0.001 -0.021
      -0.001  0.001 -0.001  0.993 -0.001
       0.000  0.000 -0.021 -0.001  0.967
     SPIN  2
     eigenvalues:
       0.021  0.024  0.038  0.069  0.108
     eigenvectors (columns):
       0.041 -0.855 -0.317  0.408 -0.003
       0.020 -0.345 -0.238 -0.908  0.004
       0.799  0.027  0.029  0.002  0.600
      -0.010  0.384 -0.917  0.094  0.040
      -0.599 -0.041  0.024 -0.001  0.799
     occupation matrix ns (before diag.):
       0.033 -0.016 -0.000  0.006 -0.000
      -0.016  0.062 -0.000 -0.001  0.000
      -0.000 -0.000  0.052  0.002  0.042
       0.006 -0.001  0.002  0.036  0.002
      -0.000  0.000  0.042  0.002  0.077
     ------------------------ ATOM    2 ------------------------
     Tr[ns(  2)] (up, down, total) =   4.22756  4.97814  9.20570
     Atomic magnetic moment for atom   2 =  -0.75058
     SPIN  1
     eigenvalues:
       0.241  0.993  0.997  0.998  0.998
     eigenvectors (columns):
      -0.010 -0.406 -0.345 -0.840 -0.099
       0.009  0.907 -0.265 -0.323 -0.054
       0.604 -0.019 -0.001  0.095 -0.791
       0.040 -0.111 -0.899  0.413  0.084
       0.796  0.005  0.045 -0.100  0.596
     occupation matrix ns (before diag.):
       0.997  0.002  0.005 -0.000  0.006
       0.002  0.994 -0.004  0.000 -0.005
       0.005 -0.004  0.722 -0.018 -0.364
      -0.000  0.000 -0.018  0.996 -0.024
       0.006 -0.005 -0.364 -0.024  0.519
     SPIN  2
     eigenvalues:
       0.992  0.993  0.997  0.998  0.998
     eigenvectors (columns):
       0.021 -0.416 -0.299  0.859 -0.016
      -0.068  0.899 -0.255  0.348 -0.020
       0.614  0.034 -0.002 -0.014 -0.788
       0.047 -0.111 -0.919 -0.374  0.041
       0.784  0.069  0.043  0.041  0.613
     occupation matrix ns (before diag.):
       0.997  0.002 -0.000 -0.000  0.000
       0.002  0.994  0.000  0.000  0.000
      -0.000  0.000  0.996 -0.000 -0.003
      -0.000  0.000 -0.000  0.997 -0.000
       0.000  0.000 -0.003 -0.000  0.994

     Number of occupied Hubbard levels =   14.3770

     HUBBARD ENERGY =    0.1363  (Ry)

     total cpu time spent up to now is      494.4 secs

     total energy              =   -1163.58652417 Ry
     estimated scf accuracy    <          3.8E-09 Ry

     total magnetization       =     4.00 Bohr mag/cell
     absolute magnetization    =     5.94 Bohr mag/cell

     iteration # 17     ecut=   120.00 Ry     beta= 0.70
     Davidson diagonalization with overlap

---- Real-time Memory Report at c_bands before calling an iterative solver
           447 MiB given to the printing process from OS
           411 MiB allocation reported by mallinfo(arena+hblkhd)
        650824 MiB available memory on the node where the printing process lives
------------------
     ethr =  3.43E-12,  avg # of iterations =  3.9
     Minimization algorithm failed to find Fermi energy: reverting to bisection
     Possible cause: smearing is larger than the electronic band-gap.

     =================== HUBBARD OCCUPATIONS ===================
     ------------------------ ATOM    1 ------------------------
     Tr[ns(  1)] (up, down, total) =   4.91079  0.26055  5.17134
     Atomic magnetic moment for atom   1 =   4.65024
     SPIN  1
     eigenvalues:
       0.951  0.976  0.993  0.995  0.996
     eigenvectors (columns):
      -0.005  0.404  0.355 -0.833 -0.132
      -0.016 -0.910  0.250 -0.325 -0.063
       0.585  0.002  0.013  0.130 -0.800
       0.037  0.093  0.900  0.411  0.108
       0.810 -0.021 -0.043 -0.124  0.571
     occupation matrix ns (before diag.):
       0.992  0.007  0.000 -0.001  0.000
       0.007  0.979  0.000  0.001  0.000
       0.000  0.000  0.981 -0.001 -0.021
      -0.001  0.001 -0.001  0.993 -0.001
       0.000  0.000 -0.021 -0.001  0.967
     SPIN  2
     eigenvalues:
       0.021  0.024  0.038  0.069  0.108
     eigenvectors (columns):
       0.041 -0.855 -0.317  0.408 -0.003
       0.020 -0.345 -0.238 -0.908  0.004
       0.799  0.027  0.029  0.002  0.600
      -0.010  0.384 -0.917  0.094  0.040
      -0.599 -0.041  0.024 -0.001  0.799
     occupation matrix ns (before diag.):
       0.033 -0.016 -0.000  0.006 -0.000
      -0.016  0.062 -0.000 -0.001  0.000
      -0.000 -0.000  0.052  0.002  0.042
       0.006 -0.001  0.002  0.036  0.002
      -0.000  0.000  0.042  0.002  0.077
     ------------------------ ATOM    2 ------------------------
     Tr[ns(  2)] (up, down, total) =   4.22752  4.97814  9.20565
     Atomic magnetic moment for atom   2 =  -0.75062
     SPIN  1
     eigenvalues:
       0.241  0.993  0.997  0.998  0.998
     eigenvectors (columns):
      -0.010 -0.406 -0.346 -0.840 -0.099
       0.009  0.907 -0.265 -0.323 -0.054
       0.604 -0.019 -0.001  0.095 -0.791
       0.040 -0.111 -0.899  0.413  0.084
       0.796  0.005  0.045 -0.100  0.596
     occupation matrix ns (before diag.):
       0.997  0.002  0.005 -0.000  0.006
       0.002  0.994 -0.004  0.000 -0.005
       0.005 -0.004  0.722 -0.018 -0.364
      -0.000  0.000 -0.018  0.996 -0.024
       0.006 -0.005 -0.364 -0.024  0.519
     SPIN  2
     eigenvalues:
       0.992  0.993  0.997  0.998  0.998
     eigenvectors (columns):
       0.021 -0.416 -0.299  0.859 -0.016
      -0.068  0.899 -0.255  0.349 -0.020
       0.614  0.034 -0.002 -0.014 -0.788
       0.047 -0.111 -0.919 -0.374  0.041
       0.784  0.069  0.043  0.041  0.613
     occupation matrix ns (before diag.):
       0.997  0.002 -0.000 -0.000  0.000
       0.002  0.994  0.000  0.000  0.000
      -0.000  0.000  0.996 -0.000 -0.003
      -0.000  0.000 -0.000  0.997 -0.000
       0.000  0.000 -0.003 -0.000  0.994

     Number of occupied Hubbard levels =   14.3770

     HUBBARD ENERGY =    0.1363  (Ry)
 
     Magnetic moment per site  (integrated on atomic sphere of radius R)
     atom   1 (R=0.174)  charge= 12.1010  magn=  4.0133
     atom   2 (R=0.174)  charge= 16.4233  magn= -0.7667
     atom   3 (R=0.156)  charge=  7.6977  magn=  0.0326
     atom   4 (R=0.156)  charge=  7.6947  magn=  0.0334
     atom   5 (R=0.156)  charge=  4.9477  magn= -0.0038
     atom   6 (R=0.156)  charge=  4.9861  magn= -0.0033
     atom   7 (R=0.156)  charge=  4.9426  magn= -0.0251
     atom   8 (R=0.156)  charge=  4.9801  magn= -0.0219
     atom   9 (R=0.156)  charge=  5.0175  magn= -0.0062
     atom  10 (R=0.156)  charge=  4.9936  magn= -0.0080
     atom  11 (R=0.156)  charge=  4.9961  magn= -0.0271
     atom  12 (R=0.156)  charge=  4.9729  magn= -0.0247

     total cpu time spent up to now is      527.3 secs

     End of self-consistent calculation

 ------ SPIN UP ------------


          k = 0.0829 0.0723 0.0658 ( 20395 PWs)   bands (ev):

  -102.4090 -69.8087 -65.3836 -65.2927 -60.1425 -60.1058 -59.4046 -38.9117
   -38.8323 -38.7897 -29.7204 -29.6304 -29.6001 -29.5608 -29.5085 -29.4874
    -9.1794  -8.1143  -7.7554  -7.5808  -7.3560  -7.2909  -7.1502  -7.0653
     1.7791   2.1901   2.4087   2.4458   3.0858   3.4582   3.5691   3.7488
     4.0066   4.4274   4.7001   4.9163   5.1220   5.3979   5.6014   5.9324
     6.0624   6.2689   6.3696   6.6842   6.9127   6.9972   7.1317   7.3717
     7.5086   7.7419   8.2009   8.4110   8.5273   8.6601   8.8239   9.0589
     9.9030  11.3812  12.1307  12.2790  12.3773  12.8710  13.4113  13.5774
    14.9825  15.6192

     occupation numbers 
     1.0000   1.0000   1.0000   1.0000   1.0000   1.0000   1.0000   1.0000
     1.0000   1.0000   1.0000   1.0000   1.0000   1.0000   1.0000   1.0000
     1.0000   1.0000   1.0000   1.0000   1.0000   1.0000   1.0000   1.0000
     1.0000   1.0000   1.0000   1.0000   1.0000   1.0000   1.0000   1.0000
     1.0000   1.0000   1.0000   1.0000   1.0000   1.0000   1.0000   1.0000
     1.0000   1.0000   1.0000   1.0000   1.0000   1.0000   1.0000   1.0000
     1.0000   1.0000   1.0000   1.0000   1.0000   1.0000   1.0000   1.0000
     1.0743   0.0000   0.0000   0.0000   0.0000   0.0000   0.0000   0.0000
     0.0000   0.0000

          k = 0.0818 0.0723 0.2114 ( 20393 PWs)   bands (ev):

  -102.4090 -69.8087 -65.3836 -65.2926 -60.1425 -60.1058 -59.4046 -38.9117
   -38.8322 -38.7897 -29.7187 -29.6285 -29.6039 -29.5623 -29.5091 -29.4856
    -9.0454  -8.1389  -7.9471  -7.6407  -7.3496  -7.2407  -7.0894  -7.0590
     1.7720   2.2621   2.3612   2.4274   3.2182   3.3742   3.6490   3.8398
     3.9672   4.1889   4.6442   4.9479   5.1813   5.4552   5.6636   5.8923
     5.9872   6.2882   6.5289   6.5873   6.7942   6.9612   7.1191   7.3488
     7.5239   7.7659   8.2320   8.3587   8.6160   8.6821   8.8327   9.1397
     9.9443  11.3778  12.0120  12.3449  12.4996  12.8706  13.2598  13.2850
    15.3748  15.6488

     occupation numbers 
     1.0000   1.0000   1.0000   1.0000   1.0000   1.0000   1.0000   1.0000
     1.0000   1.0000   1.0000   1.0000   1.0000   1.0000   1.0000   1.0000
     1.0000   1.0000   1.0000   1.0000   1.0000   1.0000   1.0000   1.0000
     1.0000   1.0000   1.0000   1.0000   1.0000   1.0000   1.0000   1.0000
     1.0000   1.0000   1.0000   1.0000   1.0000   1.0000   1.0000   1.0000
     1.0000   1.0000   1.0000   1.0000   1.0000   1.0000   1.0000   1.0000
     1.0000   1.0000   1.0000   1.0000   1.0000   1.0000   1.0000   1.0000
     1.0490   0.0000   0.0000   0.0000   0.0000   0.0000   0.0000   0.0000
     0.0000   0.0000

          k = 0.0807 0.0722 0.3569 ( 20409 PWs)   bands (ev):

  -102.4090 -69.8086 -65.3835 -65.2926 -60.1425 -60.1058 -59.4046 -38.9118
   -38.8322 -38.7897 -29.7163 -29.6264 -29.6082 -29.5644 -29.5094 -29.4840
    -8.8004  -8.3647  -8.0102  -7.7045  -7.3446  -7.2345  -7.0692  -7.0066
     1.7529   2.2987   2.3696   2.4345   3.1646   3.3519   3.7375   3.9503
     4.0570   4.2595   4.5661   4.8562   5.1688   5.3989   5.6314   5.8841
     6.0289   6.1064   6.4227   6.5796   6.8516   6.9206   7.1873   7.3807
     7.6624   7.8165   8.1572   8.3440   8.5670   8.6972   8.8416   9.1627
    10.0654  11.3461  12.0794  12.3236  12.5816  12.7866  12.9634  13.1085
    15.6282  16.0319

     occupation numbers 
     1.0000   1.0000   1.0000   1.0000   1.0000   1.0000   1.0000   1.0000
     1.0000   1.0000   1.0000   1.0000   1.0000   1.0000   1.0000   1.0000
     1.0000   1.0000   1.0000   1.0000   1.0000   1.0000   1.0000   1.0000
     1.0000   1.0000   1.0000   1.0000   1.0000   1.0000   1.0000   1.0000
     1.0000   1.0000   1.0000   1.0000   1.0000   1.0000   1.0000   1.0000
     1.0000   1.0000   1.0000   1.0000   1.0000   1.0000   1.0000   1.0000
     1.0000   1.0000   1.0000   1.0000   1.0000   1.0000   1.0000   1.0000
     0.8584   0.0000   0.0000   0.0000   0.0000   0.0000   0.0000   0.0000
     0.0000   0.0000

          k = 0.0861 0.0723-0.3708 ( 20434 PWs)   bands (ev):

  -102.4090 -69.8086 -65.3835 -65.2925 -60.1425 -60.1058 -59.4046 -38.9118
   -38.8322 -38.7897 -29.7157 -29.6266 -29.6083 -29.5649 -29.5095 -29.4837
    -8.7552  -8.4180  -7.9962  -7.7141  -7.3329  -7.2401  -7.0956  -6.9886
     1.7438   2.3236   2.3566   2.4550   3.1465   3.3459   3.7149   3.8990
     4.1853   4.3670   4.6421   4.7422   5.1084   5.2646   5.6777   5.8535
     6.0714   6.2139   6.3921   6.6039   6.7867   6.9629   7.2013   7.3864
     7.7256   7.8910   7.9710   8.1903   8.5623   8.6980   8.8834   9.1379
    10.1506  11.3074  12.0773  12.3702  12.5860  12.7721  12.8882  13.1077
    15.7579  16.1117

     occupation numbers 
     1.0000   1.0000   1.0000   1.0000   1.0000   1.0000   1.0000   1.0000
     1.0000   1.0000   1.0000   1.0000   1.0000   1.0000   1.0000   1.0000
     1.0000   1.0000   1.0000   1.0000   1.0000   1.0000   1.0000   1.0000
     1.0000   1.0000   1.0000   1.0000   1.0000   1.0000   1.0000   1.0000
     1.0000   1.0000   1.0000   1.0000   1.0000   1.0000   1.0000   1.0000
     1.0000   1.0000   1.0000   1.0000   1.0000   1.0000   1.0000   1.0000
     1.0000   1.0000   1.0000   1.0000   1.0000   1.0000   1.0000   1.0000
     0.6395   0.0000   0.0000   0.0000   0.0000   0.0000   0.0000   0.0000
     0.0000   0.0000

          k = 0.0850 0.0723-0.2253 ( 20438 PWs)   bands (ev):

  -102.4090 -69.8087 -65.3836 -65.2926 -60.1425 -60.1058 -59.4046 -38.9117
   -38.8322 -38.7897 -29.7176 -29.6289 -29.6041 -29.5632 -29.5094 -29.4850
    -9.0116  -8.1554  -7.9626  -7.6527  -7.3143  -7.2541  -7.1648  -7.0075
     1.7553   2.2714   2.3909   2.4570   3.1480   3.3281   3.6387   3.9343
     4.1041   4.2992   4.5902   4.9862   5.1290   5.2277   5.6108   5.9546
     6.1231   6.2595   6.4002   6.7604   6.7903   7.0000   7.1490   7.3264
     7.6664   7.8236   7.9092   8.1060   8.5828   8.6469   8.9581   9.0596
    10.1227  11.3395  11.9145  12.4029  12.6220  12.8486  13.0449  13.2948
    15.5791  15.9926

     occupation numbers 
     1.0000   1.0000   1.0000   1.0000   1.0000   1.0000   1.0000   1.0000
     1.0000   1.0000   1.0000   1.0000   1.0000   1.0000   1.0000   1.0000
     1.0000   1.0000   1.0000   1.0000   1.0000   1.0000   1.0000   1.0000
     1.0000   1.0000   1.0000   1.0000   1.0000   1.0000   1.0000   1.0000
     1.0000   1.0000   1.0000   1.0000   1.0000   1.0000   1.0000   1.0000
     1.0000   1.0000   1.0000   1.0000   1.0000   1.0000   1.0000   1.0000
     1.0000   1.0000   1.0000   1.0000   1.0000   1.0000   1.0000   1.0000
     0.7156   0.0000   0.0000   0.0000   0.0000   0.0000   0.0000   0.0000
     0.0000   0.0000

          k = 0.0839 0.0723-0.0797 ( 20395 PWs)   bands (ev):

  -102.4090 -69.8087 -65.3836 -65.2926 -60.1425 -60.1058 -59.4046 -38.9117
   -38.8323 -38.7897 -29.7199 -29.6306 -29.6002 -29.5612 -29.5087 -29.4870
    -9.1676  -8.1072  -7.7753  -7.5950  -7.3313  -7.2589  -7.2287  -7.0343
     1.7716   2.1925   2.4310   2.4589   3.0539   3.3784   3.5735   3.8500
     4.1657   4.3386   4.6890   4.9035   5.1539   5.3343   5.5303   5.9915
     6.1000   6.2310   6.3722   6.7288   6.8853   6.9541   7.2711   7.3272
     7.5320   7.7960   8.0404   8.2664   8.5309   8.6404   8.8937   9.0154
     9.9976  11.3815  12.0262  12.2707  12.4744  12.8659  13.4052  13.4939
    15.0954  15.8115

     occupation numbers 
     1.0000   1.0000   1.0000   1.0000   1.0000   1.0000   1.0000   1.0000
     1.0000   1.0000   1.0000   1.0000   1.0000   1.0000   1.0000   1.0000
     1.0000   1.0000   1.0000   1.0000   1.0000   1.0000   1.0000   1.0000
     1.0000   1.0000   1.0000   1.0000   1.0000   1.0000   1.0000   1.0000
     1.0000   1.0000   1.0000   1.0000   1.0000   1.0000   1.0000   1.0000
     1.0000   1.0000   1.0000   1.0000   1.0000   1.0000   1.0000   1.0000
     1.0000   1.0000   1.0000   1.0000   1.0000   1.0000   1.0000   1.0000
     0.9869   0.0000   0.0000   0.0000   0.0000   0.0000   0.0000   0.0000
     0.0000   0.0000

          k = 0.0829 0.2214 0.0623 ( 20394 PWs)   bands (ev):

  -102.4090 -69.8087 -65.3835 -65.2926 -60.1425 -60.1058 -59.4046 -38.9117
   -38.8323 -38.7897 -29.7199 -29.6304 -29.5994 -29.5615 -29.5088 -29.4880
    -9.0791  -8.0562  -7.8342  -7.6645  -7.4049  -7.3591  -7.1173  -7.0270
     1.7821   2.2591   2.4362   2.4964   3.1831   3.4767   3.6856   3.8865
     4.1562   4.3009   4.7098   4.8521   5.0727   5.4010   5.5595   5.7971
     6.0452   6.2367   6.4871   6.6409   6.7688   6.9784   7.1429   7.2304
     7.6666   7.7894   8.0238   8.2890   8.3826   8.5726   8.7839   9.0469
    10.0231  11.3401  12.0283  12.3246  12.4265  12.9871  13.3963  13.4521
    15.4525  15.7568

     occupation numbers 
     1.0000   1.0000   1.0000   1.0000   1.0000   1.0000   1.0000   1.0000
     1.0000   1.0000   1.0000   1.0000   1.0000   1.0000   1.0000   1.0000
     1.0000   1.0000   1.0000   1.0000   1.0000   1.0000   1.0000   1.0000
     1.0000   1.0000   1.0000   1.0000   1.0000   1.0000   1.0000   1.0000
     1.0000   1.0000   1.0000   1.0000   1.0000   1.0000   1.0000   1.0000
     1.0000   1.0000   1.0000   1.0000   1.0000   1.0000   1.0000   1.0000
     1.0000   1.0000   1.0000   1.0000   1.0000   1.0000   1.0000   1.0000
     0.9448   0.0000   0.0000   0.0000   0.0000   0.0000   0.0000   0.0000
     0.0000   0.0000

          k = 0.0818 0.2214 0.2079 ( 20411 PWs)   bands (ev):

  -102.4090 -69.8087 -65.3834 -65.2926 -60.1425 -60.1058 -59.4046 -38.9117
   -38.8322 -38.7897 -29.7193 -29.6285 -29.6038 -29.5621 -29.5090 -29.4859
    -8.9689  -8.0502  -8.0009  -7.6703  -7.4085  -7.2882  -7.1480  -7.0280
     1.7788   2.3249   2.4020   2.4945   3.2596   3.3500   3.7227   3.9274
     4.1477   4.2567   4.7052   4.8522   5.1657   5.4014   5.6472   5.8191
     6.0583   6.1952   6.4169   6.5698   6.8208   6.9742   7.0419   7.1864
     7.6464   7.7108   8.0852   8.1942   8.4967   8.5979   8.8154   9.1685
    10.0347  11.3297  11.9391  12.4164  12.4852  12.9503  13.2032  13.2892
    15.6887  15.8743

     occupation numbers 
     1.0000   1.0000   1.0000   1.0000   1.0000   1.0000   1.0000   1.0000
     1.0000   1.0000   1.0000   1.0000   1.0000   1.0000   1.0000   1.0000
     1.0000   1.0000   1.0000   1.0000   1.0000   1.0000   1.0000   1.0000
     1.0000   1.0000   1.0000   1.0000   1.0000   1.0000   1.0000   1.0000
     1.0000   1.0000   1.0000   1.0000   1.0000   1.0000   1.0000   1.0000
     1.0000   1.0000   1.0000   1.0000   1.0000   1.0000   1.0000   1.0000
     1.0000   1.0000   1.0000   1.0000   1.0000   1.0000   1.0000   1.0000
     0.9231   0.0000   0.0000   0.0000   0.0000   0.0000   0.0000   0.0000
     0.0000   0.0000

          k = 0.0807 0.2213 0.3534 ( 20403 PWs)   bands (ev):

  -102.4090 -69.8087 -65.3834 -65.2925 -60.1425 -60.1058 -59.4046 -38.9118
   -38.8322 -38.7897 -29.7174 -29.6267 -29.6086 -29.5637 -29.5088 -29.4837
    -8.7625  -8.2740  -8.0280  -7.6877  -7.3903  -7.2209  -7.1983  -7.0273
     1.7671   2.3670   2.4292   2.4963   3.1948   3.4022   3.7332   3.8407
     4.2585   4.3875   4.6614   4.8815   5.1968   5.3460   5.6034   5.9152
     6.0133   6.1008   6.3089   6.5766   6.7545   6.8912   7.0452   7.2960
     7.6333   7.7064   8.0800   8.2113   8.5156   8.6305   8.8012   9.2733
    10.0577  11.3080  11.9733  12.2363  12.6420  12.9151  12.9942  13.1087
    15.8748  16.0771

     occupation numbers 
     1.0000   1.0000   1.0000   1.0000   1.0000   1.0000   1.0000   1.0000
     1.0000   1.0000   1.0000   1.0000   1.0000   1.0000   1.0000   1.0000
     1.0000   1.0000   1.0000   1.0000   1.0000   1.0000   1.0000   1.0000
     1.0000   1.0000   1.0000   1.0000   1.0000   1.0000   1.0000   1.0000
     1.0000   1.0000   1.0000   1.0000   1.0000   1.0000   1.0000   1.0000
     1.0000   1.0000   1.0000   1.0000   1.0000   1.0000   1.0000   1.0000
     1.0000   1.0000   1.0000   1.0000   1.0000   1.0000   1.0000   1.0001
     0.8755   0.0000   0.0000   0.0000   0.0000   0.0000   0.0000   0.0000
     0.0000   0.0000

          k = 0.0862 0.2214-0.3743 ( 20399 PWs)   bands (ev):

  -102.4090 -69.8087 -65.3834 -65.2925 -60.1425 -60.1058 -59.4046 -38.9118
   -38.8322 -38.7897 -29.7163 -29.6271 -29.6089 -29.5646 -29.5090 -29.4831
    -8.6850  -8.3820  -8.0151  -7.6742  -7.3457  -7.2721  -7.2157  -7.0050
     1.7605   2.3662   2.4432   2.5141   3.2343   3.4319   3.6467   3.9144
     4.1431   4.5135   4.6857   4.8634   5.0686   5.3898   5.5967   5.8537
     5.9985   6.1861   6.3427   6.4743   6.7242   6.9396   7.0957   7.4391
     7.5412   7.7704   7.9220   8.2763   8.3967   8.6910   8.8185   9.2524
    10.0647  11.2950  11.9035  12.3145  12.6472  12.8330  12.9801  13.1325
    16.0326  16.1264

     occupation numbers 
     1.0000   1.0000   1.0000   1.0000   1.0000   1.0000   1.0000   1.0000
     1.0000   1.0000   1.0000   1.0000   1.0000   1.0000   1.0000   1.0000
     1.0000   1.0000   1.0000   1.0000   1.0000   1.0000   1.0000   1.0000
     1.0000   1.0000   1.0000   1.0000   1.0000   1.0000   1.0000   1.0000
     1.0000   1.0000   1.0000   1.0000   1.0000   1.0000   1.0000   1.0000
     1.0000   1.0000   1.0000   1.0000   1.0000   1.0000   1.0000   1.0000
     1.0000   1.0000   1.0000   1.0000   1.0000   1.0000   1.0000   1.0001
     0.8600   0.0000   0.0000   0.0000   0.0000   0.0000   0.0000   0.0000
     0.0000   0.0000

          k = 0.0851 0.2214-0.2288 ( 20426 PWs)   bands (ev):

  -102.4090 -69.8087 -65.3834 -65.2925 -60.1425 -60.1058 -59.4046 -38.9117
   -38.8322 -38.7897 -29.7172 -29.6292 -29.6043 -29.5638 -29.5095 -29.4846
    -8.9058  -8.1705  -7.9738  -7.6628  -7.3481  -7.3014  -7.2229  -6.9896
     1.7665   2.3255   2.4316   2.5240   3.2860   3.5081   3.5808   3.8998
     4.1110   4.4125   4.6872   4.8529   5.0706   5.3647   5.5661   5.8229
     5.9611   6.1908   6.4664   6.6724   6.8291   7.0159   7.1011   7.4072
     7.4764   7.6742   7.8926   8.2349   8.4387   8.6571   8.8225   9.1381
    10.0351  11.3254  11.8280  12.4261  12.6832  12.8435  13.0192  13.3281
    15.9702  16.1259

     occupation numbers 
     1.0000   1.0000   1.0000   1.0000   1.0000   1.0000   1.0000   1.0000
     1.0000   1.0000   1.0000   1.0000   1.0000   1.0000   1.0000   1.0000
     1.0000   1.0000   1.0000   1.0000   1.0000   1.0000   1.0000   1.0000
     1.0000   1.0000   1.0000   1.0000   1.0000   1.0000   1.0000   1.0000
     1.0000   1.0000   1.0000   1.0000   1.0000   1.0000   1.0000   1.0000
     1.0000   1.0000   1.0000   1.0000   1.0000   1.0000   1.0000   1.0000
     1.0000   1.0000   1.0000   1.0000   1.0000   1.0000   1.0000   1.0000
     0.9223   0.0000   0.0000   0.0000   0.0000   0.0000   0.0000   0.0000
     0.0000   0.0000

          k = 0.0840 0.2214-0.0832 ( 20404 PWs)   bands (ev):

  -102.4090 -69.8087 -65.3835 -65.2926 -60.1425 -60.1058 -59.4046 -38.9117
   -38.8323 -38.7897 -29.7189 -29.6308 -29.5997 -29.5623 -29.5092 -29.4873
    -9.0572  -8.0797  -7.8129  -7.7187  -7.3764  -7.3355  -7.1666  -7.0013
     1.7764   2.2624   2.4473   2.5107   3.1947   3.5516   3.6128   3.9576
     4.0532   4.4090   4.6502   4.8481   5.1861   5.2713   5.4162   5.8802
     6.0067   6.2989   6.4275   6.6820   6.8617   6.9975   7.0980   7.3331
     7.5947   7.7623   7.9245   8.2938   8.4156   8.6201   8.7311   9.0416
    10.0196  11.3408  12.0082  12.2677  12.4810  13.0226  13.2979  13.4440
    15.5672  15.9291

     occupation numbers 
     1.0000   1.0000   1.0000   1.0000   1.0000   1.0000   1.0000   1.0000
     1.0000   1.0000   1.0000   1.0000   1.0000   1.0000   1.0000   1.0000
     1.0000   1.0000   1.0000   1.0000   1.0000   1.0000   1.0000   1.0000
     1.0000   1.0000   1.0000   1.0000   1.0000   1.0000   1.0000   1.0000
     1.0000   1.0000   1.0000   1.0000   1.0000   1.0000   1.0000   1.0000
     1.0000   1.0000   1.0000   1.0000   1.0000   1.0000   1.0000   1.0000
     1.0000   1.0000   1.0000   1.0000   1.0000   1.0000   1.0000   1.0000
     0.9511   0.0000   0.0000   0.0000   0.0000   0.0000   0.0000   0.0000
     0.0000   0.0000

          k = 0.0830 0.3705 0.0588 ( 20393 PWs)   bands (ev):

  -102.4090 -69.8087 -65.3833 -65.2925 -60.1425 -60.1058 -59.4046 -38.9117
   -38.8323 -38.7897 -29.7189 -29.6306 -29.5989 -29.5626 -29.5093 -29.4884
    -8.9292  -8.0887  -7.9183  -7.6881  -7.4712  -7.4084  -7.1163  -6.9731
     1.7987   2.3264   2.4532   2.5303   3.3915   3.5419   3.7521   3.9668
     4.1486   4.3281   4.6147   4.9706   5.0971   5.3019   5.4756   5.7954
     5.8801   6.1579   6.4630   6.5801   6.7541   7.0396   7.1940   7.3235
     7.4084   7.7006   7.9603   8.1729   8.2662   8.6009   8.7585   9.0623
    10.0869  11.3117  11.8888  12.4263  12.6967  12.9337  13.2207  13.4667
    15.7818  16.0958

     occupation numbers 
     1.0000   1.0000   1.0000   1.0000   1.0000   1.0000   1.0000   1.0000
     1.0000   1.0000   1.0000   1.0000   1.0000   1.0000   1.0000   1.0000
     1.0000   1.0000   1.0000   1.0000   1.0000   1.0000   1.0000   1.0000
     1.0000   1.0000   1.0000   1.0000   1.0000   1.0000   1.0000   1.0000
     1.0000   1.0000   1.0000   1.0000   1.0000   1.0000   1.0000   1.0000
     1.0000   1.0000   1.0000   1.0000   1.0000   1.0000   1.0000   1.0000
     1.0000   1.0000   1.0000   1.0000   1.0000   1.0000   1.0000   1.0000
     0.8076   0.0000   0.0000   0.0000   0.0000   0.0000   0.0000   0.0000
     0.0000   0.0000

          k = 0.0819 0.3705 0.2044 ( 20401 PWs)   bands (ev):

  -102.4090 -69.8087 -65.3833 -65.2925 -60.1425 -60.1058 -59.4046 -38.9117
   -38.8322 -38.7897 -29.7188 -29.6288 -29.6040 -29.5627 -29.5091 -29.4855
    -8.8399  -8.1255  -7.9568  -7.6760  -7.4581  -7.4120  -7.1506  -6.9968
     1.7970   2.3735   2.4470   2.5463   3.3283   3.4160   3.7487   3.8899
     4.3349   4.4553   4.7502   4.9566   5.1749   5.3015   5.4552   5.7130
     5.9120   6.1815   6.2977   6.6077   6.7198   7.0613   7.1327   7.1595
     7.4165   7.6370   7.9283   8.2495   8.4055   8.5646   8.7553   9.1827
    10.0714  11.2996  11.9017  12.4209  12.6426  12.8910  13.1321  13.3565
    15.8652  16.0904

     occupation numbers 
     1.0000   1.0000   1.0000   1.0000   1.0000   1.0000   1.0000   1.0000
     1.0000   1.0000   1.0000   1.0000   1.0000   1.0000   1.0000   1.0000
     1.0000   1.0000   1.0000   1.0000   1.0000   1.0000   1.0000   1.0000
     1.0000   1.0000   1.0000   1.0000   1.0000   1.0000   1.0000   1.0000
     1.0000   1.0000   1.0000   1.0000   1.0000   1.0000   1.0000   1.0000
     1.0000   1.0000   1.0000   1.0000   1.0000   1.0000   1.0000   1.0000
     1.0000   1.0000   1.0000   1.0000   1.0000   1.0000   1.0000   1.0000
     0.8448   0.0000   0.0000   0.0000   0.0000   0.0000   0.0000   0.0000
     0.0000   0.0000

          k = 0.0808 0.3705 0.3499 ( 20419 PWs)   bands (ev):

  -102.4090 -69.8087 -65.3833 -65.2925 -60.1425 -60.1058 -59.4046 -38.9117
   -38.8322 -38.7897 -29.7180 -29.6273 -29.6093 -29.5635 -29.5083 -29.4830
    -8.6844  -8.2521  -7.9490  -7.7058  -7.4527  -7.4046  -7.1668  -7.0285
     1.7886   2.4259   2.4668   2.5694   3.2672   3.3880   3.6950   3.9145
     4.3371   4.5935   4.8264   4.9930   5.1783   5.3638   5.5746   5.7235
     5.8376   6.0673   6.3266   6.4533   6.6726   6.8940   6.9938   7.1657
     7.4973   7.6997   8.0127   8.1877   8.3573   8.6513   8.7421   9.3753
    10.0378  11.3223  11.9321  12.1366  12.6336  12.8992  13.0381  13.2488
    15.9286  16.1262

     occupation numbers 
     1.0000   1.0000   1.0000   1.0000   1.0000   1.0000   1.0000   1.0000
     1.0000   1.0000   1.0000   1.0000   1.0000   1.0000   1.0000   1.0000
     1.0000   1.0000   1.0000   1.0000   1.0000   1.0000   1.0000   1.0000
     1.0000   1.0000   1.0000   1.0000   1.0000   1.0000   1.0000   1.0000
     1.0000   1.0000   1.0000   1.0000   1.0000   1.0000   1.0000   1.0000
     1.0000   1.0000   1.0000   1.0000   1.0000   1.0000   1.0000   1.0000
     1.0000   1.0000   1.0000   1.0000   1.0000   1.0000   1.0000   1.0007
     0.9170   0.0000   0.0000   0.0000   0.0000   0.0000   0.0000   0.0000
     0.0000   0.0000

          k = 0.0862 0.3705-0.3778 ( 20418 PWs)   bands (ev):

  -102.4090 -69.8087 -65.3833 -65.2925 -60.1425 -60.1058 -59.4046 -38.9117
   -38.8322 -38.7897 -29.7175 -29.6275 -29.6094 -29.5639 -29.5084 -29.4827
    -8.6368  -8.2907  -7.9953  -7.6264  -7.4776  -7.4250  -7.1935  -7.0049
     1.7830   2.4219   2.4799   2.5941   3.3263   3.3878   3.7145   3.9571
     4.2414   4.5091   4.8792   4.9801   5.0277   5.4384   5.6080   5.7610
     5.9136   6.1260   6.3112   6.3514   6.5407   6.9071   7.0383   7.2371
     7.5222   7.7988   7.9120   8.2029   8.2697   8.6708   8.7845   9.3641
    10.0217  11.3309  11.8483  12.1287  12.6513  12.8250  13.1365  13.2024
    15.7788  16.3584

     occupation numbers 
     1.0000   1.0000   1.0000   1.0000   1.0000   1.0000   1.0000   1.0000
     1.0000   1.0000   1.0000   1.0000   1.0000   1.0000   1.0000   1.0000
     1.0000   1.0000   1.0000   1.0000   1.0000   1.0000   1.0000   1.0000
     1.0000   1.0000   1.0000   1.0000   1.0000   1.0000   1.0000   1.0000
     1.0000   1.0000   1.0000   1.0000   1.0000   1.0000   1.0000   1.0000
     1.0000   1.0000   1.0000   1.0000   1.0000   1.0000   1.0000   1.0000
     1.0000   1.0000   1.0000   1.0000   1.0000   1.0000   1.0000   1.0005
     0.9474   0.0000   0.0000   0.0000   0.0000   0.0000   0.0000   0.0000
     0.0000   0.0000

          k = 0.0852 0.3705-0.2323 ( 20414 PWs)   bands (ev):

  -102.4090 -69.8087 -65.3833 -65.2925 -60.1425 -60.1058 -59.4046 -38.9117
   -38.8322 -38.7897 -29.7178 -29.6292 -29.6043 -29.5636 -29.5094 -29.4848
    -8.7886  -8.1633  -7.9885  -7.6105  -7.5063  -7.4278  -7.1732  -6.9697
     1.7865   2.3817   2.4583   2.5842   3.4363   3.4896   3.7674   3.8697
     4.1687   4.5017   4.6639   4.9378   5.0632   5.3859   5.4840   5.6458
     5.9214   6.1910   6.3266   6.5367   6.7664   7.0237   7.1796   7.2908
     7.4330   7.7529   7.8435   8.1246   8.3006   8.6858   8.7354   9.2041
    10.0294  11.2714  11.8741  12.3879  12.6770  12.7989  13.0498  13.3880
    15.7109  16.3775

     occupation numbers 
     1.0000   1.0000   1.0000   1.0000   1.0000   1.0000   1.0000   1.0000
     1.0000   1.0000   1.0000   1.0000   1.0000   1.0000   1.0000   1.0000
     1.0000   1.0000   1.0000   1.0000   1.0000   1.0000   1.0000   1.0000
     1.0000   1.0000   1.0000   1.0000   1.0000   1.0000   1.0000   1.0000
     1.0000   1.0000   1.0000   1.0000   1.0000   1.0000   1.0000   1.0000
     1.0000   1.0000   1.0000   1.0000   1.0000   1.0000   1.0000   1.0000
     1.0000   1.0000   1.0000   1.0000   1.0000   1.0000   1.0000   1.0000
     0.9333   0.0000   0.0000   0.0000   0.0000   0.0000   0.0000   0.0000
     0.0000   0.0000

          k = 0.0841 0.3705-0.0867 ( 20380 PWs)   bands (ev):

  -102.4090 -69.8087 -65.3834 -65.2925 -60.1425 -60.1058 -59.4046 -38.9117
   -38.8323 -38.7897 -29.7184 -29.6307 -29.5990 -29.5631 -29.5095 -29.4880
    -8.9103  -8.1171  -7.8452  -7.7699  -7.4385  -7.4314  -7.1246  -6.9622
     1.7939   2.3329   2.4562   2.5446   3.4280   3.6697   3.7280   3.9016
     4.1111   4.3084   4.5974   4.9825   5.1202   5.2901   5.4298   5.7310
     5.8757   6.1410   6.4949   6.5705   6.7997   7.1139   7.2012   7.3551
     7.4467   7.6476   7.9848   8.0398   8.3092   8.6019   8.7259   9.0999
    10.0640  11.2775  11.9477  12.3894  12.6826  12.9554  13.0846  13.4951
    15.7374  16.2633

     occupation numbers 
     1.0000   1.0000   1.0000   1.0000   1.0000   1.0000   1.0000   1.0000
     1.0000   1.0000   1.0000   1.0000   1.0000   1.0000   1.0000   1.0000
     1.0000   1.0000   1.0000   1.0000   1.0000   1.0000   1.0000   1.0000
     1.0000   1.0000   1.0000   1.0000   1.0000   1.0000   1.0000   1.0000
     1.0000   1.0000   1.0000   1.0000   1.0000   1.0000   1.0000   1.0000
     1.0000   1.0000   1.0000   1.0000   1.0000   1.0000   1.0000   1.0000
     1.0000   1.0000   1.0000   1.0000   1.0000   1.0000   1.0000   1.0000
     0.8615   0.0000   0.0000   0.0000   0.0000   0.0000   0.0000   0.0000
     0.0000   0.0000

          k = 0.0827-0.3751 0.0763 ( 20379 PWs)   bands (ev):

  -102.4090 -69.8087 -65.3833 -65.2925 -60.1425 -60.1058 -59.4046 -38.9117
   -38.8323 -38.7897 -29.7184 -29.6308 -29.5990 -29.5631 -29.5094 -29.4880
    -8.9047  -8.1471  -7.8871  -7.6909  -7.5124  -7.3678  -7.1171  -6.9677
     1.7982   2.3361   2.4501   2.5322   3.5149   3.5808   3.6511   3.8904
     4.1630   4.3108   4.6308   4.9475   5.1082   5.2244   5.5229   5.8053
     5.8573   6.2216   6.4409   6.5505   6.7629   7.0127   7.2189   7.3109
     7.4225   7.7385   7.9835   8.1285   8.2815   8.6066   8.7568   9.0598
    10.0872  11.3121  11.8769  12.3839  12.7798  13.0128  13.1064  13.4762
    15.8623  16.0262

     occupation numbers 
     1.0000   1.0000   1.0000   1.0000   1.0000   1.0000   1.0000   1.0000
     1.0000   1.0000   1.0000   1.0000   1.0000   1.0000   1.0000   1.0000
     1.0000   1.0000   1.0000   1.0000   1.0000   1.0000   1.0000   1.0000
     1.0000   1.0000   1.0000   1.0000   1.0000   1.0000   1.0000   1.0000
     1.0000   1.0000   1.0000   1.0000   1.0000   1.0000   1.0000   1.0000
     1.0000   1.0000   1.0000   1.0000   1.0000   1.0000   1.0000   1.0000
     1.0000   1.0000   1.0000   1.0000   1.0000   1.0000   1.0000   1.0000
     0.8070   0.0000   0.0000   0.0000   0.0000   0.0000   0.0000   0.0000
     0.0000   0.0000

          k = 0.0816-0.3751 0.2219 ( 20415 PWs)   bands (ev):

  -102.4090 -69.8087 -65.3833 -65.2925 -60.1425 -60.1058 -59.4046 -38.9117
   -38.8322 -38.7897 -29.7178 -29.6292 -29.6043 -29.5636 -29.5092 -29.4849
    -8.7930  -8.2200  -7.9397  -7.6308  -7.5379  -7.3515  -7.1545  -6.9899
     1.7962   2.3837   2.4465   2.5461   3.3633   3.5240   3.7026   3.8158
     4.3035   4.4330   4.7637   4.9756   5.1095   5.2808   5.4552   5.7474
     5.8776   6.2085   6.3108   6.6325   6.7107   7.0215   7.1337   7.2257
     7.3864   7.6446   7.9827   8.2442   8.3759   8.5950   8.7219   9.1795
    10.0751  11.2982  11.8648  12.4462  12.7178  12.9110  13.0671  13.3507
    15.9082  16.0018

     occupation numbers 
     1.0000   1.0000   1.0000   1.0000   1.0000   1.0000   1.0000   1.0000
     1.0000   1.0000   1.0000   1.0000   1.0000   1.0000   1.0000   1.0000
     1.0000   1.0000   1.0000   1.0000   1.0000   1.0000   1.0000   1.0000
     1.0000   1.0000   1.0000   1.0000   1.0000   1.0000   1.0000   1.0000
     1.0000   1.0000   1.0000   1.0000   1.0000   1.0000   1.0000   1.0000
     1.0000   1.0000   1.0000   1.0000   1.0000   1.0000   1.0000   1.0000
     1.0000   1.0000   1.0000   1.0000   1.0000   1.0000   1.0000   1.0000
     0.8360   0.0000   0.0000   0.0000   0.0000   0.0000   0.0000   0.0000
     0.0000   0.0000

          k = 0.0805-0.3751 0.3674 ( 20422 PWs)   bands (ev):

  -102.4090 -69.8087 -65.3833 -65.2925 -60.1425 -60.1058 -59.4046 -38.9117
   -38.8322 -38.7897 -29.7175 -29.6276 -29.6094 -29.5639 -29.5083 -29.4827
    -8.6336  -8.3241  -7.9133  -7.6983  -7.5584  -7.3341  -7.1591  -7.0247
     1.7874   2.4450   2.4594   2.5714   3.2792   3.4371   3.6755   3.8734
     4.3150   4.6070   4.8163   5.0484   5.1387   5.3843   5.5718   5.6377
     5.8338   6.0610   6.3186   6.4920   6.6651   6.8894   7.0441   7.1927
     7.4489   7.7147   8.0039   8.2191   8.3705   8.6262   8.7337   9.3727
    10.0403  11.3263  11.8890  12.1907  12.6658  12.8780  13.0283  13.2441
    15.8299  16.2210

     occupation numbers 
     1.0000   1.0000   1.0000   1.0000   1.0000   1.0000   1.0000   1.0000
     1.0000   1.0000   1.0000   1.0000   1.0000   1.0000   1.0000   1.0000
     1.0000   1.0000   1.0000   1.0000   1.0000   1.0000   1.0000   1.0000
     1.0000   1.0000   1.0000   1.0000   1.0000   1.0000   1.0000   1.0000
     1.0000   1.0000   1.0000   1.0000   1.0000   1.0000   1.0000   1.0000
     1.0000   1.0000   1.0000   1.0000   1.0000   1.0000   1.0000   1.0000
     1.0000   1.0000   1.0000   1.0000   1.0000   1.0000   1.0000   1.0006
     0.9121   0.0000   0.0000   0.0000   0.0000   0.0000   0.0000   0.0000
     0.0000   0.0000

          k = 0.0859-0.3750-0.3604 ( 20416 PWs)   bands (ev):

  -102.4090 -69.8087 -65.3833 -65.2925 -60.1425 -60.1058 -59.4046 -38.9117
   -38.8322 -38.7897 -29.7180 -29.6274 -29.6093 -29.5635 -29.5083 -29.4830
    -8.6590  -8.2507  -7.9178  -7.7316  -7.5614  -7.3477  -7.1808  -7.0030
     1.7814   2.4433   2.4725   2.5977   3.2791   3.4536   3.6803   3.9251
     4.2603   4.5497   4.8861   4.9845   5.0808   5.3772   5.6233   5.7172
     5.8891   6.0904   6.2943   6.3831   6.5880   6.8845   7.0779   7.2156
     7.5166   7.8045   7.8633   8.2199   8.2988   8.6459   8.8056   9.3649
    10.0237  11.3381  11.8971  12.0713  12.6716  12.7983  13.1323  13.2153
    15.6948  16.4869

     occupation numbers 
     1.0000   1.0000   1.0000   1.0000   1.0000   1.0000   1.0000   1.0000
     1.0000   1.0000   1.0000   1.0000   1.0000   1.0000   1.0000   1.0000
     1.0000   1.0000   1.0000   1.0000   1.0000   1.0000   1.0000   1.0000
     1.0000   1.0000   1.0000   1.0000   1.0000   1.0000   1.0000   1.0000
     1.0000   1.0000   1.0000   1.0000   1.0000   1.0000   1.0000   1.0000
     1.0000   1.0000   1.0000   1.0000   1.0000   1.0000   1.0000   1.0000
     1.0000   1.0000   1.0000   1.0000   1.0000   1.0000   1.0000   1.0006
     0.9437   0.0000   0.0000   0.0000   0.0000   0.0000   0.0000   0.0000
     0.0000   0.0000

          k = 0.0849-0.3750-0.2148 ( 20402 PWs)   bands (ev):

  -102.4090 -69.8087 -65.3833 -65.2925 -60.1425 -60.1058 -59.4046 -38.9117
   -38.8322 -38.7897 -29.7188 -29.6289 -29.6041 -29.5627 -29.5092 -29.4854
    -8.8123  -8.0687  -7.9861  -7.6824  -7.5335  -7.4378  -7.1389  -6.9701
     1.7851   2.3960   2.4561   2.5885   3.3882   3.5256   3.7132   3.8781
     4.2027   4.5097   4.6881   5.0332   5.0903   5.3369   5.4530   5.6254
     5.8643   6.1665   6.3173   6.5418   6.7912   7.0256   7.1873   7.2841
     7.4561   7.7112   7.8162   8.1558   8.3234   8.6373   8.7877   9.2072
    10.0259  11.2764  11.9208  12.3390  12.6513  12.7648  13.1025  13.3866
    15.6727  16.4675

     occupation numbers 
     1.0000   1.0000   1.0000   1.0000   1.0000   1.0000   1.0000   1.0000
     1.0000   1.0000   1.0000   1.0000   1.0000   1.0000   1.0000   1.0000
     1.0000   1.0000   1.0000   1.0000   1.0000   1.0000   1.0000   1.0000
     1.0000   1.0000   1.0000   1.0000   1.0000   1.0000   1.0000   1.0000
     1.0000   1.0000   1.0000   1.0000   1.0000   1.0000   1.0000   1.0000
     1.0000   1.0000   1.0000   1.0000   1.0000   1.0000   1.0000   1.0000
     1.0000   1.0000   1.0000   1.0000   1.0000   1.0000   1.0000   1.0000
     0.9396   0.0000   0.0000   0.0000   0.0000   0.0000   0.0000   0.0000
     0.0000   0.0000

          k = 0.0838-0.3750-0.0693 ( 20388 PWs)   bands (ev):

  -102.4090 -69.8087 -65.3834 -65.2925 -60.1425 -60.1058 -59.4046 -38.9117
   -38.8323 -38.7897 -29.7190 -29.6306 -29.5990 -29.5626 -29.5093 -29.4883
    -8.9106  -8.0978  -7.8466  -7.7568  -7.5099  -7.4173  -7.0994  -6.9625
     1.7931   2.3430   2.4527   2.5496   3.5085   3.5784   3.7133   3.8872
     4.1367   4.2806   4.6647   4.9999   5.1262   5.3569   5.3816   5.6352
     5.8853   6.1402   6.3998   6.6090   6.8476   7.0907   7.2133   7.3120
     7.4828   7.6851   7.9464   8.0703   8.3197   8.5805   8.7484   9.1015
    10.0582  11.2809  11.9570  12.4125  12.6148  12.9905  13.0731  13.5005
    15.7807  16.2595

     occupation numbers 
     1.0000   1.0000   1.0000   1.0000   1.0000   1.0000   1.0000   1.0000
     1.0000   1.0000   1.0000   1.0000   1.0000   1.0000   1.0000   1.0000
     1.0000   1.0000   1.0000   1.0000   1.0000   1.0000   1.0000   1.0000
     1.0000   1.0000   1.0000   1.0000   1.0000   1.0000   1.0000   1.0000
     1.0000   1.0000   1.0000   1.0000   1.0000   1.0000   1.0000   1.0000
     1.0000   1.0000   1.0000   1.0000   1.0000   1.0000   1.0000   1.0000
     1.0000   1.0000   1.0000   1.0000   1.0000   1.0000   1.0000   1.0000
     0.8745   0.0000   0.0000   0.0000   0.0000   0.0000   0.0000   0.0000
     0.0000   0.0000

          k = 0.0827-0.2259 0.0728 ( 20385 PWs)   bands (ev):

  -102.4090 -69.8087 -65.3835 -65.2926 -60.1425 -60.1058 -59.4046 -38.9117
   -38.8323 -38.7897 -29.7190 -29.6308 -29.5998 -29.5624 -29.5091 -29.4873
    -9.0472  -8.0852  -7.8701  -7.6702  -7.4349  -7.2951  -7.1371  -7.0054
     1.7788   2.2788   2.4305   2.5037   3.2833   3.5152   3.6519   3.8569
     4.0501   4.3657   4.5956   4.8408   5.0906   5.3805   5.6047   5.8052
     5.9931   6.2815   6.4212   6.6377   6.7993   6.9276   7.2242   7.2449
     7.6271   7.8578   8.0312   8.2821   8.3831   8.5994   8.7750   9.0361
    10.0184  11.3404  12.0033  12.2448  12.5485  13.0211  13.3744  13.4302
    15.4708  15.8465

     occupation numbers 
     1.0000   1.0000   1.0000   1.0000   1.0000   1.0000   1.0000   1.0000
     1.0000   1.0000   1.0000   1.0000   1.0000   1.0000   1.0000   1.0000
     1.0000   1.0000   1.0000   1.0000   1.0000   1.0000   1.0000   1.0000
     1.0000   1.0000   1.0000   1.0000   1.0000   1.0000   1.0000   1.0000
     1.0000   1.0000   1.0000   1.0000   1.0000   1.0000   1.0000   1.0000
     1.0000   1.0000   1.0000   1.0000   1.0000   1.0000   1.0000   1.0000
     1.0000   1.0000   1.0000   1.0000   1.0000   1.0000   1.0000   1.0000
     0.9532   0.0000   0.0000   0.0000   0.0000   0.0000   0.0000   0.0000
     0.0000   0.0000

          k = 0.0817-0.2260 0.2184 ( 20411 PWs)   bands (ev):

  -102.4090 -69.8087 -65.3834 -65.2926 -60.1425 -60.1058 -59.4046 -38.9117
   -38.8322 -38.7897 -29.7172 -29.6292 -29.6044 -29.5639 -29.5094 -29.4846
    -8.9059  -8.1878  -7.9617  -7.6882  -7.4005  -7.2414  -7.1758  -7.0045
     1.7758   2.3449   2.4038   2.4961   3.3957   3.4718   3.5562   3.8742
     4.1464   4.2104   4.6956   4.7802   5.1554   5.4022   5.7003   5.8268
     5.9197   6.2199   6.4082   6.6277   6.7800   6.9446   7.0985   7.2913
     7.5998   7.8112   8.1000   8.1573   8.4675   8.6455   8.7714   9.1501
    10.0421  11.3353  11.8700  12.4066  12.6473  12.9705  13.1147  13.2944
    15.6558  15.9427

     occupation numbers 
     1.0000   1.0000   1.0000   1.0000   1.0000   1.0000   1.0000   1.0000
     1.0000   1.0000   1.0000   1.0000   1.0000   1.0000   1.0000   1.0000
     1.0000   1.0000   1.0000   1.0000   1.0000   1.0000   1.0000   1.0000
     1.0000   1.0000   1.0000   1.0000   1.0000   1.0000   1.0000   1.0000
     1.0000   1.0000   1.0000   1.0000   1.0000   1.0000   1.0000   1.0000
     1.0000   1.0000   1.0000   1.0000   1.0000   1.0000   1.0000   1.0000
     1.0000   1.0000   1.0000   1.0000   1.0000   1.0000   1.0000   1.0000
     0.9084   0.0000   0.0000   0.0000   0.0000   0.0000   0.0000   0.0000
     0.0000   0.0000

          k = 0.0806-0.2260 0.3639 ( 20412 PWs)   bands (ev):

  -102.4090 -69.8087 -65.3834 -65.2925 -60.1425 -60.1058 -59.4046 -38.9118
   -38.8322 -38.7897 -29.7163 -29.6272 -29.6090 -29.5647 -29.5089 -29.4830
    -8.6785  -8.3900  -7.9590  -7.7445  -7.4375  -7.2171  -7.1481  -7.0177
     1.7638   2.3907   2.4324   2.5002   3.2711   3.3970   3.7239   3.7725
     4.2722   4.3904   4.6113   4.9225   5.2006   5.3361   5.5607   5.8865
     5.9599   6.0782   6.3234   6.5433   6.7835   6.8858   7.1464   7.3591
     7.5539   7.7904   8.0267   8.2402   8.5079   8.6304   8.7820   9.2619
    10.0643  11.3223  11.9019  12.3458  12.6718  12.8671  12.9863  13.1072
    15.7142  16.2791

     occupation numbers 
     1.0000   1.0000   1.0000   1.0000   1.0000   1.0000   1.0000   1.0000
     1.0000   1.0000   1.0000   1.0000   1.0000   1.0000   1.0000   1.0000
     1.0000   1.0000   1.0000   1.0000   1.0000   1.0000   1.0000   1.0000
     1.0000   1.0000   1.0000   1.0000   1.0000   1.0000   1.0000   1.0000
     1.0000   1.0000   1.0000   1.0000   1.0000   1.0000   1.0000   1.0000
     1.0000   1.0000   1.0000   1.0000   1.0000   1.0000   1.0000   1.0000
     1.0000   1.0000   1.0000   1.0000   1.0000   1.0000   1.0000   1.0001
     0.8610   0.0000   0.0000   0.0000   0.0000   0.0000   0.0000   0.0000
     0.0000   0.0000

          k = 0.0860-0.2259-0.3638 ( 20430 PWs)   bands (ev):

  -102.4090 -69.8087 -65.3834 -65.2925 -60.1425 -60.1058 -59.4046 -38.9118
   -38.8322 -38.7897 -29.7174 -29.6269 -29.6087 -29.5637 -29.5088 -29.4836
    -8.7262  -8.2954  -7.9573  -7.7568  -7.4823  -7.2181  -7.1580  -7.0050
     1.7564   2.4061   2.4370   2.5194   3.2431   3.3613   3.6760   3.8859
     4.1808   4.5583   4.7056   4.8825   5.0558   5.3708   5.5533   5.8506
     5.9488   6.1409   6.4029   6.4996   6.7114   6.9000   7.1533   7.3780
     7.5773   7.7301   7.9362   8.2898   8.4332   8.6060   8.8765   9.2555
    10.0701  11.3051  11.9796  12.2249  12.6445  12.8313  13.0108  13.1106
    15.7361  16.4357

     occupation numbers 
     1.0000   1.0000   1.0000   1.0000   1.0000   1.0000   1.0000   1.0000
     1.0000   1.0000   1.0000   1.0000   1.0000   1.0000   1.0000   1.0000
     1.0000   1.0000   1.0000   1.0000   1.0000   1.0000   1.0000   1.0000
     1.0000   1.0000   1.0000   1.0000   1.0000   1.0000   1.0000   1.0000
     1.0000   1.0000   1.0000   1.0000   1.0000   1.0000   1.0000   1.0000
     1.0000   1.0000   1.0000   1.0000   1.0000   1.0000   1.0000   1.0000
     1.0000   1.0000   1.0000   1.0000   1.0000   1.0000   1.0000   1.0001
     0.8477   0.0000   0.0000   0.0000   0.0000   0.0000   0.0000   0.0000
     0.0000   0.0000

          k = 0.0849-0.2259-0.2183 ( 20427 PWs)   bands (ev):

  -102.4090 -69.8087 -65.3834 -65.2925 -60.1425 -60.1058 -59.4046 -38.9117
   -38.8322 -38.7897 -29.7192 -29.6286 -29.6039 -29.5621 -29.5091 -29.4858
    -8.9368  -8.0096  -7.9922  -7.7159  -7.4893  -7.3312  -7.1079  -6.9961
     1.7617   2.3550   2.4302   2.5339   3.2602   3.3962   3.6491   3.9143
     4.1326   4.4351   4.7128   4.8634   5.1689   5.3592   5.5552   5.7504
     5.9007   6.1745   6.4236   6.6710   6.8760   6.9843   7.1273   7.3425
     7.4693   7.6865   7.9144   8.2324   8.5193   8.5655   8.8719   9.1585
    10.0264  11.3253  11.8928  12.4324  12.5572  12.7953  13.1278  13.3079
    15.7847  16.2021

     occupation numbers 
     1.0000   1.0000   1.0000   1.0000   1.0000   1.0000   1.0000   1.0000
     1.0000   1.0000   1.0000   1.0000   1.0000   1.0000   1.0000   1.0000
     1.0000   1.0000   1.0000   1.0000   1.0000   1.0000   1.0000   1.0000
     1.0000   1.0000   1.0000   1.0000   1.0000   1.0000   1.0000   1.0000
     1.0000   1.0000   1.0000   1.0000   1.0000   1.0000   1.0000   1.0000
     1.0000   1.0000   1.0000   1.0000   1.0000   1.0000   1.0000   1.0000
     1.0000   1.0000   1.0000   1.0000   1.0000   1.0000   1.0000   1.0000
     0.9388   0.0000   0.0000   0.0000   0.0000   0.0000   0.0000   0.0000
     0.0000   0.0000

          k = 0.0838-0.2259-0.0727 ( 20411 PWs)   bands (ev):

  -102.4090 -69.8087 -65.3835 -65.2926 -60.1425 -60.1058 -59.4046 -38.9117
   -38.8323 -38.7897 -29.7200 -29.6305 -29.5995 -29.5615 -29.5089 -29.4880
    -9.0570  -8.0449  -7.7791  -7.7378  -7.4719  -7.3655  -7.0879  -7.0076
     1.7723   2.2829   2.4415   2.5241   3.2280   3.4467   3.7214   3.8729
     4.0860   4.3611   4.7137   4.8935   5.1755   5.3059   5.4393   5.7923
     5.9641   6.2018   6.4491   6.7359   6.8307   6.9503   7.2001   7.3003
     7.5355   7.7950   7.9429   8.3289   8.4824   8.5614   8.7464   9.0586
    10.0008  11.3381  12.0293  12.3357  12.3865  13.0028  13.3190  13.4418
    15.5936  15.9715

     occupation numbers 
     1.0000   1.0000   1.0000   1.0000   1.0000   1.0000   1.0000   1.0000
     1.0000   1.0000   1.0000   1.0000   1.0000   1.0000   1.0000   1.0000
     1.0000   1.0000   1.0000   1.0000   1.0000   1.0000   1.0000   1.0000
     1.0000   1.0000   1.0000   1.0000   1.0000   1.0000   1.0000   1.0000
     1.0000   1.0000   1.0000   1.0000   1.0000   1.0000   1.0000   1.0000
     1.0000   1.0000   1.0000   1.0000   1.0000   1.0000   1.0000   1.0000
     1.0000   1.0000   1.0000   1.0000   1.0000   1.0000   1.0000   1.0000
     0.9821   0.0000   0.0000   0.0000   0.0000   0.0000   0.0000   0.0000
     0.0000   0.0000

          k = 0.0828-0.0768 0.0693 ( 20395 PWs)   bands (ev):

  -102.4090 -69.8087 -65.3836 -65.2926 -60.1425 -60.1058 -59.4046 -38.9117
   -38.8322 -38.7897 -29.7200 -29.6306 -29.6003 -29.5612 -29.5086 -29.4870
    -9.1672  -8.1145  -7.7827  -7.6005  -7.3479  -7.2352  -7.2014  -7.0443
     1.7755   2.2014   2.4079   2.4498   3.1125   3.4599   3.6269   3.7078
     3.9617   4.4728   4.5873   4.9514   5.1009   5.4314   5.6139   5.9479
     6.0169   6.2897   6.3183   6.6840   6.9161   6.9633   7.1788   7.3757
     7.5628   7.7427   8.1384   8.4712   8.5344   8.6630   8.8119   9.0547
     9.8967  11.3804  12.1219  12.2393  12.4252  12.8847  13.4241  13.5557
    14.9925  15.6427

     occupation numbers 
     1.0000   1.0000   1.0000   1.0000   1.0000   1.0000   1.0000   1.0000
     1.0000   1.0000   1.0000   1.0000   1.0000   1.0000   1.0000   1.0000
     1.0000   1.0000   1.0000   1.0000   1.0000   1.0000   1.0000   1.0000
     1.0000   1.0000   1.0000   1.0000   1.0000   1.0000   1.0000   1.0000
     1.0000   1.0000   1.0000   1.0000   1.0000   1.0000   1.0000   1.0000
     1.0000   1.0000   1.0000   1.0000   1.0000   1.0000   1.0000   1.0000
     1.0000   1.0000   1.0000   1.0000   1.0000   1.0000   1.0000   1.0000
     1.0766   0.0000   0.0000   0.0000   0.0000   0.0000   0.0000   0.0000
     0.0000   0.0000

          k = 0.0817-0.0769 0.2149 ( 20413 PWs)   bands (ev):

  -102.4090 -69.8087 -65.3836 -65.2926 -60.1425 -60.1058 -59.4046 -38.9117
   -38.8322 -38.7897 -29.7177 -29.6288 -29.6041 -29.5632 -29.5093 -29.4850
    -9.0212  -8.1691  -7.9520  -7.6633  -7.3262  -7.2298  -7.1262  -7.0243
     1.7691   2.2721   2.3667   2.4267   3.2764   3.4171   3.5747   3.8628
     3.9295   4.1758   4.6291   4.9025   5.2038   5.4581   5.6797   5.8780
     5.9774   6.2653   6.4847   6.6161   6.8023   6.8960   7.1671   7.4071
     7.6141   7.7486   8.1892   8.3639   8.5894   8.7172   8.8253   9.1199
     9.9496  11.3825  11.9761  12.3574  12.5400  12.8862  13.2084  13.3128
    15.3700  15.6655

     occupation numbers 
     1.0000   1.0000   1.0000   1.0000   1.0000   1.0000   1.0000   1.0000
     1.0000   1.0000   1.0000   1.0000   1.0000   1.0000   1.0000   1.0000
     1.0000   1.0000   1.0000   1.0000   1.0000   1.0000   1.0000   1.0000
     1.0000   1.0000   1.0000   1.0000   1.0000   1.0000   1.0000   1.0000
     1.0000   1.0000   1.0000   1.0000   1.0000   1.0000   1.0000   1.0000
     1.0000   1.0000   1.0000   1.0000   1.0000   1.0000   1.0000   1.0000
     1.0000   1.0000   1.0000   1.0000   1.0000   1.0000   1.0000   1.0000
     1.0444   0.0000   0.0000   0.0000   0.0000   0.0000   0.0000   0.0000
     0.0000   0.0000

          k = 0.0806-0.0769 0.3604 ( 20415 PWs)   bands (ev):

  -102.4090 -69.8086 -65.3835 -65.2926 -60.1425 -60.1058 -59.4046 -38.9118
   -38.8322 -38.7897 -29.7157 -29.6266 -29.6083 -29.5649 -29.5094 -29.4837
    -8.7657  -8.4068  -7.9847  -7.7351  -7.3566  -7.2329  -7.0539  -7.0007
     1.7503   2.3068   2.3836   2.4302   3.2225   3.3023   3.7442   3.9219
     4.0875   4.2483   4.5472   4.8610   5.1658   5.4123   5.6026   5.8563
     6.0079   6.1643   6.3743   6.5583   6.8181   6.9427   7.2247   7.4461
     7.6828   7.8317   8.1219   8.3159   8.5680   8.7010   8.8495   9.1504
    10.0697  11.3557  12.0322  12.4263  12.5408  12.7827  12.9478  13.1173
    15.5756  16.1055

     occupation numbers 
     1.0000   1.0000   1.0000   1.0000   1.0000   1.0000   1.0000   1.0000
     1.0000   1.0000   1.0000   1.0000   1.0000   1.0000   1.0000   1.0000
     1.0000   1.0000   1.0000   1.0000   1.0000   1.0000   1.0000   1.0000
     1.0000   1.0000   1.0000   1.0000   1.0000   1.0000   1.0000   1.0000
     1.0000   1.0000   1.0000   1.0000   1.0000   1.0000   1.0000   1.0000
     1.0000   1.0000   1.0000   1.0000   1.0000   1.0000   1.0000   1.0000
     1.0000   1.0000   1.0000   1.0000   1.0000   1.0000   1.0000   1.0000
     0.8487   0.0000   0.0000   0.0000   0.0000   0.0000   0.0000   0.0000
     0.0000   0.0000

          k = 0.0861-0.0768-0.3673 ( 20418 PWs)   bands (ev):

  -102.4090 -69.8086 -65.3835 -65.2925 -60.1425 -60.1058 -59.4046 -38.9118
   -38.8322 -38.7897 -29.7162 -29.6265 -29.6082 -29.5644 -29.5094 -29.4839
    -8.7735  -8.3779  -7.9835  -7.7381  -7.3844  -7.2327  -7.0473  -7.0055
     1.7407   2.3389   2.3700   2.4479   3.1588   3.2936   3.7304   3.9108
     4.1975   4.3770   4.6437   4.7592   5.0572   5.2845   5.6544   5.8937
     6.0420   6.1746   6.4478   6.5958   6.7900   6.9115   7.2121   7.4136
     7.7019   7.8504   8.0464   8.1851   8.5604   8.6513   8.9095   9.1464
    10.1536  11.3121  12.1329  12.3241  12.5335  12.8015  12.9420  13.0628
    15.6756  16.1617

     occupation numbers 
     1.0000   1.0000   1.0000   1.0000   1.0000   1.0000   1.0000   1.0000
     1.0000   1.0000   1.0000   1.0000   1.0000   1.0000   1.0000   1.0000
     1.0000   1.0000   1.0000   1.0000   1.0000   1.0000   1.0000   1.0000
     1.0000   1.0000   1.0000   1.0000   1.0000   1.0000   1.0000   1.0000
     1.0000   1.0000   1.0000   1.0000   1.0000   1.0000   1.0000   1.0000
     1.0000   1.0000   1.0000   1.0000   1.0000   1.0000   1.0000   1.0000
     1.0000   1.0000   1.0000   1.0000   1.0000   1.0000   1.0000   1.0000
     0.6312   0.0000   0.0000   0.0000   0.0000   0.0000   0.0000   0.0000
     0.0000   0.0000

          k = 0.0850-0.0768-0.2218 ( 20422 PWs)   bands (ev):

  -102.4090 -69.8087 -65.3836 -65.2926 -60.1425 -60.1058 -59.4046 -38.9117
   -38.8322 -38.7897 -29.7186 -29.6286 -29.6039 -29.5623 -29.5092 -29.4856
    -9.0233  -8.1016  -7.9685  -7.6544  -7.3948  -7.2776  -7.0748  -7.0300
     1.7513   2.2887   2.3953   2.4577   3.1263   3.3057   3.6532   3.9695
     4.0843   4.2960   4.6164   4.9684   5.1502   5.2488   5.6124   5.9624
     6.0603   6.3024   6.3393   6.7396   6.8288   7.0034   7.1520   7.2999
     7.6569   7.7413   7.9632   8.1731   8.5816   8.6232   8.9408   9.0993
    10.1181  11.3361  11.9428  12.4039  12.6208  12.7686  13.1129  13.2737
    15.5412  15.9965

     occupation numbers 
     1.0000   1.0000   1.0000   1.0000   1.0000   1.0000   1.0000   1.0000
     1.0000   1.0000   1.0000   1.0000   1.0000   1.0000   1.0000   1.0000
     1.0000   1.0000   1.0000   1.0000   1.0000   1.0000   1.0000   1.0000
     1.0000   1.0000   1.0000   1.0000   1.0000   1.0000   1.0000   1.0000
     1.0000   1.0000   1.0000   1.0000   1.0000   1.0000   1.0000   1.0000
     1.0000   1.0000   1.0000   1.0000   1.0000   1.0000   1.0000   1.0000
     1.0000   1.0000   1.0000   1.0000   1.0000   1.0000   1.0000   1.0000
     0.7278   0.0000   0.0000   0.0000   0.0000   0.0000   0.0000   0.0000
     0.0000   0.0000

          k = 0.0839-0.0768-0.0762 ( 20419 PWs)   bands (ev):

  -102.4090 -69.8087 -65.3836 -65.2926 -60.1425 -60.1058 -59.4046 -38.9117
   -38.8322 -38.7897 -29.7204 -29.6305 -29.6002 -29.5608 -29.5085 -29.4873
    -9.1674  -8.0946  -7.7645  -7.5863  -7.3859  -7.3312  -7.1270  -7.0431
     1.7674   2.2048   2.4301   2.4657   3.0532   3.3476   3.6500   3.8045
     4.1361   4.3477   4.7055   4.9092   5.1574   5.3489   5.5593   5.9755
     6.0195   6.2185   6.3959   6.6759   6.8974   7.0227   7.2558   7.3320
     7.4991   7.7834   8.0261   8.3425   8.5188   8.6628   8.8609   9.0451
     9.9828  11.3767  12.0277  12.3005  12.4538  12.8509  13.4225  13.4803
    15.0941  15.8381

     occupation numbers 
     1.0000   1.0000   1.0000   1.0000   1.0000   1.0000   1.0000   1.0000
     1.0000   1.0000   1.0000   1.0000   1.0000   1.0000   1.0000   1.0000
     1.0000   1.0000   1.0000   1.0000   1.0000   1.0000   1.0000   1.0000
     1.0000   1.0000   1.0000   1.0000   1.0000   1.0000   1.0000   1.0000
     1.0000   1.0000   1.0000   1.0000   1.0000   1.0000   1.0000   1.0000
     1.0000   1.0000   1.0000   1.0000   1.0000   1.0000   1.0000   1.0000
     1.0000   1.0000   1.0000   1.0000   1.0000   1.0000   1.0000   1.0000
     1.0076   0.0000   0.0000   0.0000   0.0000   0.0000   0.0000   0.0000
     0.0000   0.0000

          k = 0.2496 0.0677 0.0554 ( 20367 PWs)   bands (ev):

  -102.4090 -69.8087 -65.3835 -65.2926 -60.1425 -60.1058 -59.4046 -38.9117
   -38.8322 -38.7897 -29.7208 -29.6308 -29.6003 -29.5611 -29.5088 -29.4876
    -9.0658  -8.1075  -7.7495  -7.5898  -7.4274  -7.2976  -7.1847  -7.1207
     1.7610   2.3069   2.4198   2.5052   3.1890   3.4220   3.6523   3.8098
     3.9875   4.4187   4.7256   4.8151   4.9560   5.0997   5.5311   5.9604
     6.2269   6.3225   6.4800   6.6813   6.8123   6.9405   7.0867   7.5748
     7.6564   7.8056   8.0522   8.2147   8.3625   8.7143   8.9870   9.1340
     9.9704  11.2206  12.1047  12.2635  12.3295  12.9190  13.4939  13.5914
    15.3624  15.6474

     occupation numbers 
     1.0000   1.0000   1.0000   1.0000   1.0000   1.0000   1.0000   1.0000
     1.0000   1.0000   1.0000   1.0000   1.0000   1.0000   1.0000   1.0000
     1.0000   1.0000   1.0000   1.0000   1.0000   1.0000   1.0000   1.0000
     1.0000   1.0000   1.0000   1.0000   1.0000   1.0000   1.0000   1.0000
     1.0000   1.0000   1.0000   1.0000   1.0000   1.0000   1.0000   1.0000
     1.0000   1.0000   1.0000   1.0000   1.0000   1.0000   1.0000   1.0000
     1.0000   1.0000   1.0000   1.0000   1.0000   1.0000   1.0000   1.0000
     1.0229   0.0000   0.0000   0.0000   0.0000   0.0000   0.0000   0.0000
     0.0000   0.0000

          k = 0.2485 0.0677 0.2010 ( 20380 PWs)   bands (ev):

  -102.4090 -69.8087 -65.3835 -65.2927 -60.1425 -60.1058 -59.4046 -38.9118
   -38.8322 -38.7897 -29.7190 -29.6287 -29.6040 -29.5627 -29.5093 -29.4859
    -8.9508  -8.1273  -7.9297  -7.6297  -7.4276  -7.3293  -7.1169  -7.0345
     1.7692   2.3238   2.4092   2.4797   3.2443   3.5508   3.6287   3.8216
     3.9684   4.1919   4.6374   4.6989   4.9833   5.1453   5.8539   6.0344
     6.1263   6.2782   6.4191   6.5484   6.7310   6.9207   7.0525   7.5007
     7.6519   7.8346   8.2904   8.3954   8.5628   8.6778   8.9088   9.1841
     9.8641  11.1577  12.0705  12.3791  12.5157  12.9595  13.3457  13.4128
    15.3466  15.7794

     occupation numbers 
     1.0000   1.0000   1.0000   1.0000   1.0000   1.0000   1.0000   1.0000
     1.0000   1.0000   1.0000   1.0000   1.0000   1.0000   1.0000   1.0000
     1.0000   1.0000   1.0000   1.0000   1.0000   1.0000   1.0000   1.0000
     1.0000   1.0000   1.0000   1.0000   1.0000   1.0000   1.0000   1.0000
     1.0000   1.0000   1.0000   1.0000   1.0000   1.0000   1.0000   1.0000
     1.0000   1.0000   1.0000   1.0000   1.0000   1.0000   1.0000   1.0000
     1.0000   1.0000   1.0000   1.0000   1.0000   1.0000   1.0000   1.0000
     1.0830   0.0000   0.0000   0.0000   0.0000   0.0000   0.0000   0.0000
     0.0000   0.0000

          k = 0.2474 0.0677 0.3465 ( 20406 PWs)   bands (ev):

  -102.4090 -69.8086 -65.3835 -65.2929 -60.1425 -60.1058 -59.4046 -38.9118
   -38.8322 -38.7897 -29.7164 -29.6265 -29.6083 -29.5648 -29.5094 -29.4842
    -8.7320  -8.2731  -8.0471  -7.6937  -7.4479  -7.3228  -7.0656  -6.9785
     1.7617   2.3303   2.4541   2.4820   3.1924   3.4558   3.7247   3.8454
     3.9529   4.3518   4.5543   4.8027   5.1327   5.2380   5.6697   5.7938
     6.0603   6.1757   6.3389   6.4752   6.7596   6.8597   7.1713   7.3942
     7.7942   7.9148   8.4166   8.4837   8.5519   8.7452   8.7928   9.2340
     9.7952  11.1489  12.2261  12.3983  12.6883  12.9476  13.0136  13.1650
    15.5341  15.9572

     occupation numbers 
     1.0000   1.0000   1.0000   1.0000   1.0000   1.0000   1.0000   1.0000
     1.0000   1.0000   1.0000   1.0000   1.0000   1.0000   1.0000   1.0000
     1.0000   1.0000   1.0000   1.0000   1.0000   1.0000   1.0000   1.0000
     1.0000   1.0000   1.0000   1.0000   1.0000   1.0000   1.0000   1.0000
     1.0000   1.0000   1.0000   1.0000   1.0000   1.0000   1.0000   1.0000
     1.0000   1.0000   1.0000   1.0000   1.0000   1.0000   1.0000   1.0000
     1.0000   1.0000   1.0000   1.0000   1.0000   1.0000   1.0000   1.0000
     1.0742   0.0000   0.0000   0.0000   0.0000   0.0000   0.0000   0.0000
     0.0000   0.0000

          k = 0.2529 0.0678-0.3812 ( 20416 PWs)   bands (ev):

  -102.4090 -69.8086 -65.3835 -65.2928 -60.1425 -60.1058 -59.4046 -38.9118
   -38.8322 -38.7897 -29.7158 -29.6268 -29.6085 -29.5652 -29.5096 -29.4839
    -8.6631  -8.3432  -8.0208  -7.7352  -7.4382  -7.3132  -7.0811  -6.9784
     1.7447   2.3661   2.4663   2.4920   3.1674   3.3727   3.6966   3.8032
     4.1941   4.5573   4.5812   4.8621   4.9787   5.2436   5.4345   5.7877
     5.9686   6.2556   6.3847   6.6075   6.7727   6.8837   7.0958   7.3007
     7.8243   7.9478   8.2630   8.3925   8.4934   8.7644   8.8300   9.1975
     9.8705  11.1838  12.2283  12.4428  12.6820  12.8464  13.0012  13.1005
    15.8669  16.0617

     occupation numbers 
     1.0000   1.0000   1.0000   1.0000   1.0000   1.0000   1.0000   1.0000
     1.0000   1.0000   1.0000   1.0000   1.0000   1.0000   1.0000   1.0000
     1.0000   1.0000   1.0000   1.0000   1.0000   1.0000   1.0000   1.0000
     1.0000   1.0000   1.0000   1.0000   1.0000   1.0000   1.0000   1.0000
     1.0000   1.0000   1.0000   1.0000   1.0000   1.0000   1.0000   1.0000
     1.0000   1.0000   1.0000   1.0000   1.0000   1.0000   1.0000   1.0000
     1.0000   1.0000   1.0000   1.0000   1.0000   1.0000   1.0000   1.0000
     1.0824   0.0000   0.0000   0.0000   0.0000   0.0000   0.0000   0.0000
     0.0000   0.0000

          k = 0.2518 0.0678-0.2357 ( 20435 PWs)   bands (ev):

  -102.4090 -69.8087 -65.3835 -65.2926 -60.1425 -60.1058 -59.4046 -38.9118
   -38.8322 -38.7897 -29.7178 -29.6292 -29.6043 -29.5635 -29.5097 -29.4852
    -8.8940  -8.0889  -7.9865  -7.6954  -7.4151  -7.3274  -7.1369  -7.0263
     1.7362   2.3732   2.4522   2.5163   3.1374   3.2983   3.7512   3.8787
     4.1826   4.4850   4.7177   4.8049   4.9054   5.3023   5.4277   5.8338
     5.9736   6.1857   6.4943   6.7317   6.8642   6.9682   7.1459   7.3177
     7.6595   7.8833   8.0571   8.2068   8.4648   8.6953   8.9259   9.1068
    10.0011  11.2048  11.9814  12.5152  12.7321  12.8520  12.9275  13.3657
    15.9934  16.1234

     occupation numbers 
     1.0000   1.0000   1.0000   1.0000   1.0000   1.0000   1.0000   1.0000
     1.0000   1.0000   1.0000   1.0000   1.0000   1.0000   1.0000   1.0000
     1.0000   1.0000   1.0000   1.0000   1.0000   1.0000   1.0000   1.0000
     1.0000   1.0000   1.0000   1.0000   1.0000   1.0000   1.0000   1.0000
     1.0000   1.0000   1.0000   1.0000   1.0000   1.0000   1.0000   1.0000
     1.0000   1.0000   1.0000   1.0000   1.0000   1.0000   1.0000   1.0000
     1.0000   1.0000   1.0000   1.0000   1.0000   1.0000   1.0000   1.0000
     0.9816   0.0000   0.0000   0.0000   0.0000   0.0000   0.0000   0.0000
     0.0000   0.0000

          k = 0.2507 0.0677-0.0901 ( 20409 PWs)   bands (ev):

  -102.4090 -69.8087 -65.3835 -65.2925 -60.1425 -60.1058 -59.4046 -38.9117
   -38.8322 -38.7897 -29.7203 -29.6310 -29.6004 -29.5616 -29.5091 -29.4872
    -9.0456  -8.0793  -7.7747  -7.6264  -7.4293  -7.2990  -7.2047  -7.0963
     1.7451   2.3181   2.4543   2.5325   3.1228   3.3008   3.6887   3.8417
     4.2626   4.4201   4.5606   4.9836   5.0544   5.2250   5.3996   5.7867
     6.1044   6.2323   6.3926   6.6984   6.8954   7.0284   7.2554   7.5401
     7.6605   7.7768   7.9387   8.1553   8.2871   8.7232   8.9977   9.0614
    10.0406  11.2437  11.9627  12.3261  12.4886  12.8859  13.2922  13.5593
    15.6228  15.9596

     occupation numbers 
     1.0000   1.0000   1.0000   1.0000   1.0000   1.0000   1.0000   1.0000
     1.0000   1.0000   1.0000   1.0000   1.0000   1.0000   1.0000   1.0000
     1.0000   1.0000   1.0000   1.0000   1.0000   1.0000   1.0000   1.0000
     1.0000   1.0000   1.0000   1.0000   1.0000   1.0000   1.0000   1.0000
     1.0000   1.0000   1.0000   1.0000   1.0000   1.0000   1.0000   1.0000
     1.0000   1.0000   1.0000   1.0000   1.0000   1.0000   1.0000   1.0000
     1.0000   1.0000   1.0000   1.0000   1.0000   1.0000   1.0000   1.0000
     0.9114   0.0000   0.0000   0.0000   0.0000   0.0000   0.0000   0.0000
     0.0000   0.0000

          k = 0.2497 0.2168 0.0519 ( 20388 PWs)   bands (ev):

  -102.4090 -69.8087 -65.3834 -65.2926 -60.1425 -60.1058 -59.4046 -38.9117
   -38.8323 -38.7897 -29.7202 -29.6307 -29.5995 -29.5618 -29.5091 -29.4882
    -8.9915  -8.0708  -7.8676  -7.5647  -7.4676  -7.3272  -7.1768  -7.1096
     1.7854   2.3016   2.4424   2.5121   3.1669   3.5056   3.7210   3.9150
     4.0610   4.3370   4.7010   4.9294   5.0187   5.2421   5.5751   5.8243
     6.2015   6.4074   6.5508   6.6464   6.7645   6.8340   7.1591   7.3662
     7.4426   7.8280   7.9607   8.1493   8.3308   8.6767   8.7924   9.1374
     9.9299  11.1892  12.0286  12.3438  12.4098  13.0130  13.3644  13.5219
    15.6152  15.8176

     occupation numbers 
     1.0000   1.0000   1.0000   1.0000   1.0000   1.0000   1.0000   1.0000
     1.0000   1.0000   1.0000   1.0000   1.0000   1.0000   1.0000   1.0000
     1.0000   1.0000   1.0000   1.0000   1.0000   1.0000   1.0000   1.0000
     1.0000   1.0000   1.0000   1.0000   1.0000   1.0000   1.0000   1.0000
     1.0000   1.0000   1.0000   1.0000   1.0000   1.0000   1.0000   1.0000
     1.0000   1.0000   1.0000   1.0000   1.0000   1.0000   1.0000   1.0000
     1.0000   1.0000   1.0000   1.0000   1.0000   1.0000   1.0000   1.0000
     1.0600   0.0000   0.0000   0.0000   0.0000   0.0000   0.0000   0.0000
     0.0000   0.0000

          k = 0.2486 0.2168 0.1975 ( 20405 PWs)   bands (ev):

  -102.4090 -69.8087 -65.3834 -65.2928 -60.1425 -60.1058 -59.4046 -38.9118
   -38.8322 -38.7897 -29.7195 -29.6286 -29.6039 -29.5624 -29.5091 -29.4861
    -8.9004  -8.0964  -7.9799  -7.6087  -7.4262  -7.3089  -7.2028  -7.0552
     1.7941   2.3204   2.4340   2.4938   3.1779   3.4649   3.7744   3.8752
     4.0721   4.3578   4.5916   4.8424   4.9857   5.3837   5.6313   5.9007
     6.1350   6.3859   6.4937   6.6219   6.7882   6.9608   7.0739   7.3267
     7.4430   7.6669   8.0427   8.2254   8.5166   8.6527   8.7602   9.2116
     9.9306  11.1563  11.9156  12.4372  12.5276  13.0699  13.2799  13.3831
    15.4962  15.9684

     occupation numbers 
     1.0000   1.0000   1.0000   1.0000   1.0000   1.0000   1.0000   1.0000
     1.0000   1.0000   1.0000   1.0000   1.0000   1.0000   1.0000   1.0000
     1.0000   1.0000   1.0000   1.0000   1.0000   1.0000   1.0000   1.0000
     1.0000   1.0000   1.0000   1.0000   1.0000   1.0000   1.0000   1.0000
     1.0000   1.0000   1.0000   1.0000   1.0000   1.0000   1.0000   1.0000
     1.0000   1.0000   1.0000   1.0000   1.0000   1.0000   1.0000   1.0000
     1.0000   1.0000   1.0000   1.0000   1.0000   1.0000   1.0000   1.0000
     1.0595   0.0000   0.0000   0.0000   0.0000   0.0000   0.0000   0.0000
     0.0000   0.0000

          k = 0.2475 0.2168 0.3430 ( 20393 PWs)   bands (ev):

  -102.4090 -69.8087 -65.3834 -65.2929 -60.1425 -60.1058 -59.4046 -38.9118
   -38.8322 -38.7897 -29.7175 -29.6268 -29.6088 -29.5640 -29.5088 -29.4838
    -8.7203  -8.1966  -8.1014  -7.6503  -7.4060  -7.3173  -7.1693  -7.0326
     1.7889   2.3369   2.4663   2.5052   3.1442   3.5168   3.7007   3.8643
     4.0555   4.4280   4.6422   4.8581   5.1117   5.4205   5.6194   5.7411
     6.0872   6.2037   6.4662   6.5915   6.7867   6.8948   7.0952   7.3649
     7.5591   7.6865   8.1588   8.2111   8.4737   8.6839   8.7509   9.2874
     9.8936  11.1334  12.0195  12.2789  12.6643  13.0750  13.1072  13.2012
    15.6013  16.0155

     occupation numbers 
     1.0000   1.0000   1.0000   1.0000   1.0000   1.0000   1.0000   1.0000
     1.0000   1.0000   1.0000   1.0000   1.0000   1.0000   1.0000   1.0000
     1.0000   1.0000   1.0000   1.0000   1.0000   1.0000   1.0000   1.0000
     1.0000   1.0000   1.0000   1.0000   1.0000   1.0000   1.0000   1.0000
     1.0000   1.0000   1.0000   1.0000   1.0000   1.0000   1.0000   1.0000
     1.0000   1.0000   1.0000   1.0000   1.0000   1.0000   1.0000   1.0000
     1.0000   1.0000   1.0000   1.0000   1.0000   1.0000   1.0000   1.0001
     1.0776   0.0000   0.0000   0.0000   0.0000   0.0000   0.0000   0.0000
     0.0000   0.0000

          k = 0.2529 0.2169-0.3847 ( 20405 PWs)   bands (ev):

  -102.4090 -69.8087 -65.3834 -65.2929 -60.1425 -60.1058 -59.4046 -38.9118
   -38.8322 -38.7897 -29.7164 -29.6272 -29.6091 -29.5648 -29.5091 -29.4832
    -8.6334  -8.3014  -8.0828  -7.6616  -7.3874  -7.3061  -7.2237  -7.0098
     1.7745   2.3619   2.4780   2.5194   3.1925   3.5578   3.6280   3.8252
     4.0881   4.5594   4.7418   4.8047   5.0165   5.3123   5.7082   5.7473
     6.0356   6.1824   6.3687   6.5896   6.8043   6.9724   7.0951   7.3760
     7.5699   7.7423   8.0863   8.1670   8.4132   8.7072   8.8014   9.1991
     9.8969  11.1328  12.0111  12.3035  12.7226  12.8429  13.1419  13.1974
    15.8358  16.0457

     occupation numbers 
     1.0000   1.0000   1.0000   1.0000   1.0000   1.0000   1.0000   1.0000
     1.0000   1.0000   1.0000   1.0000   1.0000   1.0000   1.0000   1.0000
     1.0000   1.0000   1.0000   1.0000   1.0000   1.0000   1.0000   1.0000
     1.0000   1.0000   1.0000   1.0000   1.0000   1.0000   1.0000   1.0000
     1.0000   1.0000   1.0000   1.0000   1.0000   1.0000   1.0000   1.0000
     1.0000   1.0000   1.0000   1.0000   1.0000   1.0000   1.0000   1.0000
     1.0000   1.0000   1.0000   1.0000   1.0000   1.0000   1.0000   1.0000
     1.0765   0.0000   0.0000   0.0000   0.0000   0.0000   0.0000   0.0000
     0.0000   0.0000

          k = 0.2518 0.2169-0.2392 ( 20403 PWs)   bands (ev):

  -102.4090 -69.8087 -65.3834 -65.2927 -60.1425 -60.1058 -59.4046 -38.9118
   -38.8322 -38.7897 -29.7173 -29.6294 -29.6045 -29.5641 -29.5098 -29.4847
    -8.8173  -8.1150  -8.0210  -7.6682  -7.3930  -7.3237  -7.2425  -7.0225
     1.7662   2.3542   2.4620   2.5374   3.2102   3.5253   3.7370   3.7904
     4.1885   4.4540   4.6724   4.8742   5.0320   5.3421   5.5330   5.7288
     6.0060   6.1816   6.4254   6.7906   6.9360   7.0241   7.1149   7.3268
     7.5067   7.7535   7.9571   8.0924   8.3405   8.6692   8.8990   9.0393
     9.9121  11.1511  11.9107  12.5238  12.6919  12.7686  13.0676  13.3693
    15.8630  16.2801

     occupation numbers 
     1.0000   1.0000   1.0000   1.0000   1.0000   1.0000   1.0000   1.0000
     1.0000   1.0000   1.0000   1.0000   1.0000   1.0000   1.0000   1.0000
     1.0000   1.0000   1.0000   1.0000   1.0000   1.0000   1.0000   1.0000
     1.0000   1.0000   1.0000   1.0000   1.0000   1.0000   1.0000   1.0000
     1.0000   1.0000   1.0000   1.0000   1.0000   1.0000   1.0000   1.0000
     1.0000   1.0000   1.0000   1.0000   1.0000   1.0000   1.0000   1.0000
     1.0000   1.0000   1.0000   1.0000   1.0000   1.0000   1.0000   1.0000
     1.0703   0.0000   0.0000   0.0000   0.0000   0.0000   0.0000   0.0000
     0.0000   0.0000

          k = 0.2508 0.2169-0.0936 ( 20391 PWs)   bands (ev):

  -102.4090 -69.8087 -65.3834 -65.2926 -60.1425 -60.1058 -59.4046 -38.9117
   -38.8323 -38.7897 -29.7192 -29.6311 -29.5998 -29.5626 -29.5095 -29.4875
    -8.9616  -8.0675  -7.8350  -7.6936  -7.4249  -7.3214  -7.2031  -7.0808
     1.7718   2.3112   2.4590   2.5403   3.1671   3.4932   3.7382   3.9084
     4.2023   4.2929   4.6633   4.9909   5.1240   5.2305   5.4922   5.8136
     6.0003   6.3199   6.3614   6.7048   6.8829   7.0001   7.2109   7.3713
     7.5833   7.7386   7.9439   8.0956   8.2361   8.6758   8.8358   9.0582
     9.9166  11.1893  12.0519  12.2943  12.5088  12.9983  13.1560  13.5135
    15.7532  16.1512

     occupation numbers 
     1.0000   1.0000   1.0000   1.0000   1.0000   1.0000   1.0000   1.0000
     1.0000   1.0000   1.0000   1.0000   1.0000   1.0000   1.0000   1.0000
     1.0000   1.0000   1.0000   1.0000   1.0000   1.0000   1.0000   1.0000
     1.0000   1.0000   1.0000   1.0000   1.0000   1.0000   1.0000   1.0000
     1.0000   1.0000   1.0000   1.0000   1.0000   1.0000   1.0000   1.0000
     1.0000   1.0000   1.0000   1.0000   1.0000   1.0000   1.0000   1.0000
     1.0000   1.0000   1.0000   1.0000   1.0000   1.0000   1.0000   1.0000
     1.0680   0.0000   0.0000   0.0000   0.0000   0.0000   0.0000   0.0000
     0.0000   0.0000

          k = 0.2497 0.3659 0.0484 ( 20387 PWs)   bands (ev):

  -102.4090 -69.8087 -65.3833 -65.2927 -60.1425 -60.1058 -59.4046 -38.9117
   -38.8323 -38.7898 -29.7191 -29.6308 -29.5989 -29.5629 -29.5095 -29.4885
    -8.8696  -8.0579  -7.9910  -7.5890  -7.5252  -7.3491  -7.1591  -7.0699
     1.8063   2.3270   2.4384   2.5289   3.1986   3.5352   3.7690   4.0048
     4.1382   4.4529   4.7035   4.9525   5.1225   5.3437   5.4874   5.6933
     6.2071   6.3796   6.5085   6.6332   6.7454   6.8879   7.1083   7.2189
     7.4884   7.6600   7.8369   8.0816   8.2690   8.5785   8.7224   9.1359
     9.8996  11.1513  11.9536  12.4294  12.6560  12.9752  13.3232  13.3747
    15.6885  16.0862

     occupation numbers 
     1.0000   1.0000   1.0000   1.0000   1.0000   1.0000   1.0000   1.0000
     1.0000   1.0000   1.0000   1.0000   1.0000   1.0000   1.0000   1.0000
     1.0000   1.0000   1.0000   1.0000   1.0000   1.0000   1.0000   1.0000
     1.0000   1.0000   1.0000   1.0000   1.0000   1.0000   1.0000   1.0000
     1.0000   1.0000   1.0000   1.0000   1.0000   1.0000   1.0000   1.0000
     1.0000   1.0000   1.0000   1.0000   1.0000   1.0000   1.0000   1.0000
     1.0000   1.0000   1.0000   1.0000   1.0000   1.0000   1.0000   1.0000
     1.0756   0.0000   0.0000   0.0000   0.0000   0.0000   0.0000   0.0000
     0.0000   0.0000

          k = 0.2486 0.3659 0.1940 ( 20403 PWs)   bands (ev):

  -102.4090 -69.8087 -65.3833 -65.2929 -60.1425 -60.1058 -59.4046 -38.9118
   -38.8322 -38.7897 -29.7189 -29.6289 -29.6041 -29.5630 -29.5091 -29.4856
    -8.7982  -8.1440  -7.9907  -7.6172  -7.4666  -7.3123  -7.2294  -7.0558
     1.8169   2.3465   2.4391   2.5155   3.1816   3.3739   3.7383   3.9446
     4.3143   4.5722   4.7433   4.9210   5.1338   5.3071   5.4823   5.7095
     6.1239   6.3426   6.5444   6.6603   6.8014   6.9091   7.1349   7.2601
     7.3695   7.6409   7.7956   8.0443   8.3361   8.5845   8.7367   9.1951
     9.9388  11.1724  11.8142  12.4919  12.6375  13.0568  13.2563  13.3567
    15.4094  16.1640

     occupation numbers 
     1.0000   1.0000   1.0000   1.0000   1.0000   1.0000   1.0000   1.0000
     1.0000   1.0000   1.0000   1.0000   1.0000   1.0000   1.0000   1.0000
     1.0000   1.0000   1.0000   1.0000   1.0000   1.0000   1.0000   1.0000
     1.0000   1.0000   1.0000   1.0000   1.0000   1.0000   1.0000   1.0000
     1.0000   1.0000   1.0000   1.0000   1.0000   1.0000   1.0000   1.0000
     1.0000   1.0000   1.0000   1.0000   1.0000   1.0000   1.0000   1.0000
     1.0000   1.0000   1.0000   1.0000   1.0000   1.0000   1.0000   1.0000
     1.0534   0.0000   0.0000   0.0000   0.0000   0.0000   0.0000   0.0000
     0.0000   0.0000

          k = 0.2476 0.3659 0.3395 ( 20380 PWs)   bands (ev):

  -102.4090 -69.8087 -65.3833 -65.2930 -60.1425 -60.1058 -59.4046 -38.9118
   -38.8322 -38.7897 -29.7181 -29.6273 -29.6094 -29.5637 -29.5082 -29.4831
    -8.6633  -8.2362  -8.0157  -7.6605  -7.4583  -7.3058  -7.2298  -7.0600
     1.8142   2.3740   2.4590   2.5398   3.1878   3.3486   3.6392   3.9589
     4.3142   4.6367   4.8476   4.9450   5.0495   5.3461   5.5231   5.6899
     6.0170   6.2937   6.5488   6.5790   6.8431   7.0046   7.0642   7.2240
     7.4510   7.6274   7.7999   8.0727   8.3319   8.5788   8.7153   9.3179
     9.8887  11.1777  11.9186  12.2138  12.5862  13.0704  13.1714  13.3348
    15.3946  16.0764

     occupation numbers 
     1.0000   1.0000   1.0000   1.0000   1.0000   1.0000   1.0000   1.0000
     1.0000   1.0000   1.0000   1.0000   1.0000   1.0000   1.0000   1.0000
     1.0000   1.0000   1.0000   1.0000   1.0000   1.0000   1.0000   1.0000
     1.0000   1.0000   1.0000   1.0000   1.0000   1.0000   1.0000   1.0000
     1.0000   1.0000   1.0000   1.0000   1.0000   1.0000   1.0000   1.0000
     1.0000   1.0000   1.0000   1.0000   1.0000   1.0000   1.0000   1.0000
     1.0000   1.0000   1.0000   1.0000   1.0000   1.0000   1.0000   1.0002
     1.0790   0.0000   0.0000   0.0000   0.0000   0.0000   0.0000   0.0000
     0.0000   0.0000

          k = 0.2530 0.3660-0.3882 ( 20403 PWs)   bands (ev):

  -102.4090 -69.8087 -65.3833 -65.2929 -60.1425 -60.1058 -59.4046 -38.9118
   -38.8322 -38.7897 -29.7176 -29.6275 -29.6096 -29.5641 -29.5085 -29.4828
    -8.6092  -8.2335  -8.0741  -7.6271  -7.4655  -7.3502  -7.2623  -7.0202
     1.8007   2.3808   2.4787   2.5692   3.2747   3.4002   3.6355   4.0361
     4.1627   4.5726   4.7484   4.8574   5.1036   5.2812   5.6742   5.8961
     6.0446   6.2551   6.4100   6.5457   6.7111   6.9850   7.0988   7.2542
     7.5151   7.6607   7.8470   8.0774   8.2996   8.6677   8.7154   9.1857
     9.8524  11.1948  11.8886  12.1234  12.6710  12.8903  13.1969  13.3393
    15.5136  16.0865

     occupation numbers 
     1.0000   1.0000   1.0000   1.0000   1.0000   1.0000   1.0000   1.0000
     1.0000   1.0000   1.0000   1.0000   1.0000   1.0000   1.0000   1.0000
     1.0000   1.0000   1.0000   1.0000   1.0000   1.0000   1.0000   1.0000
     1.0000   1.0000   1.0000   1.0000   1.0000   1.0000   1.0000   1.0000
     1.0000   1.0000   1.0000   1.0000   1.0000   1.0000   1.0000   1.0000
     1.0000   1.0000   1.0000   1.0000   1.0000   1.0000   1.0000   1.0000
     1.0000   1.0000   1.0000   1.0000   1.0000   1.0000   1.0000   1.0000
     1.0833   0.0000   0.0000   0.0000   0.0000   0.0000   0.0000   0.0000
     0.0000   0.0000

          k = 0.2519 0.3660-0.2427 ( 20399 PWs)   bands (ev):

  -102.4090 -69.8087 -65.3833 -65.2927 -60.1425 -60.1058 -59.4046 -38.9118
   -38.8322 -38.7897 -29.7179 -29.6293 -29.6044 -29.5638 -29.5096 -29.4849
    -8.7308  -8.1013  -8.0447  -7.5944  -7.5488  -7.4107  -7.2024  -7.0056
     1.7913   2.3678   2.4549   2.5756   3.2978   3.6034   3.6973   3.9382
     4.1924   4.4651   4.6899   4.9204   5.0334   5.1841   5.6068   5.9012
     5.9898   6.2935   6.4264   6.6598   6.8066   6.9836   7.1401   7.2848
     7.5123   7.6434   7.8780   8.0404   8.1973   8.6920   8.7636   9.0322
     9.8077  11.1606  11.9170  12.3847  12.6276  12.7703  13.2071  13.3549
    15.7058  16.1779

     occupation numbers 
     1.0000   1.0000   1.0000   1.0000   1.0000   1.0000   1.0000   1.0000
     1.0000   1.0000   1.0000   1.0000   1.0000   1.0000   1.0000   1.0000
     1.0000   1.0000   1.0000   1.0000   1.0000   1.0000   1.0000   1.0000
     1.0000   1.0000   1.0000   1.0000   1.0000   1.0000   1.0000   1.0000
     1.0000   1.0000   1.0000   1.0000   1.0000   1.0000   1.0000   1.0000
     1.0000   1.0000   1.0000   1.0000   1.0000   1.0000   1.0000   1.0000
     1.0000   1.0000   1.0000   1.0000   1.0000   1.0000   1.0000   1.0000
     1.0773   0.0000   0.0000   0.0000   0.0000   0.0000   0.0000   0.0000
     0.0000   0.0000

          k = 0.2508 0.3660-0.0971 ( 20385 PWs)   bands (ev):

  -102.4090 -69.8087 -65.3833 -65.2926 -60.1425 -60.1058 -59.4046 -38.9117
   -38.8323 -38.7897 -29.7186 -29.6309 -29.5991 -29.5633 -29.5098 -29.4881
    -8.8435  -8.0903  -7.8663  -7.7430  -7.5121  -7.3731  -7.1519  -7.0427
     1.7942   2.3407   2.4371   2.5576   3.2489   3.6756   3.7732   3.9249
     4.2025   4.3344   4.6879   4.9843   5.0838   5.3584   5.3894   5.7408
     6.0878   6.3003   6.4495   6.7228   6.7969   6.9002   7.1832   7.3609
     7.5201   7.6791   7.8129   8.0087   8.1898   8.5981   8.7498   9.0948
     9.8229  11.1326  12.1598  12.3540  12.5616  12.8176  13.2216  13.4235
    15.8689  16.2198

     occupation numbers 
     1.0000   1.0000   1.0000   1.0000   1.0000   1.0000   1.0000   1.0000
     1.0000   1.0000   1.0000   1.0000   1.0000   1.0000   1.0000   1.0000
     1.0000   1.0000   1.0000   1.0000   1.0000   1.0000   1.0000   1.0000
     1.0000   1.0000   1.0000   1.0000   1.0000   1.0000   1.0000   1.0000
     1.0000   1.0000   1.0000   1.0000   1.0000   1.0000   1.0000   1.0000
     1.0000   1.0000   1.0000   1.0000   1.0000   1.0000   1.0000   1.0000
     1.0000   1.0000   1.0000   1.0000   1.0000   1.0000   1.0000   1.0000
     1.0804   0.0000   0.0000   0.0000   0.0000   0.0000   0.0000   0.0000
     0.0000   0.0000

          k = 0.2494-0.3796 0.0659 ( 20376 PWs)   bands (ev):

  -102.4090 -69.8087 -65.3833 -65.2927 -60.1425 -60.1058 -59.4046 -38.9117
   -38.8323 -38.7898 -29.7186 -29.6310 -29.5991 -29.5633 -29.5096 -29.4881
    -8.8305  -8.1356  -7.9479  -7.6423  -7.5204  -7.3337  -7.1364  -7.0672
     1.8022   2.3556   2.4270   2.5359   3.2852   3.5397   3.6974   3.9767
     4.1217   4.4824   4.6767   4.9784   5.0841   5.3776   5.4380   5.7318
     6.1932   6.3170   6.4960   6.6197   6.7568   6.8959   7.0687   7.2548
     7.4632   7.7008   7.9106   8.1068   8.2691   8.5575   8.7173   9.1291
     9.8996  11.1506  11.9511  12.3892  12.7638  12.9701  13.2322  13.4152
    15.6313  16.2188

     occupation numbers 
     1.0000   1.0000   1.0000   1.0000   1.0000   1.0000   1.0000   1.0000
     1.0000   1.0000   1.0000   1.0000   1.0000   1.0000   1.0000   1.0000
     1.0000   1.0000   1.0000   1.0000   1.0000   1.0000   1.0000   1.0000
     1.0000   1.0000   1.0000   1.0000   1.0000   1.0000   1.0000   1.0000
     1.0000   1.0000   1.0000   1.0000   1.0000   1.0000   1.0000   1.0000
     1.0000   1.0000   1.0000   1.0000   1.0000   1.0000   1.0000   1.0000
     1.0000   1.0000   1.0000   1.0000   1.0000   1.0000   1.0000   1.0000
     1.0756   0.0000   0.0000   0.0000   0.0000   0.0000   0.0000   0.0000
     0.0000   0.0000

          k = 0.2483-0.3796 0.2114 ( 20386 PWs)   bands (ev):

  -102.4090 -69.8087 -65.3833 -65.2928 -60.1425 -60.1058 -59.4046 -38.9118
   -38.8322 -38.7897 -29.7179 -29.6294 -29.6045 -29.5639 -29.5093 -29.4849
    -8.7405  -8.2200  -7.9678  -7.6741  -7.4765  -7.2857  -7.1964  -7.0565
     1.8120   2.3770   2.4313   2.5227   3.2373   3.3768   3.7122   3.9008
     4.3267   4.5961   4.6977   4.9730   5.1527   5.2389   5.4242   5.7119
     6.1251   6.3829   6.4880   6.6559   6.7752   6.8957   7.1340   7.2721
     7.4251   7.6760   7.8061   8.1057   8.2745   8.5672   8.7513   9.1811
     9.9470  11.1731  11.7909  12.5112  12.7170  13.0463  13.2281  13.3411
    15.3453  16.1247

     occupation numbers 
     1.0000   1.0000   1.0000   1.0000   1.0000   1.0000   1.0000   1.0000
     1.0000   1.0000   1.0000   1.0000   1.0000   1.0000   1.0000   1.0000
     1.0000   1.0000   1.0000   1.0000   1.0000   1.0000   1.0000   1.0000
     1.0000   1.0000   1.0000   1.0000   1.0000   1.0000   1.0000   1.0000
     1.0000   1.0000   1.0000   1.0000   1.0000   1.0000   1.0000   1.0000
     1.0000   1.0000   1.0000   1.0000   1.0000   1.0000   1.0000   1.0000
     1.0000   1.0000   1.0000   1.0000   1.0000   1.0000   1.0000   1.0000
     1.0467   0.0000   0.0000   0.0000   0.0000   0.0000   0.0000   0.0000
     0.0000   0.0000

          k = 0.2473-0.3796 0.3570 ( 20398 PWs)   bands (ev):

  -102.4090 -69.8087 -65.3833 -65.2929 -60.1425 -60.1058 -59.4046 -38.9118
   -38.8322 -38.7897 -29.7175 -29.6276 -29.6096 -29.5642 -29.5083 -29.4827
    -8.6025  -8.3109  -7.9355  -7.7459  -7.5255  -7.2641  -7.1932  -7.0558
     1.8098   2.4089   2.4506   2.5482   3.2192   3.3430   3.6089   3.9348
     4.3618   4.6316   4.9011   4.9385   5.0331   5.3144   5.4302   5.7129
     5.9530   6.3516   6.4811   6.6284   6.7872   7.0208   7.1477   7.2668
     7.3729   7.6640   7.8225   8.0837   8.3013   8.5444   8.7330   9.3166
     9.9030  11.1841  11.8908  12.2601  12.6116  13.0612  13.1415  13.3419
    15.3242  16.0965

     occupation numbers 
     1.0000   1.0000   1.0000   1.0000   1.0000   1.0000   1.0000   1.0000
     1.0000   1.0000   1.0000   1.0000   1.0000   1.0000   1.0000   1.0000
     1.0000   1.0000   1.0000   1.0000   1.0000   1.0000   1.0000   1.0000
     1.0000   1.0000   1.0000   1.0000   1.0000   1.0000   1.0000   1.0000
     1.0000   1.0000   1.0000   1.0000   1.0000   1.0000   1.0000   1.0000
     1.0000   1.0000   1.0000   1.0000   1.0000   1.0000   1.0000   1.0000
     1.0000   1.0000   1.0000   1.0000   1.0000   1.0000   1.0000   1.0002
     1.0743   0.0000   0.0000   0.0000   0.0000   0.0000   0.0000   0.0000
     0.0000   0.0000

          k = 0.2527-0.3795-0.3708 ( 20397 PWs)   bands (ev):

  -102.4090 -69.8087 -65.3833 -65.2929 -60.1425 -60.1058 -59.4046 -38.9118
   -38.8322 -38.7897 -29.7181 -29.6274 -29.6095 -29.5637 -29.5084 -29.4830
    -8.6073  -8.2394  -7.9625  -7.7358  -7.5540  -7.3290  -7.2108  -7.0070
     1.7971   2.4089   2.4751   2.5823   3.2891   3.4148   3.5595   4.0573
     4.2204   4.5447   4.7057   4.8988   5.1029   5.2850   5.7304   5.7542
     6.0226   6.2487   6.3592   6.5741   6.7881   6.9997   7.1258   7.2735
     7.4927   7.6029   7.8671   8.0973   8.2929   8.5915   8.7702   9.1968
     9.8671  11.2108  11.9267  12.0730  12.6832  12.8686  13.1900  13.3534
    15.4581  16.1387

     occupation numbers 
     1.0000   1.0000   1.0000   1.0000   1.0000   1.0000   1.0000   1.0000
     1.0000   1.0000   1.0000   1.0000   1.0000   1.0000   1.0000   1.0000
     1.0000   1.0000   1.0000   1.0000   1.0000   1.0000   1.0000   1.0000
     1.0000   1.0000   1.0000   1.0000   1.0000   1.0000   1.0000   1.0000
     1.0000   1.0000   1.0000   1.0000   1.0000   1.0000   1.0000   1.0000
     1.0000   1.0000   1.0000   1.0000   1.0000   1.0000   1.0000   1.0000
     1.0000   1.0000   1.0000   1.0000   1.0000   1.0000   1.0000   1.0000
     1.0828   0.0000   0.0000   0.0000   0.0000   0.0000   0.0000   0.0000
     0.0000   0.0000

          k = 0.2516-0.3796-0.2252 ( 20393 PWs)   bands (ev):

  -102.4090 -69.8087 -65.3833 -65.2927 -60.1425 -60.1058 -59.4046 -38.9118
   -38.8322 -38.7897 -29.7190 -29.6290 -29.6043 -29.5630 -29.5094 -29.4854
    -8.7358  -8.0883  -7.9679  -7.6782  -7.5541  -7.4681  -7.1621  -6.9877
     1.7880   2.3969   2.4472   2.5856   3.4092   3.4753   3.6588   3.9544
     4.2349   4.4475   4.6983   4.9212   5.0433   5.1917   5.6133   5.8672
     5.9675   6.2086   6.4088   6.7088   6.8240   7.0361   7.1139   7.3562
     7.4798   7.5476   7.9016   8.0728   8.2286   8.6247   8.8055   9.0450
     9.8152  11.1720  11.9584  12.3080  12.6559  12.7493  13.1897  13.3771
    15.7240  16.1797

     occupation numbers 
     1.0000   1.0000   1.0000   1.0000   1.0000   1.0000   1.0000   1.0000
     1.0000   1.0000   1.0000   1.0000   1.0000   1.0000   1.0000   1.0000
     1.0000   1.0000   1.0000   1.0000   1.0000   1.0000   1.0000   1.0000
     1.0000   1.0000   1.0000   1.0000   1.0000   1.0000   1.0000   1.0000
     1.0000   1.0000   1.0000   1.0000   1.0000   1.0000   1.0000   1.0000
     1.0000   1.0000   1.0000   1.0000   1.0000   1.0000   1.0000   1.0000
     1.0000   1.0000   1.0000   1.0000   1.0000   1.0000   1.0000   1.0000
     1.0790   0.0000   0.0000   0.0000   0.0000   0.0000   0.0000   0.0000
     0.0000   0.0000

          k = 0.2505-0.3796-0.0797 ( 20379 PWs)   bands (ev):

  -102.4090 -69.8087 -65.3833 -65.2926 -60.1425 -60.1058 -59.4046 -38.9117
   -38.8323 -38.7897 -29.7192 -29.6308 -29.5991 -29.5629 -29.5096 -29.4884
    -8.8271  -8.1051  -7.8285  -7.7431  -7.5727  -7.3981  -7.1277  -7.0239
     1.7909   2.3738   2.4213   2.5641   3.3517   3.6237   3.7306   3.8578
     4.1720   4.4085   4.7278   4.9830   5.0827   5.3383   5.3907   5.7049
     6.1077   6.2643   6.3914   6.7268   6.8060   6.9143   7.1781   7.3772
     7.4665   7.7036   7.8589   8.0175   8.2501   8.5684   8.7450   9.1012
     9.8208  11.1350  12.1754  12.3969  12.4943  12.8378  13.1694  13.4538
    15.9589  16.2236

     occupation numbers 
     1.0000   1.0000   1.0000   1.0000   1.0000   1.0000   1.0000   1.0000
     1.0000   1.0000   1.0000   1.0000   1.0000   1.0000   1.0000   1.0000
     1.0000   1.0000   1.0000   1.0000   1.0000   1.0000   1.0000   1.0000
     1.0000   1.0000   1.0000   1.0000   1.0000   1.0000   1.0000   1.0000
     1.0000   1.0000   1.0000   1.0000   1.0000   1.0000   1.0000   1.0000
     1.0000   1.0000   1.0000   1.0000   1.0000   1.0000   1.0000   1.0000
     1.0000   1.0000   1.0000   1.0000   1.0000   1.0000   1.0000   1.0000
     1.0801   0.0000   0.0000   0.0000   0.0000   0.0000   0.0000   0.0000
     0.0000   0.0000

          k = 0.2495-0.2305 0.0624 ( 20408 PWs)   bands (ev):

  -102.4090 -69.8087 -65.3834 -65.2926 -60.1425 -60.1058 -59.4046 -38.9117
   -38.8322 -38.7897 -29.7192 -29.6311 -29.6000 -29.5627 -29.5094 -29.4874
    -8.9367  -8.0794  -7.9279  -7.6405  -7.4781  -7.2757  -7.1547  -7.0889
     1.7771   2.3510   2.4222   2.5347   3.3248   3.5722   3.5916   3.8189
     4.0231   4.3721   4.6447   4.8758   5.0632   5.3298   5.5025   5.8476
     6.1366   6.3087   6.5218   6.6209   6.7394   6.9336   7.1589   7.3468
     7.4574   7.8749   8.0133   8.1858   8.4041   8.6381   8.7833   9.1358
     9.9116  11.1827  12.0220  12.2642  12.5595  13.0256  13.3150  13.5186
    15.5229  15.9750

     occupation numbers 
     1.0000   1.0000   1.0000   1.0000   1.0000   1.0000   1.0000   1.0000
     1.0000   1.0000   1.0000   1.0000   1.0000   1.0000   1.0000   1.0000
     1.0000   1.0000   1.0000   1.0000   1.0000   1.0000   1.0000   1.0000
     1.0000   1.0000   1.0000   1.0000   1.0000   1.0000   1.0000   1.0000
     1.0000   1.0000   1.0000   1.0000   1.0000   1.0000   1.0000   1.0000
     1.0000   1.0000   1.0000   1.0000   1.0000   1.0000   1.0000   1.0000
     1.0000   1.0000   1.0000   1.0000   1.0000   1.0000   1.0000   1.0000
     1.0705   0.0000   0.0000   0.0000   0.0000   0.0000   0.0000   0.0000
     0.0000   0.0000

          k = 0.2484-0.2305 0.2080 ( 20404 PWs)   bands (ev):

  -102.4090 -69.8087 -65.3834 -65.2928 -60.1425 -60.1058 -59.4046 -38.9118
   -38.8322 -38.7897 -29.7174 -29.6295 -29.6046 -29.5642 -29.5095 -29.4847
    -8.8162  -8.1657  -7.9939  -7.7026  -7.4575  -7.2374  -7.1587  -7.0534
     1.7846   2.3783   2.4162   2.5140   3.2918   3.4942   3.6949   3.7972
     4.0965   4.3708   4.5662   4.8106   4.9694   5.3846   5.5994   5.9010
     6.0892   6.3232   6.4623   6.5775   6.8088   6.9718   7.1408   7.3553
     7.4713   7.7171   8.0488   8.2624   8.4655   8.6524   8.7868   9.1903
     9.9329  11.1549  11.8741  12.4572  12.6761  13.0659  13.2270  13.3609
    15.3284  15.9763

     occupation numbers 
     1.0000   1.0000   1.0000   1.0000   1.0000   1.0000   1.0000   1.0000
     1.0000   1.0000   1.0000   1.0000   1.0000   1.0000   1.0000   1.0000
     1.0000   1.0000   1.0000   1.0000   1.0000   1.0000   1.0000   1.0000
     1.0000   1.0000   1.0000   1.0000   1.0000   1.0000   1.0000   1.0000
     1.0000   1.0000   1.0000   1.0000   1.0000   1.0000   1.0000   1.0000
     1.0000   1.0000   1.0000   1.0000   1.0000   1.0000   1.0000   1.0000
     1.0000   1.0000   1.0000   1.0000   1.0000   1.0000   1.0000   1.0000
     1.0578   0.0000   0.0000   0.0000   0.0000   0.0000   0.0000   0.0000
     0.0000   0.0000

          k = 0.2473-0.2305 0.3535 ( 20407 PWs)   bands (ev):

  -102.4090 -69.8087 -65.3834 -65.2929 -60.1425 -60.1058 -59.4046 -38.9118
   -38.8322 -38.7897 -29.7164 -29.6273 -29.6092 -29.5650 -29.5089 -29.4831
    -8.6141  -8.3379  -7.9593  -7.7958  -7.5034  -7.2729  -7.0831  -7.0347
     1.7796   2.3946   2.4567   2.5267   3.2031   3.4905   3.6560   3.8118
     4.1605   4.4279   4.6441   4.8114   5.1175   5.3723   5.5992   5.7613
     5.9094   6.2081   6.4364   6.6454   6.7940   6.9230   7.1558   7.4040
     7.5685   7.6832   8.1545   8.2156   8.4437   8.6206   8.8019   9.2846
     9.9168  11.1513  11.9656  12.3868  12.7070  13.0012  13.0922  13.2158
    15.3782  16.1148

     occupation numbers 
     1.0000   1.0000   1.0000   1.0000   1.0000   1.0000   1.0000   1.0000
     1.0000   1.0000   1.0000   1.0000   1.0000   1.0000   1.0000   1.0000
     1.0000   1.0000   1.0000   1.0000   1.0000   1.0000   1.0000   1.0000
     1.0000   1.0000   1.0000   1.0000   1.0000   1.0000   1.0000   1.0000
     1.0000   1.0000   1.0000   1.0000   1.0000   1.0000   1.0000   1.0000
     1.0000   1.0000   1.0000   1.0000   1.0000   1.0000   1.0000   1.0000
     1.0000   1.0000   1.0000   1.0000   1.0000   1.0000   1.0000   1.0001
     1.0678   0.0000   0.0000   0.0000   0.0000   0.0000   0.0000   0.0000
     0.0000   0.0000

          k = 0.2528-0.2304-0.3743 ( 20409 PWs)   bands (ev):

  -102.4090 -69.8087 -65.3834 -65.2928 -60.1425 -60.1058 -59.4046 -38.9118
   -38.8322 -38.7897 -29.7175 -29.6270 -29.6089 -29.5640 -29.5089 -29.4836
    -8.6348  -8.2660  -7.9414  -7.8137  -7.5370  -7.3191  -7.1106  -6.9908
     1.7662   2.4119   2.4865   2.5378   3.2317   3.4659   3.5951   3.9089
     4.0912   4.5386   4.7462   4.8271   5.0026   5.3136   5.5941   5.7745
     5.9897   6.1610   6.3668   6.5315   6.8526   7.0136   7.1838   7.3736
     7.6197   7.6522   8.0938   8.1375   8.4149   8.6439   8.8451   9.2232
     9.9240  11.1699  12.0721  12.2132  12.7423  12.8144  13.1064  13.2378
    15.5896  16.2693

     occupation numbers 
     1.0000   1.0000   1.0000   1.0000   1.0000   1.0000   1.0000   1.0000
     1.0000   1.0000   1.0000   1.0000   1.0000   1.0000   1.0000   1.0000
     1.0000   1.0000   1.0000   1.0000   1.0000   1.0000   1.0000   1.0000
     1.0000   1.0000   1.0000   1.0000   1.0000   1.0000   1.0000   1.0000
     1.0000   1.0000   1.0000   1.0000   1.0000   1.0000   1.0000   1.0000
     1.0000   1.0000   1.0000   1.0000   1.0000   1.0000   1.0000   1.0000
     1.0000   1.0000   1.0000   1.0000   1.0000   1.0000   1.0000   1.0000
     1.0637   0.0000   0.0000   0.0000   0.0000   0.0000   0.0000   0.0000
     0.0000   0.0000

          k = 0.2517-0.2305-0.2287 ( 20399 PWs)   bands (ev):

  -102.4090 -69.8087 -65.3834 -65.2927 -60.1425 -60.1058 -59.4046 -38.9118
   -38.8322 -38.7897 -29.7194 -29.6289 -29.6041 -29.5624 -29.5093 -29.4859
    -8.8236  -8.0488  -7.9389  -7.7194  -7.5579  -7.4058  -7.1303  -6.9854
     1.7585   2.4022   2.4606   2.5587   3.3104   3.4659   3.6191   3.7975
     4.1997   4.4663   4.6959   4.8974   5.0601   5.4055   5.5173   5.5828
     5.9369   6.1753   6.4066   6.7471   6.9796   7.0858   7.1583   7.2552
     7.5690   7.6869   8.0119   8.0675   8.3937   8.6215   8.8970   9.0801
     9.9245  11.1794  11.9407  12.4792  12.6198  12.7747  13.0888  13.3759
    15.8673  16.3230

     occupation numbers 
     1.0000   1.0000   1.0000   1.0000   1.0000   1.0000   1.0000   1.0000
     1.0000   1.0000   1.0000   1.0000   1.0000   1.0000   1.0000   1.0000
     1.0000   1.0000   1.0000   1.0000   1.0000   1.0000   1.0000   1.0000
     1.0000   1.0000   1.0000   1.0000   1.0000   1.0000   1.0000   1.0000
     1.0000   1.0000   1.0000   1.0000   1.0000   1.0000   1.0000   1.0000
     1.0000   1.0000   1.0000   1.0000   1.0000   1.0000   1.0000   1.0000
     1.0000   1.0000   1.0000   1.0000   1.0000   1.0000   1.0000   1.0000
     1.0634   0.0000   0.0000   0.0000   0.0000   0.0000   0.0000   0.0000
     0.0000   0.0000

          k = 0.2506-0.2305-0.0831 ( 20405 PWs)   bands (ev):

  -102.4090 -69.8087 -65.3834 -65.2925 -60.1425 -60.1058 -59.4046 -38.9117
   -38.8323 -38.7897 -29.7203 -29.6308 -29.5997 -29.5618 -29.5092 -29.4881
    -8.9379  -8.0592  -7.8067  -7.6763  -7.5647  -7.3764  -7.1406  -7.0323
     1.7644   2.3601   2.4400   2.5631   3.3175   3.4989   3.6476   3.7627
     4.1243   4.3833   4.7479   4.9776   5.1765   5.2593   5.4768   5.6572
     5.9745   6.2409   6.3672   6.7155   6.8748   7.0726   7.2030   7.2758
     7.5664   7.8629   7.9341   8.1358   8.3298   8.6407   8.8099   9.0867
     9.9022  11.1928  12.0662  12.3606  12.4311  13.0082  13.1140  13.5221
    15.8694  16.2318

     occupation numbers 
     1.0000   1.0000   1.0000   1.0000   1.0000   1.0000   1.0000   1.0000
     1.0000   1.0000   1.0000   1.0000   1.0000   1.0000   1.0000   1.0000
     1.0000   1.0000   1.0000   1.0000   1.0000   1.0000   1.0000   1.0000
     1.0000   1.0000   1.0000   1.0000   1.0000   1.0000   1.0000   1.0000
     1.0000   1.0000   1.0000   1.0000   1.0000   1.0000   1.0000   1.0000
     1.0000   1.0000   1.0000   1.0000   1.0000   1.0000   1.0000   1.0000
     1.0000   1.0000   1.0000   1.0000   1.0000   1.0000   1.0000   1.0000
     1.0746   0.0000   0.0000   0.0000   0.0000   0.0000   0.0000   0.0000
     0.0000   0.0000

          k = 0.2495-0.0814 0.0589 ( 20408 PWs)   bands (ev):

  -102.4090 -69.8087 -65.3835 -65.2925 -60.1425 -60.1058 -59.4046 -38.9117
   -38.8322 -38.7897 -29.7203 -29.6310 -29.6005 -29.5616 -29.5090 -29.4871
    -9.0442  -8.0954  -7.8094  -7.6017  -7.4525  -7.2388  -7.2018  -7.1024
     1.7567   2.3326   2.4070   2.5202   3.2635   3.4060   3.6586   3.7994
     3.9230   4.4108   4.6909   4.7967   4.9940   5.1290   5.5177   5.9505
     6.1964   6.2953   6.4588   6.6693   6.7915   6.9810   7.1082   7.5762
     7.6497   7.8196   8.0463   8.2384   8.4169   8.7023   8.9866   9.1412
     9.9506  11.2147  12.0966  12.2327  12.3937  12.9241  13.4900  13.5787
    15.3519  15.6718

     occupation numbers 
     1.0000   1.0000   1.0000   1.0000   1.0000   1.0000   1.0000   1.0000
     1.0000   1.0000   1.0000   1.0000   1.0000   1.0000   1.0000   1.0000
     1.0000   1.0000   1.0000   1.0000   1.0000   1.0000   1.0000   1.0000
     1.0000   1.0000   1.0000   1.0000   1.0000   1.0000   1.0000   1.0000
     1.0000   1.0000   1.0000   1.0000   1.0000   1.0000   1.0000   1.0000
     1.0000   1.0000   1.0000   1.0000   1.0000   1.0000   1.0000   1.0000
     1.0000   1.0000   1.0000   1.0000   1.0000   1.0000   1.0000   1.0000
     1.0435   0.0000   0.0000   0.0000   0.0000   0.0000   0.0000   0.0000
     0.0000   0.0000

          k = 0.2485-0.0814 0.2045 ( 20382 PWs)   bands (ev):

  -102.4090 -69.8087 -65.3835 -65.2927 -60.1425 -60.1058 -59.4046 -38.9118
   -38.8322 -38.7897 -29.7179 -29.6291 -29.6044 -29.5636 -29.5095 -29.4851
    -8.9172  -8.1257  -7.9714  -7.6642  -7.4571  -7.2814  -7.0996  -7.0326
     1.7643   2.3594   2.3908   2.4936   3.3764   3.4040   3.7063   3.8117
     3.9159   4.2193   4.5471   4.7349   4.9494   5.1855   5.8689   6.0094
     6.1262   6.1824   6.4138   6.5374   6.7547   6.9579   7.0660   7.5241
     7.6797   7.8129   8.2571   8.4190   8.5671   8.7056   8.9071   9.1804
     9.8540  11.1552  12.0491  12.4019  12.5686  12.9594  13.3112  13.4205
    15.2685  15.8038

     occupation numbers 
     1.0000   1.0000   1.0000   1.0000   1.0000   1.0000   1.0000   1.0000
     1.0000   1.0000   1.0000   1.0000   1.0000   1.0000   1.0000   1.0000
     1.0000   1.0000   1.0000   1.0000   1.0000   1.0000   1.0000   1.0000
     1.0000   1.0000   1.0000   1.0000   1.0000   1.0000   1.0000   1.0000
     1.0000   1.0000   1.0000   1.0000   1.0000   1.0000   1.0000   1.0000
     1.0000   1.0000   1.0000   1.0000   1.0000   1.0000   1.0000   1.0000
     1.0000   1.0000   1.0000   1.0000   1.0000   1.0000   1.0000   1.0000
     1.0833   0.0000   0.0000   0.0000   0.0000   0.0000   0.0000   0.0000
     0.0000   0.0000

          k = 0.2474-0.0814 0.3500 ( 20422 PWs)   bands (ev):

  -102.4090 -69.8086 -65.3835 -65.2928 -60.1425 -60.1058 -59.4046 -38.9118
   -38.8322 -38.7897 -29.7158 -29.6268 -29.6086 -29.5653 -29.5095 -29.4838
    -8.6868  -8.3188  -8.0013  -7.7579  -7.4810  -7.3076  -7.0288  -6.9821
     1.7567   2.3607   2.4415   2.4998   3.2639   3.3695   3.7136   3.8460
     4.0054   4.3865   4.4866   4.7816   5.1385   5.2546   5.6428   5.8105
     5.9463   6.1707   6.3510   6.5031   6.7949   6.8642   7.1661   7.4171
     7.8081   7.9065   8.3910   8.4972   8.5358   8.7143   8.8369   9.2314
     9.8030  11.1599  12.1864  12.5151  12.6395  12.9331  13.0187  13.1580
    15.4019  16.0633

     occupation numbers 
     1.0000   1.0000   1.0000   1.0000   1.0000   1.0000   1.0000   1.0000
     1.0000   1.0000   1.0000   1.0000   1.0000   1.0000   1.0000   1.0000
     1.0000   1.0000   1.0000   1.0000   1.0000   1.0000   1.0000   1.0000
     1.0000   1.0000   1.0000   1.0000   1.0000   1.0000   1.0000   1.0000
     1.0000   1.0000   1.0000   1.0000   1.0000   1.0000   1.0000   1.0000
     1.0000   1.0000   1.0000   1.0000   1.0000   1.0000   1.0000   1.0000
     1.0000   1.0000   1.0000   1.0000   1.0000   1.0000   1.0000   1.0000
     1.0762   0.0000   0.0000   0.0000   0.0000   0.0000   0.0000   0.0000
     0.0000   0.0000

          k = 0.2528-0.0813-0.3777 ( 20414 PWs)   bands (ev):

  -102.4090 -69.8086 -65.3835 -65.2928 -60.1425 -60.1058 -59.4046 -38.9118
   -38.8322 -38.7897 -29.7163 -29.6268 -29.6084 -29.5648 -29.5095 -29.4841
    -8.6658  -8.3146  -7.9721  -7.7978  -7.4856  -7.3296  -7.0266  -6.9847
     1.7399   2.3910   2.4753   2.4983   3.2028   3.3146   3.6811   3.8447
     4.1883   4.4955   4.6471   4.8581   4.9917   5.2093   5.4162   5.7705
     5.9729   6.2362   6.3856   6.6001   6.7460   6.9326   7.1152   7.3073
     7.8017   7.9657   8.2659   8.3674   8.4850   8.7506   8.8469   9.2103
     9.8832  11.2066  12.2712  12.3891  12.6399  12.8756  13.0304  13.0751
    15.6761  16.2579

     occupation numbers 
     1.0000   1.0000   1.0000   1.0000   1.0000   1.0000   1.0000   1.0000
     1.0000   1.0000   1.0000   1.0000   1.0000   1.0000   1.0000   1.0000
     1.0000   1.0000   1.0000   1.0000   1.0000   1.0000   1.0000   1.0000
     1.0000   1.0000   1.0000   1.0000   1.0000   1.0000   1.0000   1.0000
     1.0000   1.0000   1.0000   1.0000   1.0000   1.0000   1.0000   1.0000
     1.0000   1.0000   1.0000   1.0000   1.0000   1.0000   1.0000   1.0000
     1.0000   1.0000   1.0000   1.0000   1.0000   1.0000   1.0000   1.0000
     1.0803   0.0000   0.0000   0.0000   0.0000   0.0000   0.0000   0.0000
     0.0000   0.0000

          k = 0.2517-0.0813-0.2322 ( 20420 PWs)   bands (ev):

  -102.4090 -69.8087 -65.3835 -65.2926 -60.1425 -60.1058 -59.4046 -38.9118
   -38.8322 -38.7897 -29.7189 -29.6290 -29.6042 -29.5627 -29.5095 -29.4857
    -8.8962  -8.0257  -7.9940  -7.7024  -7.4848  -7.3743  -7.0815  -7.0151
     1.7319   2.3976   2.4529   2.5282   3.1616   3.2913   3.7106   3.8672
     4.1759   4.5095   4.6862   4.8409   4.9308   5.3136   5.4175   5.7841
     5.9157   6.2397   6.4484   6.7132   6.8682   6.9834   7.1669   7.3240
     7.6905   7.8316   8.1141   8.1794   8.4863   8.6755   8.9192   9.1282
    10.0062  11.2213  11.9867  12.5229  12.6826  12.7920  13.0036  13.3575
    15.8925  16.2885

     occupation numbers 
     1.0000   1.0000   1.0000   1.0000   1.0000   1.0000   1.0000   1.0000
     1.0000   1.0000   1.0000   1.0000   1.0000   1.0000   1.0000   1.0000
     1.0000   1.0000   1.0000   1.0000   1.0000   1.0000   1.0000   1.0000
     1.0000   1.0000   1.0000   1.0000   1.0000   1.0000   1.0000   1.0000
     1.0000   1.0000   1.0000   1.0000   1.0000   1.0000   1.0000   1.0000
     1.0000   1.0000   1.0000   1.0000   1.0000   1.0000   1.0000   1.0000
     1.0000   1.0000   1.0000   1.0000   1.0000   1.0000   1.0000   1.0000
     0.9735   0.0000   0.0000   0.0000   0.0000   0.0000   0.0000   0.0000
     0.0000   0.0000

          k = 0.2506-0.0814-0.0866 ( 20419 PWs)   bands (ev):

  -102.4090 -69.8087 -65.3835 -65.2925 -60.1425 -60.1058 -59.4046 -38.9117
   -38.8322 -38.7897 -29.7208 -29.6309 -29.6004 -29.5612 -29.5089 -29.4875
    -9.0361  -8.0672  -7.7679  -7.6181  -7.4881  -7.3596  -7.1506  -7.0709
     1.7410   2.3421   2.4428   2.5487   3.1732   3.3000   3.6753   3.7896
     4.1990   4.4303   4.6266   4.9312   5.1690   5.2369   5.3701   5.6986
     6.0637   6.2421   6.3865   6.6663   6.9153   7.0564   7.2474   7.5478
     7.5821   7.8290   7.9975   8.1751   8.3013   8.7074   8.9754   9.0954
    10.0291  11.2449  11.9634  12.3539  12.4626  12.8809  13.2929  13.5508
    15.6496  15.9993

     occupation numbers 
     1.0000   1.0000   1.0000   1.0000   1.0000   1.0000   1.0000   1.0000
     1.0000   1.0000   1.0000   1.0000   1.0000   1.0000   1.0000   1.0000
     1.0000   1.0000   1.0000   1.0000   1.0000   1.0000   1.0000   1.0000
     1.0000   1.0000   1.0000   1.0000   1.0000   1.0000   1.0000   1.0000
     1.0000   1.0000   1.0000   1.0000   1.0000   1.0000   1.0000   1.0000
     1.0000   1.0000   1.0000   1.0000   1.0000   1.0000   1.0000   1.0000
     1.0000   1.0000   1.0000   1.0000   1.0000   1.0000   1.0000   1.0000
     0.9339   0.0000   0.0000   0.0000   0.0000   0.0000   0.0000   0.0000
     0.0000   0.0000

          k = 0.4164 0.0632 0.0450 ( 20397 PWs)   bands (ev):

  -102.4090 -69.8087 -65.3833 -65.2924 -60.1425 -60.1058 -59.4046 -38.9118
   -38.8322 -38.7897 -29.7212 -29.6312 -29.6005 -29.5615 -29.5092 -29.4878
    -8.9094  -8.0828  -7.7515  -7.6614  -7.5048  -7.4024  -7.2045  -7.0829
     1.7259   2.3814   2.4798   2.6033   3.2947   3.5292   3.6738   3.7183
     4.1543   4.2911   4.4979   4.7407   4.9788   5.1601   5.5422   5.9543
     6.1065   6.2470   6.4745   6.6570   6.9120   7.0297   7.1346   7.3384
     7.6497   7.7195   8.0524   8.1708   8.4497   8.7851   8.9771   9.2632
     9.9731  11.1681  12.0115  12.2823  12.3533  12.9762  13.2992  13.6529
    15.7077  16.1141

     occupation numbers 
     1.0000   1.0000   1.0000   1.0000   1.0000   1.0000   1.0000   1.0000
     1.0000   1.0000   1.0000   1.0000   1.0000   1.0000   1.0000   1.0000
     1.0000   1.0000   1.0000   1.0000   1.0000   1.0000   1.0000   1.0000
     1.0000   1.0000   1.0000   1.0000   1.0000   1.0000   1.0000   1.0000
     1.0000   1.0000   1.0000   1.0000   1.0000   1.0000   1.0000   1.0000
     1.0000   1.0000   1.0000   1.0000   1.0000   1.0000   1.0000   1.0000
     1.0000   1.0000   1.0000   1.0000   1.0000   1.0000   1.0000   1.0001
     1.0198   0.0000   0.0000   0.0000   0.0000   0.0000   0.0000   0.0000
     0.0000   0.0000

          k = 0.4153 0.0632 0.1906 ( 20393 PWs)   bands (ev):

  -102.4090 -69.8087 -65.3834 -65.2928 -60.1425 -60.1058 -59.4046 -38.9118
   -38.8322 -38.7897 -29.7192 -29.6291 -29.6043 -29.5630 -29.5095 -29.4860
    -8.8071  -8.0894  -7.9086  -7.6410  -7.5858  -7.4519  -7.1104  -6.9997
     1.7423   2.3859   2.4755   2.5986   3.2683   3.5628   3.7672   3.8840
     3.9884   4.0763   4.5317   4.5847   5.0437   5.2562   5.5695   5.8003
     6.1059   6.2180   6.4238   6.5838   6.8564   7.0644   7.1627   7.4891
     7.6368   7.8561   8.0908   8.2507   8.6368   8.7961   8.9140   9.1942
     9.9038  11.0460  12.0542  12.4733  12.6141  12.9393  13.2658  13.4762
    15.5224  16.1777

     occupation numbers 
     1.0000   1.0000   1.0000   1.0000   1.0000   1.0000   1.0000   1.0000
     1.0000   1.0000   1.0000   1.0000   1.0000   1.0000   1.0000   1.0000
     1.0000   1.0000   1.0000   1.0000   1.0000   1.0000   1.0000   1.0000
     1.0000   1.0000   1.0000   1.0000   1.0000   1.0000   1.0000   1.0000
     1.0000   1.0000   1.0000   1.0000   1.0000   1.0000   1.0000   1.0000
     1.0000   1.0000   1.0000   1.0000   1.0000   1.0000   1.0000   1.0000
     1.0000   1.0000   1.0000   1.0000   1.0000   1.0000   1.0000   1.0000
     1.0740   0.0000   0.0000   0.0000   0.0000   0.0000   0.0000   0.0000
     0.0000   0.0000

          k = 0.4142 0.0632 0.3361 ( 20401 PWs)   bands (ev):

  -102.4090 -69.8086 -65.3835 -65.2931 -60.1425 -60.1058 -59.4046 -38.9118
   -38.8322 -38.7898 -29.7165 -29.6268 -29.6086 -29.5651 -29.5095 -29.4844
    -8.6186  -8.1689  -8.0641  -7.7344  -7.5686  -7.4404  -7.0561  -6.9427
     1.7508   2.4067   2.4895   2.6190   3.2712   3.4692   3.6342   3.7518
     4.0894   4.2543   4.5422   4.7118   5.1519   5.3592   5.4938   5.6826
     5.9554   6.1674   6.3842   6.4836   6.6337   6.8528   7.1613   7.6154
     7.8066   8.0970   8.1865   8.4365   8.6423   8.8201   8.8704   9.1595
     9.7771  10.9822  12.3435  12.5690  12.8160  12.9695  13.0183  13.1852
    15.5611  15.8869

     occupation numbers 
     1.0000   1.0000   1.0000   1.0000   1.0000   1.0000   1.0000   1.0000
     1.0000   1.0000   1.0000   1.0000   1.0000   1.0000   1.0000   1.0000
     1.0000   1.0000   1.0000   1.0000   1.0000   1.0000   1.0000   1.0000
     1.0000   1.0000   1.0000   1.0000   1.0000   1.0000   1.0000   1.0000
     1.0000   1.0000   1.0000   1.0000   1.0000   1.0000   1.0000   1.0000
     1.0000   1.0000   1.0000   1.0000   1.0000   1.0000   1.0000   1.0000
     1.0000   1.0000   1.0000   1.0000   1.0000   1.0000   1.0000   1.0000
     1.0689   0.0000   0.0000   0.0000   0.0000   0.0000   0.0000   0.0000
     0.0000   0.0000

          k = 0.4196 0.0632-0.3916 ( 20409 PWs)   bands (ev):

  -102.4090 -69.8086 -65.3835 -65.2931 -60.1425 -60.1058 -59.4046 -38.9118
   -38.8322 -38.7898 -29.7159 -29.6271 -29.6087 -29.5656 -29.5097 -29.4841
    -8.5654  -8.2379  -8.0272  -7.8041  -7.5293  -7.4247  -7.0628  -6.9488
     1.7428   2.4263   2.5024   2.6113   3.2759   3.3732   3.6317   3.7519
     4.1946   4.3902   4.5385   4.7785   5.1276   5.2518   5.4826   5.6979
     5.8818   6.0715   6.4663   6.5581   6.6414   6.7984   7.1948   7.4679
     7.8050   8.0768   8.2751   8.4672   8.6267   8.7697   8.8488   9.1827
     9.7372  11.0324  12.3181  12.6721  12.8258  12.8609  12.9953  13.1592
    15.6675  15.9841

     occupation numbers 
     1.0000   1.0000   1.0000   1.0000   1.0000   1.0000   1.0000   1.0000
     1.0000   1.0000   1.0000   1.0000   1.0000   1.0000   1.0000   1.0000
     1.0000   1.0000   1.0000   1.0000   1.0000   1.0000   1.0000   1.0000
     1.0000   1.0000   1.0000   1.0000   1.0000   1.0000   1.0000   1.0000
     1.0000   1.0000   1.0000   1.0000   1.0000   1.0000   1.0000   1.0000
     1.0000   1.0000   1.0000   1.0000   1.0000   1.0000   1.0000   1.0000
     1.0000   1.0000   1.0000   1.0000   1.0000   1.0000   1.0000   1.0000
     1.0555   0.0000   0.0000   0.0000   0.0000   0.0000   0.0000   0.0000
     0.0000   0.0000

          k = 0.4185 0.0632-0.2461 ( 20409 PWs)   bands (ev):

  -102.4090 -69.8087 -65.3834 -65.2927 -60.1425 -60.1058 -59.4046 -38.9118
   -38.8322 -38.7897 -29.7180 -29.6296 -29.6046 -29.5639 -29.5099 -29.4853
    -8.7614  -8.0302  -7.9939  -7.7774  -7.5083  -7.4004  -7.1209  -7.0139
     1.7256   2.4221   2.5060   2.5933   3.2467   3.3491   3.7947   3.8796
     4.0577   4.3660   4.5640   4.7810   5.0544   5.2117   5.5781   5.7338
     5.7914   6.0878   6.5134   6.6049   6.8748   7.0534   7.2524   7.2828
     7.6205   7.9169   8.1306   8.3462   8.5930   8.7208   8.8803   9.1889
     9.8395  11.1174  12.0350  12.5552  12.7916  12.8564  12.9979  13.4507
    15.7444  16.4194

     occupation numbers 
     1.0000   1.0000   1.0000   1.0000   1.0000   1.0000   1.0000   1.0000
     1.0000   1.0000   1.0000   1.0000   1.0000   1.0000   1.0000   1.0000
     1.0000   1.0000   1.0000   1.0000   1.0000   1.0000   1.0000   1.0000
     1.0000   1.0000   1.0000   1.0000   1.0000   1.0000   1.0000   1.0000
     1.0000   1.0000   1.0000   1.0000   1.0000   1.0000   1.0000   1.0000
     1.0000   1.0000   1.0000   1.0000   1.0000   1.0000   1.0000   1.0000
     1.0000   1.0000   1.0000   1.0000   1.0000   1.0000   1.0000   1.0000
     1.0826   0.0000   0.0000   0.0000   0.0000   0.0000   0.0000   0.0000
     0.0000   0.0000

          k = 0.4174 0.0632-0.1005 ( 20406 PWs)   bands (ev):

  -102.4090 -69.8087 -65.3833 -65.2924 -60.1425 -60.1058 -59.4046 -38.9118
   -38.8322 -38.7897 -29.7206 -29.6315 -29.6007 -29.5619 -29.5094 -29.4874
    -8.8932  -8.0561  -7.8141  -7.6693  -7.5271  -7.3345  -7.2201  -7.0916
     1.7173   2.3960   2.4966   2.6078   3.2892   3.3738   3.6772   3.8130
     4.2020   4.3158   4.6066   4.7288   5.0412   5.2160   5.6640   5.7100
     5.9883   6.2157   6.4755   6.6069   6.7984   7.0241   7.2448   7.3898
     7.6222   7.7849   8.0683   8.2269   8.3727   8.7610   8.9703   9.2380
     9.9464  11.1929  11.9707  12.3041  12.4566  13.0311  13.1048  13.6418
    15.8137  16.3453

     occupation numbers 
     1.0000   1.0000   1.0000   1.0000   1.0000   1.0000   1.0000   1.0000
     1.0000   1.0000   1.0000   1.0000   1.0000   1.0000   1.0000   1.0000
     1.0000   1.0000   1.0000   1.0000   1.0000   1.0000   1.0000   1.0000
     1.0000   1.0000   1.0000   1.0000   1.0000   1.0000   1.0000   1.0000
     1.0000   1.0000   1.0000   1.0000   1.0000   1.0000   1.0000   1.0000
     1.0000   1.0000   1.0000   1.0000   1.0000   1.0000   1.0000   1.0000
     1.0000   1.0000   1.0000   1.0000   1.0000   1.0000   1.0000   1.0000
     1.0472   0.0000   0.0000   0.0000   0.0000   0.0000   0.0000   0.0000
     0.0000   0.0000

          k = 0.4164 0.2123 0.0415 ( 20372 PWs)   bands (ev):

  -102.4090 -69.8087 -65.3833 -65.2926 -60.1425 -60.1058 -59.4046 -38.9118
   -38.8323 -38.7898 -29.7205 -29.6310 -29.5997 -29.5621 -29.5094 -29.4884
    -8.8598  -8.0781  -7.8744  -7.5639  -7.4834  -7.4383  -7.2181  -7.1011
     1.7564   2.3520   2.4706   2.5592   3.1761   3.5382   3.7705   3.9358
     4.1399   4.2890   4.6830   4.8141   5.0568   5.2267   5.6430   5.8886
     6.0909   6.3390   6.4094   6.7237   6.8294   6.9373   7.1253   7.2656
     7.5162   7.7980   7.9759   8.0585   8.3395   8.7303   8.9634   9.0633
     9.7826  11.0513  12.0444  12.3728  12.4593  12.9937  13.1684  13.5935
    15.6856  16.0875

     occupation numbers 
     1.0000   1.0000   1.0000   1.0000   1.0000   1.0000   1.0000   1.0000
     1.0000   1.0000   1.0000   1.0000   1.0000   1.0000   1.0000   1.0000
     1.0000   1.0000   1.0000   1.0000   1.0000   1.0000   1.0000   1.0000
     1.0000   1.0000   1.0000   1.0000   1.0000   1.0000   1.0000   1.0000
     1.0000   1.0000   1.0000   1.0000   1.0000   1.0000   1.0000   1.0000
     1.0000   1.0000   1.0000   1.0000   1.0000   1.0000   1.0000   1.0000
     1.0000   1.0000   1.0000   1.0000   1.0000   1.0000   1.0000   1.0000
     1.0706   0.0000   0.0000   0.0000   0.0000   0.0000   0.0000   0.0000
     0.0000   0.0000

          k = 0.4153 0.2123 0.1871 ( 20379 PWs)   bands (ev):

  -102.4090 -69.8087 -65.3833 -65.2930 -60.1425 -60.1058 -59.4046 -38.9118
   -38.8322 -38.7898 -29.7197 -29.6289 -29.6041 -29.5627 -29.5093 -29.4862
    -8.7825  -8.1246  -7.9179  -7.5845  -7.5513  -7.4481  -7.1594  -7.0409
     1.7749   2.3540   2.4799   2.5429   3.1697   3.6350   3.7601   3.8606
     4.0245   4.1797   4.6512   4.8375   5.1096   5.3251   5.5195   5.8287
     6.1484   6.3208   6.4984   6.7169   6.8670   6.9775   7.1045   7.4197
     7.5089   7.7026   7.9121   8.1584   8.4377   8.7228   8.9406   9.0436
     9.7904  11.0113  11.9270  12.5064  12.6164  13.0189  13.2066  13.4690
    15.4250  16.2038

     occupation numbers 
     1.0000   1.0000   1.0000   1.0000   1.0000   1.0000   1.0000   1.0000
     1.0000   1.0000   1.0000   1.0000   1.0000   1.0000   1.0000   1.0000
     1.0000   1.0000   1.0000   1.0000   1.0000   1.0000   1.0000   1.0000
     1.0000   1.0000   1.0000   1.0000   1.0000   1.0000   1.0000   1.0000
     1.0000   1.0000   1.0000   1.0000   1.0000   1.0000   1.0000   1.0000
     1.0000   1.0000   1.0000   1.0000   1.0000   1.0000   1.0000   1.0000
     1.0000   1.0000   1.0000   1.0000   1.0000   1.0000   1.0000   1.0000
     1.0728   0.0000   0.0000   0.0000   0.0000   0.0000   0.0000   0.0000
     0.0000   0.0000

          k = 0.4142 0.2123 0.3326 ( 20384 PWs)   bands (ev):

  -102.4090 -69.8087 -65.3834 -65.2933 -60.1425 -60.1058 -59.4046 -38.9118
   -38.8322 -38.7898 -29.7176 -29.6269 -29.6090 -29.5643 -29.5089 -29.4839
    -8.6335  -8.1787  -8.0625  -7.6839  -7.5132  -7.4120  -7.0983  -7.0255
     1.7865   2.3687   2.4893   2.5627   3.1920   3.5838   3.6235   3.7749
     3.9857   4.3955   4.5870   4.8738   5.1904   5.3569   5.5351   5.8983
     6.0196   6.3327   6.4201   6.6116   6.6858   6.9153   7.0674   7.5119
     7.6649   7.8786   7.9987   8.1994   8.4697   8.7083   8.9013   9.0483
     9.7083  10.9839  12.0910  12.3806  12.7530  13.0643  13.1794  13.2822
    15.4336  15.8206

     occupation numbers 
     1.0000   1.0000   1.0000   1.0000   1.0000   1.0000   1.0000   1.0000
     1.0000   1.0000   1.0000   1.0000   1.0000   1.0000   1.0000   1.0000
     1.0000   1.0000   1.0000   1.0000   1.0000   1.0000   1.0000   1.0000
     1.0000   1.0000   1.0000   1.0000   1.0000   1.0000   1.0000   1.0000
     1.0000   1.0000   1.0000   1.0000   1.0000   1.0000   1.0000   1.0000
     1.0000   1.0000   1.0000   1.0000   1.0000   1.0000   1.0000   1.0000
     1.0000   1.0000   1.0000   1.0000   1.0000   1.0000   1.0000   1.0000
     1.0457   0.0000   0.0000   0.0000   0.0000   0.0000   0.0000   0.0000
     0.0000   0.0000

          k = 0.4197 0.2123-0.3951 ( 20397 PWs)   bands (ev):

  -102.4090 -69.8087 -65.3834 -65.2932 -60.1425 -60.1058 -59.4046 -38.9118
   -38.8322 -38.7898 -29.7165 -29.6273 -29.6093 -29.5651 -29.5091 -29.4833
    -8.5665  -8.2324  -8.0836  -7.7342  -7.4719  -7.3746  -7.1345  -7.0163
     1.7794   2.3877   2.4973   2.5545   3.2468   3.4275   3.6752   3.8003
     4.0841   4.4701   4.5530   4.8295   5.1556   5.3760   5.6086   5.8543
     5.9582   6.2280   6.4924   6.6086   6.7080   6.8847   7.0601   7.4580
     7.6966   7.8869   8.0813   8.2426   8.4150   8.7214   8.7943   9.0595
     9.6996  10.9886  12.0754  12.4379  12.8121  12.9740  13.0968  13.3014
    15.4966  15.8627

     occupation numbers 
     1.0000   1.0000   1.0000   1.0000   1.0000   1.0000   1.0000   1.0000
     1.0000   1.0000   1.0000   1.0000   1.0000   1.0000   1.0000   1.0000
     1.0000   1.0000   1.0000   1.0000   1.0000   1.0000   1.0000   1.0000
     1.0000   1.0000   1.0000   1.0000   1.0000   1.0000   1.0000   1.0000
     1.0000   1.0000   1.0000   1.0000   1.0000   1.0000   1.0000   1.0000
     1.0000   1.0000   1.0000   1.0000   1.0000   1.0000   1.0000   1.0000
     1.0000   1.0000   1.0000   1.0000   1.0000   1.0000   1.0000   1.0000
     1.0428   0.0000   0.0000   0.0000   0.0000   0.0000   0.0000   0.0000
     0.0000   0.0000

          k = 0.4186 0.2123-0.2496 ( 20389 PWs)   bands (ev):

  -102.4090 -69.8087 -65.3834 -65.2929 -60.1425 -60.1058 -59.4046 -38.9118
   -38.8322 -38.7898 -29.7175 -29.6297 -29.6047 -29.5644 -29.5099 -29.4848
    -8.7130  -8.0822  -8.0403  -7.7401  -7.4481  -7.3372  -7.2144  -7.0467
     1.7603   2.3880   2.4912   2.5439   3.1908   3.4713   3.8044   3.9397
     4.1102   4.3087   4.6421   4.9091   5.0768   5.2913   5.5490   5.8525
     5.8782   6.1960   6.4585   6.7187   6.8686   7.0235   7.1803   7.4047
     7.5583   7.7479   7.9748   8.2017   8.3276   8.7039   8.8499   9.0530
     9.7410  11.0001  11.9749  12.5645  12.7148  12.9453  13.0142  13.4384
    15.5251  16.2944

     occupation numbers 
     1.0000   1.0000   1.0000   1.0000   1.0000   1.0000   1.0000   1.0000
     1.0000   1.0000   1.0000   1.0000   1.0000   1.0000   1.0000   1.0000
     1.0000   1.0000   1.0000   1.0000   1.0000   1.0000   1.0000   1.0000
     1.0000   1.0000   1.0000   1.0000   1.0000   1.0000   1.0000   1.0000
     1.0000   1.0000   1.0000   1.0000   1.0000   1.0000   1.0000   1.0000
     1.0000   1.0000   1.0000   1.0000   1.0000   1.0000   1.0000   1.0000
     1.0000   1.0000   1.0000   1.0000   1.0000   1.0000   1.0000   1.0000
     1.0568   0.0000   0.0000   0.0000   0.0000   0.0000   0.0000   0.0000
     0.0000   0.0000

          k = 0.4175 0.2123-0.1040 ( 20392 PWs)   bands (ev):

  -102.4090 -69.8087 -65.3833 -65.2926 -60.1425 -60.1058 -59.4046 -38.9118
   -38.8323 -38.7898 -29.7195 -29.6314 -29.6000 -29.5629 -29.5098 -29.4876
    -8.8346  -8.0462  -7.9264  -7.6708  -7.4521  -7.3423  -7.2315  -7.1197
     1.7489   2.3656   2.4733   2.5699   3.1736   3.4712   3.8192   3.9254
     4.2401   4.3316   4.6239   4.8998   5.0313   5.3117   5.5997   5.8026
     5.9736   6.2579   6.4269   6.6241   6.8287   7.0368   7.2181   7.2851
     7.5210   7.8579   7.9385   8.1302   8.2431   8.7157   8.9594   9.0377
     9.7493  11.0434  12.0798  12.3145  12.6217  12.9616  13.0229  13.5874
    15.6942  16.2952

     occupation numbers 
     1.0000   1.0000   1.0000   1.0000   1.0000   1.0000   1.0000   1.0000
     1.0000   1.0000   1.0000   1.0000   1.0000   1.0000   1.0000   1.0000
     1.0000   1.0000   1.0000   1.0000   1.0000   1.0000   1.0000   1.0000
     1.0000   1.0000   1.0000   1.0000   1.0000   1.0000   1.0000   1.0000
     1.0000   1.0000   1.0000   1.0000   1.0000   1.0000   1.0000   1.0000
     1.0000   1.0000   1.0000   1.0000   1.0000   1.0000   1.0000   1.0000
     1.0000   1.0000   1.0000   1.0000   1.0000   1.0000   1.0000   1.0000
     1.0597   0.0000   0.0000   0.0000   0.0000   0.0000   0.0000   0.0000
     0.0000   0.0000

          k = 0.4165 0.3614 0.0380 ( 20356 PWs)   bands (ev):

  -102.4090 -69.8087 -65.3832 -65.2928 -60.1425 -60.1058 -59.4046 -38.9118
   -38.8323 -38.7898 -29.7193 -29.6310 -29.5990 -29.5631 -29.5098 -29.4886
    -8.7825  -8.0637  -7.9809  -7.6032  -7.4787  -7.4055  -7.2066  -7.1143
     1.7903   2.3314   2.4200   2.5537   3.0848   3.5669   3.7807   4.0943
     4.2350   4.5099   4.7232   4.9840   5.0592   5.3344   5.6909   5.7590
     6.0904   6.1668   6.3438   6.7044   6.7970   6.9547   7.2200   7.3079
     7.5373   7.6399   7.8249   8.1031   8.1767   8.6377   8.8370   8.9962
     9.5712  10.9691  12.0752  12.4470  12.6257  12.9676  13.1287  13.4623
    15.3999  16.3823

     occupation numbers 
     1.0000   1.0000   1.0000   1.0000   1.0000   1.0000   1.0000   1.0000
     1.0000   1.0000   1.0000   1.0000   1.0000   1.0000   1.0000   1.0000
     1.0000   1.0000   1.0000   1.0000   1.0000   1.0000   1.0000   1.0000
     1.0000   1.0000   1.0000   1.0000   1.0000   1.0000   1.0000   1.0000
     1.0000   1.0000   1.0000   1.0000   1.0000   1.0000   1.0000   1.0000
     1.0000   1.0000   1.0000   1.0000   1.0000   1.0000   1.0000   1.0000
     1.0000   1.0000   1.0000   1.0000   1.0000   1.0000   1.0000   1.0000
     1.0121   0.0000   0.0000   0.0000   0.0000   0.0000   0.0000   0.0000
     0.0000   0.0000

          k = 0.4154 0.3614 0.1836 ( 20375 PWs)   bands (ev):

  -102.4090 -69.8087 -65.3833 -65.2931 -60.1425 -60.1058 -59.4046 -38.9118
   -38.8322 -38.7898 -29.7191 -29.6290 -29.6043 -29.5632 -29.5093 -29.4856
    -8.7229  -8.1633  -7.9592  -7.6222  -7.4697  -7.3959  -7.2239  -7.0689
     1.8109   2.3349   2.4442   2.5186   3.0995   3.5319   3.7473   3.9391
     4.1605   4.4156   4.8620   5.0620   5.1454   5.2659   5.4754   5.7692
     6.2431   6.4178   6.4810   6.7313   6.7569   6.8994   7.2111   7.3127
     7.5779   7.6697   7.7821   7.9800   8.1448   8.5912   8.8632   8.9939
     9.6901  10.9682  11.8271  12.5199  12.7061  13.0854  13.1438  13.4427
    15.1768  16.2207

     occupation numbers 
     1.0000   1.0000   1.0000   1.0000   1.0000   1.0000   1.0000   1.0000
     1.0000   1.0000   1.0000   1.0000   1.0000   1.0000   1.0000   1.0000
     1.0000   1.0000   1.0000   1.0000   1.0000   1.0000   1.0000   1.0000
     1.0000   1.0000   1.0000   1.0000   1.0000   1.0000   1.0000   1.0000
     1.0000   1.0000   1.0000   1.0000   1.0000   1.0000   1.0000   1.0000
     1.0000   1.0000   1.0000   1.0000   1.0000   1.0000   1.0000   1.0000
     1.0000   1.0000   1.0000   1.0000   1.0000   1.0000   1.0000   1.0000
     1.0397   0.0000   0.0000   0.0000   0.0000   0.0000   0.0000   0.0000
     0.0000   0.0000

          k = 0.4143 0.3614 0.3291 ( 20391 PWs)   bands (ev):

  -102.4090 -69.8087 -65.3834 -65.2934 -60.1425 -60.1058 -59.4046 -38.9118
   -38.8322 -38.7898 -29.7182 -29.6273 -29.6096 -29.5639 -29.5083 -29.4831
    -8.6164  -8.2431  -8.0014  -7.6733  -7.4714  -7.3679  -7.1695  -7.0795
     1.8244   2.3529   2.4633   2.5164   3.1815   3.4650   3.5905   3.8458
     4.0588   4.6628   4.7788   4.9601   5.1950   5.3347   5.4941   5.8921
     6.2161   6.2596   6.5829   6.7025   6.7949   6.9119   7.2288   7.4272
     7.5761   7.6516   7.8735   7.9318   8.1394   8.5441   8.8463   9.0133
     9.6516  10.9791  11.9177  12.2835  12.7059  13.0374  13.2929  13.4005
    15.2148  15.8042

     occupation numbers 
     1.0000   1.0000   1.0000   1.0000   1.0000   1.0000   1.0000   1.0000
     1.0000   1.0000   1.0000   1.0000   1.0000   1.0000   1.0000   1.0000
     1.0000   1.0000   1.0000   1.0000   1.0000   1.0000   1.0000   1.0000
     1.0000   1.0000   1.0000   1.0000   1.0000   1.0000   1.0000   1.0000
     1.0000   1.0000   1.0000   1.0000   1.0000   1.0000   1.0000   1.0000
     1.0000   1.0000   1.0000   1.0000   1.0000   1.0000   1.0000   1.0000
     1.0000   1.0000   1.0000   1.0000   1.0000   1.0000   1.0000   1.0000
     1.0284   0.0000   0.0000   0.0000   0.0000   0.0000   0.0000   0.0000
     0.0000   0.0000

          k = 0.4197 0.3615-0.3986 ( 20397 PWs)   bands (ev):

  -102.4090 -69.8087 -65.3834 -65.2934 -60.1425 -60.1058 -59.4046 -38.9118
   -38.8322 -38.7897 -29.7176 -29.6275 -29.6097 -29.5643 -29.5084 -29.4828
    -8.5799  -8.2432  -8.0409  -7.6800  -7.4610  -7.3658  -7.2027  -7.0555
     1.8172   2.3588   2.4684   2.5272   3.2467   3.4510   3.6000   3.8570
     4.0834   4.5744   4.7113   4.8767   5.2154   5.4368   5.6048   5.9469
     6.0571   6.3517   6.5405   6.6266   6.7492   6.9982   7.1100   7.3890
     7.6230   7.7214   7.8850   8.0133   8.1717   8.6179   8.7931   8.8723
     9.6403  10.9870  11.9184  12.2426  12.8177  12.9393  13.1827  13.4424
    15.3769  15.7373

     occupation numbers 
     1.0000   1.0000   1.0000   1.0000   1.0000   1.0000   1.0000   1.0000
     1.0000   1.0000   1.0000   1.0000   1.0000   1.0000   1.0000   1.0000
     1.0000   1.0000   1.0000   1.0000   1.0000   1.0000   1.0000   1.0000
     1.0000   1.0000   1.0000   1.0000   1.0000   1.0000   1.0000   1.0000
     1.0000   1.0000   1.0000   1.0000   1.0000   1.0000   1.0000   1.0000
     1.0000   1.0000   1.0000   1.0000   1.0000   1.0000   1.0000   1.0000
     1.0000   1.0000   1.0000   1.0000   1.0000   1.0000   1.0000   1.0000
     1.0255   0.0000   0.0000   0.0000   0.0000   0.0000   0.0000   0.0000
     0.0000   0.0000

          k = 0.4186 0.3614-0.2531 ( 20387 PWs)   bands (ev):

  -102.4090 -69.8087 -65.3833 -65.2931 -60.1425 -60.1058 -59.4046 -38.9118
   -38.8322 -38.7898 -29.7180 -29.6294 -29.6046 -29.5641 -29.5097 -29.4849
    -8.6748  -8.1423  -8.0062  -7.6578  -7.5029  -7.3791  -7.2237  -7.0517
     1.7968   2.3477   2.4477   2.5432   3.1622   3.5360   3.8679   3.9329
     4.2220   4.2847   4.7789   4.9066   5.1438   5.3458   5.5376   5.9498
     6.0442   6.2994   6.4952   6.6754   6.8376   6.9231   7.1450   7.4256
     7.5572   7.6049   7.9028   8.0581   8.1623   8.6806   8.7956   8.8580
     9.5821  10.9760  11.9080  12.4705  12.6834  12.9244  13.1863  13.3796
    15.4160  16.1527

     occupation numbers 
     1.0000   1.0000   1.0000   1.0000   1.0000   1.0000   1.0000   1.0000
     1.0000   1.0000   1.0000   1.0000   1.0000   1.0000   1.0000   1.0000
     1.0000   1.0000   1.0000   1.0000   1.0000   1.0000   1.0000   1.0000
     1.0000   1.0000   1.0000   1.0000   1.0000   1.0000   1.0000   1.0000
     1.0000   1.0000   1.0000   1.0000   1.0000   1.0000   1.0000   1.0000
     1.0000   1.0000   1.0000   1.0000   1.0000   1.0000   1.0000   1.0000
     1.0000   1.0000   1.0000   1.0000   1.0000   1.0000   1.0000   1.0000
     1.0137   0.0000   0.0000   0.0000   0.0000   0.0000   0.0000   0.0000
     0.0000   0.0000

          k = 0.4176 0.3614-0.1075 ( 20360 PWs)   bands (ev):

  -102.4090 -69.8087 -65.3832 -65.2928 -60.1425 -60.1058 -59.4046 -38.9118
   -38.8323 -38.7898 -29.7188 -29.6312 -29.5992 -29.5636 -29.5101 -29.4882
    -8.7635  -8.0691  -7.9552  -7.6595  -7.5185  -7.3693  -7.1960  -7.1105
     1.7834   2.3397   2.4169   2.5673   3.1087   3.5609   3.8133   4.1067
     4.3496   4.4758   4.6299   4.8961   5.1148   5.4025   5.5169   5.8548
     5.9796   6.1717   6.4087   6.6879   6.8213   6.9807   7.1407   7.3469
     7.5743   7.6793   7.8403   8.0777   8.1980   8.6718   8.8263   8.9451
     9.4964  10.9722  12.1992  12.3963  12.6205  12.7905  13.1814  13.4359
    15.5175  16.3897

     occupation numbers 
     1.0000   1.0000   1.0000   1.0000   1.0000   1.0000   1.0000   1.0000
     1.0000   1.0000   1.0000   1.0000   1.0000   1.0000   1.0000   1.0000
     1.0000   1.0000   1.0000   1.0000   1.0000   1.0000   1.0000   1.0000
     1.0000   1.0000   1.0000   1.0000   1.0000   1.0000   1.0000   1.0000
     1.0000   1.0000   1.0000   1.0000   1.0000   1.0000   1.0000   1.0000
     1.0000   1.0000   1.0000   1.0000   1.0000   1.0000   1.0000   1.0000
     1.0000   1.0000   1.0000   1.0000   1.0000   1.0000   1.0000   1.0000
     1.0046   0.0000   0.0000   0.0000   0.0000   0.0000   0.0000   0.0000
     0.0000   0.0000

          k = 0.4162-0.3841 0.0555 ( 20358 PWs)   bands (ev):

  -102.4090 -69.8087 -65.3832 -65.2928 -60.1425 -60.1058 -59.4046 -38.9118
   -38.8323 -38.7898 -29.7188 -29.6312 -29.5992 -29.5636 -29.5100 -29.4882
    -8.7558  -8.0687  -8.0129  -7.6570  -7.4399  -7.3824  -7.1940  -7.1265
     1.7873   2.3547   2.4093   2.5557   3.1056   3.5339   3.7983   4.0759
     4.2411   4.5711   4.6550   5.0131   5.0649   5.3433   5.6517   5.7635
     6.0439   6.2116   6.2908   6.6760   6.8346   6.9558   7.1966   7.3494
     7.4477   7.6731   7.8742   8.1401   8.2065   8.6227   8.8209   8.9908
     9.5645  10.9642  12.0854  12.4021  12.7522  12.8990  13.1204  13.4650
    15.3625  16.4458

     occupation numbers 
     1.0000   1.0000   1.0000   1.0000   1.0000   1.0000   1.0000   1.0000
     1.0000   1.0000   1.0000   1.0000   1.0000   1.0000   1.0000   1.0000
     1.0000   1.0000   1.0000   1.0000   1.0000   1.0000   1.0000   1.0000
     1.0000   1.0000   1.0000   1.0000   1.0000   1.0000   1.0000   1.0000
     1.0000   1.0000   1.0000   1.0000   1.0000   1.0000   1.0000   1.0000
     1.0000   1.0000   1.0000   1.0000   1.0000   1.0000   1.0000   1.0000
     1.0000   1.0000   1.0000   1.0000   1.0000   1.0000   1.0000   1.0000
     1.0112   0.0000   0.0000   0.0000   0.0000   0.0000   0.0000   0.0000
     0.0000   0.0000

          k = 0.4151-0.3842 0.2010 ( 20364 PWs)   bands (ev):

  -102.4090 -69.8087 -65.3833 -65.2931 -60.1425 -60.1058 -59.4046 -38.9118
   -38.8322 -38.7898 -29.7180 -29.6294 -29.6046 -29.5641 -29.5095 -29.4849
    -8.6802  -8.1818  -7.9983  -7.6952  -7.4242  -7.3246  -7.2437  -7.0799
     1.8075   2.3576   2.4379   2.5197   3.1133   3.4575   3.8126   3.9241
     4.1815   4.4728   4.8067   5.0637   5.1766   5.2836   5.4193   5.7286
     6.2651   6.3570   6.4800   6.7169   6.7371   6.9153   7.2601   7.3568
     7.5081   7.6946   7.7628   8.0166   8.1730   8.5819   8.8668   8.9763
     9.6886  10.9608  11.8181  12.5404  12.7735  13.0667  13.1267  13.4317
    15.1260  16.2075

     occupation numbers 
     1.0000   1.0000   1.0000   1.0000   1.0000   1.0000   1.0000   1.0000
     1.0000   1.0000   1.0000   1.0000   1.0000   1.0000   1.0000   1.0000
     1.0000   1.0000   1.0000   1.0000   1.0000   1.0000   1.0000   1.0000
     1.0000   1.0000   1.0000   1.0000   1.0000   1.0000   1.0000   1.0000
     1.0000   1.0000   1.0000   1.0000   1.0000   1.0000   1.0000   1.0000
     1.0000   1.0000   1.0000   1.0000   1.0000   1.0000   1.0000   1.0000
     1.0000   1.0000   1.0000   1.0000   1.0000   1.0000   1.0000   1.0000
     1.0392   0.0000   0.0000   0.0000   0.0000   0.0000   0.0000   0.0000
     0.0000   0.0000

          k = 0.4140-0.3842 0.3466 ( 20382 PWs)   bands (ev):

  -102.4090 -69.8087 -65.3833 -65.2934 -60.1425 -60.1058 -59.4046 -38.9118
   -38.8322 -38.7898 -29.7176 -29.6275 -29.6098 -29.5643 -29.5084 -29.4827
    -8.5764  -8.2774  -7.9867  -7.7339  -7.4669  -7.3426  -7.1615  -7.0793
     1.8214   2.3722   2.4591   2.5207   3.2247   3.3434   3.6340   3.8717
     4.1001   4.6466   4.7982   4.9684   5.1400   5.3427   5.4899   5.8530
     6.1972   6.2690   6.5902   6.6965   6.8016   6.9047   7.2412   7.4729
     7.5510   7.6840   7.8263   7.9610   8.1221   8.5308   8.8464   9.0167
     9.6645  10.9811  11.8943  12.3282  12.7112  13.0388  13.2749  13.4027
    15.1675  15.8305

     occupation numbers 
     1.0000   1.0000   1.0000   1.0000   1.0000   1.0000   1.0000   1.0000
     1.0000   1.0000   1.0000   1.0000   1.0000   1.0000   1.0000   1.0000
     1.0000   1.0000   1.0000   1.0000   1.0000   1.0000   1.0000   1.0000
     1.0000   1.0000   1.0000   1.0000   1.0000   1.0000   1.0000   1.0000
     1.0000   1.0000   1.0000   1.0000   1.0000   1.0000   1.0000   1.0000
     1.0000   1.0000   1.0000   1.0000   1.0000   1.0000   1.0000   1.0000
     1.0000   1.0000   1.0000   1.0000   1.0000   1.0000   1.0000   1.0000
     1.0320   0.0000   0.0000   0.0000   0.0000   0.0000   0.0000   0.0000
     0.0000   0.0000

          k = 0.4194-0.3841-0.3812 ( 20391 PWs)   bands (ev):

  -102.4090 -69.8087 -65.3834 -65.2934 -60.1425 -60.1058 -59.4046 -38.9118
   -38.8322 -38.7897 -29.7182 -29.6273 -29.6096 -29.5639 -29.5084 -29.4830
    -8.5857  -8.2458  -7.9752  -7.7204  -7.4956  -7.3956  -7.1695  -7.0428
     1.8147   2.3677   2.4730   2.5350   3.2729   3.4363   3.5583   3.9181
     4.0473   4.5488   4.7031   4.8994   5.2167   5.4269   5.6191   5.9596
     6.0285   6.2904   6.5149   6.6356   6.8236   7.0239   7.1304   7.3707
     7.6244   7.7452   7.8492   8.0373   8.1366   8.5917   8.7983   8.8786
     9.6633  10.9983  11.9416  12.2041  12.8385  12.9037  13.1809  13.4565
    15.3782  15.7435

     occupation numbers 
     1.0000   1.0000   1.0000   1.0000   1.0000   1.0000   1.0000   1.0000
     1.0000   1.0000   1.0000   1.0000   1.0000   1.0000   1.0000   1.0000
     1.0000   1.0000   1.0000   1.0000   1.0000   1.0000   1.0000   1.0000
     1.0000   1.0000   1.0000   1.0000   1.0000   1.0000   1.0000   1.0000
     1.0000   1.0000   1.0000   1.0000   1.0000   1.0000   1.0000   1.0000
     1.0000   1.0000   1.0000   1.0000   1.0000   1.0000   1.0000   1.0000
     1.0000   1.0000   1.0000   1.0000   1.0000   1.0000   1.0000   1.0000
     1.0316   0.0000   0.0000   0.0000   0.0000   0.0000   0.0000   0.0000
     0.0000   0.0000

          k = 0.4184-0.3841-0.2356 ( 20374 PWs)   bands (ev):

  -102.4090 -69.8087 -65.3833 -65.2930 -60.1425 -60.1058 -59.4046 -38.9118
   -38.8322 -38.7898 -29.7191 -29.6291 -29.6043 -29.5632 -29.5095 -29.4855
    -8.6871  -8.1526  -7.9206  -7.6558  -7.5442  -7.4585  -7.1957  -7.0253
     1.7945   2.3529   2.4521   2.5511   3.1967   3.5330   3.8166   4.0071
     4.1181   4.2591   4.8306   4.9211   5.1281   5.3495   5.5156   5.9513
     6.0734   6.3172   6.4937   6.6114   6.8514   7.0101   7.0879   7.3773
     7.5667   7.6500   7.9467   8.0530   8.1143   8.6848   8.7765   8.8604
     9.6074  10.9941  11.9182  12.4180  12.6903  12.9300  13.1514  13.4069
    15.4603  16.1437

     occupation numbers 
     1.0000   1.0000   1.0000   1.0000   1.0000   1.0000   1.0000   1.0000
     1.0000   1.0000   1.0000   1.0000   1.0000   1.0000   1.0000   1.0000
     1.0000   1.0000   1.0000   1.0000   1.0000   1.0000   1.0000   1.0000
     1.0000   1.0000   1.0000   1.0000   1.0000   1.0000   1.0000   1.0000
     1.0000   1.0000   1.0000   1.0000   1.0000   1.0000   1.0000   1.0000
     1.0000   1.0000   1.0000   1.0000   1.0000   1.0000   1.0000   1.0000
     1.0000   1.0000   1.0000   1.0000   1.0000   1.0000   1.0000   1.0000
     1.0182   0.0000   0.0000   0.0000   0.0000   0.0000   0.0000   0.0000
     0.0000   0.0000

          k = 0.4173-0.3841-0.0901 ( 20386 PWs)   bands (ev):

  -102.4090 -69.8087 -65.3832 -65.2927 -60.1425 -60.1058 -59.4046 -38.9118
   -38.8323 -38.7898 -29.7194 -29.6310 -29.5991 -29.5631 -29.5099 -29.4885
    -8.7576  -8.0956  -7.9090  -7.6367  -7.5695  -7.3972  -7.2033  -7.0741
     1.7810   2.3551   2.4102   2.5718   3.1433   3.5619   3.7980   4.0617
     4.3085   4.4627   4.7087   4.8867   5.1430   5.3726   5.4787   5.8313
     6.0373   6.2471   6.3521   6.6612   6.8338   6.9670   7.1168   7.3210
     7.5987   7.6697   7.8733   8.0940   8.2144   8.6677   8.8056   8.9512
     9.5044  10.9795  12.1979  12.4631  12.5410  12.7907  13.1652  13.4482
    15.5360  16.4618

     occupation numbers 
     1.0000   1.0000   1.0000   1.0000   1.0000   1.0000   1.0000   1.0000
     1.0000   1.0000   1.0000   1.0000   1.0000   1.0000   1.0000   1.0000
     1.0000   1.0000   1.0000   1.0000   1.0000   1.0000   1.0000   1.0000
     1.0000   1.0000   1.0000   1.0000   1.0000   1.0000   1.0000   1.0000
     1.0000   1.0000   1.0000   1.0000   1.0000   1.0000   1.0000   1.0000
     1.0000   1.0000   1.0000   1.0000   1.0000   1.0000   1.0000   1.0000
     1.0000   1.0000   1.0000   1.0000   1.0000   1.0000   1.0000   1.0000
     1.0051   0.0000   0.0000   0.0000   0.0000   0.0000   0.0000   0.0000
     0.0000   0.0000

          k = 0.4162-0.2350 0.0520 ( 20383 PWs)   bands (ev):

  -102.4090 -69.8087 -65.3833 -65.2926 -60.1425 -60.1058 -59.4046 -38.9118
   -38.8323 -38.7898 -29.7195 -29.6314 -29.6001 -29.5630 -29.5097 -29.4875
    -8.8176  -8.0488  -7.9768  -7.6616  -7.4620  -7.3099  -7.2305  -7.1133
     1.7523   2.3834   2.4572   2.5688   3.2444   3.4839   3.7368   3.9192
     4.1743   4.3192   4.6103   4.8650   5.0728   5.2881   5.5512   5.9118
     6.0128   6.3054   6.3950   6.6619   6.8862   6.9427   7.1121   7.3099
     7.4257   7.8604   7.9730   8.2064   8.3391   8.6872   8.9841   9.0407
     9.7617  11.0350  12.0661  12.2975  12.6033  12.9902  13.1162  13.5995
    15.5275  16.3116

     occupation numbers 
     1.0000   1.0000   1.0000   1.0000   1.0000   1.0000   1.0000   1.0000
     1.0000   1.0000   1.0000   1.0000   1.0000   1.0000   1.0000   1.0000
     1.0000   1.0000   1.0000   1.0000   1.0000   1.0000   1.0000   1.0000
     1.0000   1.0000   1.0000   1.0000   1.0000   1.0000   1.0000   1.0000
     1.0000   1.0000   1.0000   1.0000   1.0000   1.0000   1.0000   1.0000
     1.0000   1.0000   1.0000   1.0000   1.0000   1.0000   1.0000   1.0000
     1.0000   1.0000   1.0000   1.0000   1.0000   1.0000   1.0000   1.0000
     1.0639   0.0000   0.0000   0.0000   0.0000   0.0000   0.0000   0.0000
     0.0000   0.0000

          k = 0.4152-0.2350 0.1976 ( 20393 PWs)   bands (ev):

  -102.4090 -69.8087 -65.3833 -65.2929 -60.1425 -60.1058 -59.4046 -38.9118
   -38.8322 -38.7898 -29.7175 -29.6297 -29.6048 -29.5645 -29.5098 -29.4848
    -8.7110  -8.1275  -8.0156  -7.7450  -7.4735  -7.3069  -7.1755  -7.0584
     1.7693   2.3962   2.4589   2.5563   3.2162   3.4500   3.8235   3.9181
     4.0623   4.2497   4.6200   4.8390   5.0947   5.3326   5.4754   5.7826
     6.0807   6.3559   6.4960   6.6039   6.8873   6.9692   7.1819   7.4554
     7.5158   7.6282   7.9053   8.2975   8.4362   8.7099   8.9531   9.0093
     9.7752  10.9899  11.9165  12.5195  12.7851  12.9893  13.1412  13.4659
    15.2512  16.2015

     occupation numbers 
     1.0000   1.0000   1.0000   1.0000   1.0000   1.0000   1.0000   1.0000
     1.0000   1.0000   1.0000   1.0000   1.0000   1.0000   1.0000   1.0000
     1.0000   1.0000   1.0000   1.0000   1.0000   1.0000   1.0000   1.0000
     1.0000   1.0000   1.0000   1.0000   1.0000   1.0000   1.0000   1.0000
     1.0000   1.0000   1.0000   1.0000   1.0000   1.0000   1.0000   1.0000
     1.0000   1.0000   1.0000   1.0000   1.0000   1.0000   1.0000   1.0000
     1.0000   1.0000   1.0000   1.0000   1.0000   1.0000   1.0000   1.0000
     1.0683   0.0000   0.0000   0.0000   0.0000   0.0000   0.0000   0.0000
     0.0000   0.0000

          k = 0.4141-0.2351 0.3431 ( 20408 PWs)   bands (ev):

  -102.4090 -69.8087 -65.3834 -65.2933 -60.1425 -60.1058 -59.4046 -38.9118
   -38.8322 -38.7898 -29.7165 -29.6274 -29.6094 -29.5652 -29.5090 -29.4832
    -8.5518  -8.2744  -7.9945  -7.8100  -7.5097  -7.3649  -7.0790  -7.0274
     1.7810   2.4087   2.4706   2.5803   3.2471   3.3872   3.6647   3.8473
     4.0718   4.3808   4.6147   4.8363   5.1603   5.3163   5.5921   5.7800
     6.0003   6.3294   6.4883   6.5742   6.6948   6.9079   7.0983   7.5297
     7.6690   7.8192   8.0104   8.2536   8.4485   8.6902   8.9027   9.0516
     9.7266  10.9861  12.0439  12.4910  12.7640  13.0642  13.1303  13.2858
    15.2738  15.9173

     occupation numbers 
     1.0000   1.0000   1.0000   1.0000   1.0000   1.0000   1.0000   1.0000
     1.0000   1.0000   1.0000   1.0000   1.0000   1.0000   1.0000   1.0000
     1.0000   1.0000   1.0000   1.0000   1.0000   1.0000   1.0000   1.0000
     1.0000   1.0000   1.0000   1.0000   1.0000   1.0000   1.0000   1.0000
     1.0000   1.0000   1.0000   1.0000   1.0000   1.0000   1.0000   1.0000
     1.0000   1.0000   1.0000   1.0000   1.0000   1.0000   1.0000   1.0000
     1.0000   1.0000   1.0000   1.0000   1.0000   1.0000   1.0000   1.0000
     1.0519   0.0000   0.0000   0.0000   0.0000   0.0000   0.0000   0.0000
     0.0000   0.0000

          k = 0.4195-0.2350-0.3847 ( 20406 PWs)   bands (ev):

  -102.4090 -69.8087 -65.3834 -65.2932 -60.1425 -60.1058 -59.4046 -38.9118
   -38.8322 -38.7897 -29.7176 -29.6271 -29.6091 -29.5643 -29.5089 -29.4838
    -8.5822  -8.2198  -7.9774  -7.7962  -7.5293  -7.4271  -7.0836  -7.0019
     1.7756   2.4091   2.4904   2.5789   3.2821   3.4312   3.6237   3.8254
     4.0741   4.3996   4.5685   4.8211   5.1556   5.4113   5.6220   5.7597
     6.0428   6.1822   6.4322   6.5783   6.7898   6.9365   7.0844   7.4728
     7.6920   7.8434   8.0478   8.2610   8.4129   8.6841   8.8242   9.0449
     9.7414  11.0168  12.1222  12.3422  12.8296  12.9474  13.0737  13.3419
    15.4891  15.8892

     occupation numbers 
     1.0000   1.0000   1.0000   1.0000   1.0000   1.0000   1.0000   1.0000
     1.0000   1.0000   1.0000   1.0000   1.0000   1.0000   1.0000   1.0000
     1.0000   1.0000   1.0000   1.0000   1.0000   1.0000   1.0000   1.0000
     1.0000   1.0000   1.0000   1.0000   1.0000   1.0000   1.0000   1.0000
     1.0000   1.0000   1.0000   1.0000   1.0000   1.0000   1.0000   1.0000
     1.0000   1.0000   1.0000   1.0000   1.0000   1.0000   1.0000   1.0000
     1.0000   1.0000   1.0000   1.0000   1.0000   1.0000   1.0000   1.0000
     1.0570   0.0000   0.0000   0.0000   0.0000   0.0000   0.0000   0.0000
     0.0000   0.0000

          k = 0.4184-0.2350-0.2391 ( 20396 PWs)   bands (ev):

  -102.4090 -69.8087 -65.3834 -65.2929 -60.1425 -60.1058 -59.4046 -38.9118
   -38.8322 -38.7897 -29.7197 -29.6290 -29.6042 -29.5627 -29.5094 -29.4861
    -8.7340  -8.1095  -7.8864  -7.7118  -7.5388  -7.4914  -7.1522  -7.0008
     1.7580   2.3937   2.4933   2.5665   3.2748   3.4942   3.7418   3.8876
     4.0670   4.2377   4.6909   4.9210   5.0652   5.3228   5.5374   5.8257
     5.9026   6.2403   6.3903   6.7588   6.8604   7.0682   7.2000   7.3832
     7.5523   7.7449   7.9649   8.1535   8.3538   8.7382   8.8358   9.0231
     9.7853  11.0431  11.9742  12.5175  12.6366  12.9711  13.0261  13.4446
    15.6624  16.2610

     occupation numbers 
     1.0000   1.0000   1.0000   1.0000   1.0000   1.0000   1.0000   1.0000
     1.0000   1.0000   1.0000   1.0000   1.0000   1.0000   1.0000   1.0000
     1.0000   1.0000   1.0000   1.0000   1.0000   1.0000   1.0000   1.0000
     1.0000   1.0000   1.0000   1.0000   1.0000   1.0000   1.0000   1.0000
     1.0000   1.0000   1.0000   1.0000   1.0000   1.0000   1.0000   1.0000
     1.0000   1.0000   1.0000   1.0000   1.0000   1.0000   1.0000   1.0000
     1.0000   1.0000   1.0000   1.0000   1.0000   1.0000   1.0000   1.0000
     1.0714   0.0000   0.0000   0.0000   0.0000   0.0000   0.0000   0.0000
     0.0000   0.0000

          k = 0.4173-0.2350-0.0936 ( 20390 PWs)   bands (ev):

  -102.4090 -69.8087 -65.3833 -65.2926 -60.1425 -60.1058 -59.4046 -38.9118
   -38.8323 -38.7897 -29.7205 -29.6311 -29.5998 -29.5621 -29.5095 -29.4883
    -8.8250  -8.0792  -7.8565  -7.6193  -7.5583  -7.4117  -7.2211  -7.0551
     1.7466   2.3809   2.4683   2.5832   3.2681   3.5035   3.7211   3.8517
     4.1475   4.3813   4.6849   4.9306   5.0320   5.2764   5.6096   5.7943
     5.9409   6.3220   6.4176   6.5374   6.8457   7.0673   7.1718   7.3074
     7.5369   7.8401   8.0001   8.0859   8.2908   8.7087   8.9560   9.0340
     9.7624  11.0609  12.0663  12.3734  12.5444  12.9538  13.0267  13.5831
    15.7938  16.2895

     occupation numbers 
     1.0000   1.0000   1.0000   1.0000   1.0000   1.0000   1.0000   1.0000
     1.0000   1.0000   1.0000   1.0000   1.0000   1.0000   1.0000   1.0000
     1.0000   1.0000   1.0000   1.0000   1.0000   1.0000   1.0000   1.0000
     1.0000   1.0000   1.0000   1.0000   1.0000   1.0000   1.0000   1.0000
     1.0000   1.0000   1.0000   1.0000   1.0000   1.0000   1.0000   1.0000
     1.0000   1.0000   1.0000   1.0000   1.0000   1.0000   1.0000   1.0000
     1.0000   1.0000   1.0000   1.0000   1.0000   1.0000   1.0000   1.0000
     1.0642   0.0000   0.0000   0.0000   0.0000   0.0000   0.0000   0.0000
     0.0000   0.0000

          k = 0.4163-0.0859 0.0485 ( 20397 PWs)   bands (ev):

  -102.4090 -69.8087 -65.3833 -65.2924 -60.1425 -60.1058 -59.4046 -38.9118
   -38.8322 -38.7897 -29.7207 -29.6314 -29.6007 -29.5619 -29.5093 -29.4873
    -8.8919  -8.0657  -7.8463  -7.6111  -7.5616  -7.3204  -7.2179  -7.0865
     1.7245   2.3954   2.4725   2.6101   3.3393   3.5327   3.6342   3.7000
     4.1410   4.2912   4.5310   4.7305   4.9945   5.1858   5.4938   5.9675
     6.0691   6.2427   6.4509   6.6644   6.9135   7.0173   7.1270   7.3512
     7.5671   7.8156   8.0663   8.2210   8.4447   8.7522   9.0019   9.2528
     9.9625  11.1552  12.0229  12.2509  12.4092  12.9806  13.2794  13.6571
    15.6103  16.2442

     occupation numbers 
     1.0000   1.0000   1.0000   1.0000   1.0000   1.0000   1.0000   1.0000
     1.0000   1.0000   1.0000   1.0000   1.0000   1.0000   1.0000   1.0000
     1.0000   1.0000   1.0000   1.0000   1.0000   1.0000   1.0000   1.0000
     1.0000   1.0000   1.0000   1.0000   1.0000   1.0000   1.0000   1.0000
     1.0000   1.0000   1.0000   1.0000   1.0000   1.0000   1.0000   1.0000
     1.0000   1.0000   1.0000   1.0000   1.0000   1.0000   1.0000   1.0000
     1.0000   1.0000   1.0000   1.0000   1.0000   1.0000   1.0000   1.0001
     1.0318   0.0000   0.0000   0.0000   0.0000   0.0000   0.0000   0.0000
     0.0000   0.0000

          k = 0.4152-0.0859 0.1941 ( 20398 PWs)   bands (ev):

  -102.4090 -69.8087 -65.3834 -65.2928 -60.1425 -60.1058 -59.4046 -38.9118
   -38.8322 -38.7898 -29.7181 -29.6295 -29.6046 -29.5639 -29.5098 -29.4853
    -8.7767  -8.0531  -8.0013  -7.7022  -7.5679  -7.3767  -7.1126  -7.0055
     1.7397   2.4079   2.4634   2.6058   3.3086   3.4715   3.7824   3.8877
     4.0163   4.1178   4.5216   4.5875   5.0260   5.2684   5.5336   5.8064
     6.0509   6.2576   6.4309   6.5272   6.8652   7.0439   7.1973   7.4876
     7.6418   7.8133   8.0931   8.3509   8.6395   8.7490   8.9434   9.1816
     9.8922  11.0321  12.0523  12.4887  12.6795  12.9289  13.2297  13.4852
    15.3818  16.2468

     occupation numbers 
     1.0000   1.0000   1.0000   1.0000   1.0000   1.0000   1.0000   1.0000
     1.0000   1.0000   1.0000   1.0000   1.0000   1.0000   1.0000   1.0000
     1.0000   1.0000   1.0000   1.0000   1.0000   1.0000   1.0000   1.0000
     1.0000   1.0000   1.0000   1.0000   1.0000   1.0000   1.0000   1.0000
     1.0000   1.0000   1.0000   1.0000   1.0000   1.0000   1.0000   1.0000
     1.0000   1.0000   1.0000   1.0000   1.0000   1.0000   1.0000   1.0000
     1.0000   1.0000   1.0000   1.0000   1.0000   1.0000   1.0000   1.0000
     1.0780   0.0000   0.0000   0.0000   0.0000   0.0000   0.0000   0.0000
     0.0000   0.0000

          k = 0.4141-0.0860 0.3396 ( 20393 PWs)   bands (ev):

  -102.4090 -69.8086 -65.3835 -65.2931 -60.1425 -60.1058 -59.4046 -38.9118
   -38.8322 -38.7898 -29.7159 -29.6271 -29.6088 -29.5656 -29.5096 -29.4840
    -8.5790  -8.2284  -8.0113  -7.8040  -7.5670  -7.4154  -7.0491  -6.9417
     1.7482   2.4292   2.4781   2.6271   3.3057   3.4048   3.6318   3.7801
     4.0903   4.2771   4.5555   4.7051   5.1331   5.3345   5.4905   5.6701
     5.9337   6.1859   6.4144   6.4486   6.6548   6.8381   7.1640   7.6335
     7.7785   8.0649   8.2174   8.4762   8.6277   8.7926   8.8881   9.1603
     9.7802  10.9828  12.3141  12.6904  12.7848  12.9359  13.0041  13.1894
    15.4223  15.9858

     occupation numbers 
     1.0000   1.0000   1.0000   1.0000   1.0000   1.0000   1.0000   1.0000
     1.0000   1.0000   1.0000   1.0000   1.0000   1.0000   1.0000   1.0000
     1.0000   1.0000   1.0000   1.0000   1.0000   1.0000   1.0000   1.0000
     1.0000   1.0000   1.0000   1.0000   1.0000   1.0000   1.0000   1.0000
     1.0000   1.0000   1.0000   1.0000   1.0000   1.0000   1.0000   1.0000
     1.0000   1.0000   1.0000   1.0000   1.0000   1.0000   1.0000   1.0000
     1.0000   1.0000   1.0000   1.0000   1.0000   1.0000   1.0000   1.0000
     1.0699   0.0000   0.0000   0.0000   0.0000   0.0000   0.0000   0.0000
     0.0000   0.0000

          k = 0.4196-0.0859-0.3882 ( 20425 PWs)   bands (ev):

  -102.4090 -69.8086 -65.3835 -65.2931 -60.1425 -60.1058 -59.4046 -38.9118
   -38.8322 -38.7898 -29.7165 -29.6270 -29.6086 -29.5651 -29.5096 -29.4843
    -8.5753  -8.2161  -7.9895  -7.8304  -7.5551  -7.4479  -7.0433  -6.9442
     1.7413   2.4395   2.4968   2.6210   3.2854   3.3901   3.6334   3.7435
     4.1425   4.4341   4.5034   4.7544   5.1468   5.2740   5.4624   5.6671
     5.9511   6.0334   6.4505   6.5685   6.6776   6.7748   7.1887   7.5036
     7.7943   8.0423   8.2717   8.4654   8.6461   8.7526   8.8632   9.1739
     9.7538  11.0500  12.3498  12.5814  12.8289  12.8631  13.0129  13.1728
    15.6422  16.0315

     occupation numbers 
     1.0000   1.0000   1.0000   1.0000   1.0000   1.0000   1.0000   1.0000
     1.0000   1.0000   1.0000   1.0000   1.0000   1.0000   1.0000   1.0000
     1.0000   1.0000   1.0000   1.0000   1.0000   1.0000   1.0000   1.0000
     1.0000   1.0000   1.0000   1.0000   1.0000   1.0000   1.0000   1.0000
     1.0000   1.0000   1.0000   1.0000   1.0000   1.0000   1.0000   1.0000
     1.0000   1.0000   1.0000   1.0000   1.0000   1.0000   1.0000   1.0000
     1.0000   1.0000   1.0000   1.0000   1.0000   1.0000   1.0000   1.0000
     1.0613   0.0000   0.0000   0.0000   0.0000   0.0000   0.0000   0.0000
     0.0000   0.0000

          k = 0.4185-0.0859-0.2426 ( 20405 PWs)   bands (ev):

  -102.4090 -69.8087 -65.3834 -65.2927 -60.1425 -60.1058 -59.4046 -38.9118
   -38.8322 -38.7897 -29.7191 -29.6292 -29.6043 -29.5630 -29.5096 -29.4860
    -8.7704  -8.0474  -7.9265  -7.7477  -7.5484  -7.4720  -7.1008  -6.9944
     1.7253   2.4244   2.5064   2.6034   3.2818   3.3849   3.7438   3.8388
     4.0639   4.3092   4.5949   4.7781   5.1005   5.1837   5.5957   5.7040
     5.7793   6.1132   6.4974   6.6459   6.8750   7.0479   7.2163   7.3262
     7.6421   7.8631   8.1375   8.3254   8.6253   8.7266   8.8774   9.1724
     9.8597  11.1439  12.0261  12.5577  12.6676  12.9160  13.0321  13.4413
    15.8939  16.3315

     occupation numbers 
     1.0000   1.0000   1.0000   1.0000   1.0000   1.0000   1.0000   1.0000
     1.0000   1.0000   1.0000   1.0000   1.0000   1.0000   1.0000   1.0000
     1.0000   1.0000   1.0000   1.0000   1.0000   1.0000   1.0000   1.0000
     1.0000   1.0000   1.0000   1.0000   1.0000   1.0000   1.0000   1.0000
     1.0000   1.0000   1.0000   1.0000   1.0000   1.0000   1.0000   1.0000
     1.0000   1.0000   1.0000   1.0000   1.0000   1.0000   1.0000   1.0000
     1.0000   1.0000   1.0000   1.0000   1.0000   1.0000   1.0000   1.0000
     1.0832   0.0000   0.0000   0.0000   0.0000   0.0000   0.0000   0.0000
     0.0000   0.0000

          k = 0.4174-0.0859-0.0970 ( 20391 PWs)   bands (ev):

  -102.4090 -69.8087 -65.3833 -65.2924 -60.1425 -60.1058 -59.4046 -38.9118
   -38.8322 -38.7897 -29.7212 -29.6313 -29.6006 -29.5615 -29.5092 -29.4877
    -8.8892  -8.0634  -7.7713  -7.6778  -7.5360  -7.4061  -7.2004  -7.0630
     1.7170   2.4011   2.4941   2.6165   3.3344   3.4311   3.6189   3.7469
     4.1462   4.3333   4.6471   4.7605   5.0372   5.2003   5.6621   5.7470
     5.9098   6.2208   6.4881   6.5693   6.8423   7.0233   7.2504   7.4299
     7.5810   7.7783   8.0734   8.2180   8.4046   8.7520   8.9762   9.2320
     9.9531  11.2042  11.9586  12.3523  12.3995  13.0449  13.0967  13.6331
    15.9602  16.1807

     occupation numbers 
     1.0000   1.0000   1.0000   1.0000   1.0000   1.0000   1.0000   1.0000
     1.0000   1.0000   1.0000   1.0000   1.0000   1.0000   1.0000   1.0000
     1.0000   1.0000   1.0000   1.0000   1.0000   1.0000   1.0000   1.0000
     1.0000   1.0000   1.0000   1.0000   1.0000   1.0000   1.0000   1.0000
     1.0000   1.0000   1.0000   1.0000   1.0000   1.0000   1.0000   1.0000
     1.0000   1.0000   1.0000   1.0000   1.0000   1.0000   1.0000   1.0000
     1.0000   1.0000   1.0000   1.0000   1.0000   1.0000   1.0000   1.0000
     1.0411   0.0000   0.0000   0.0000   0.0000   0.0000   0.0000   0.0000
     0.0000   0.0000

 ------ SPIN DOWN ----------


          k = 0.0829 0.0723 0.0658 ( 20395 PWs)   bands (ev):

  -103.2068 -65.3444 -65.2551 -65.2531 -61.3218 -61.2849 -59.7360 -34.0832
   -34.0298 -33.9979 -29.6810 -29.5712 -29.5473 -29.5055 -29.4706 -29.4277
    -9.1817  -8.0971  -7.7980  -7.5901  -7.4153  -7.2935  -7.1897  -7.0558
     0.3133   1.3764   1.8006   1.9449   1.9796   3.2264   3.6098   3.7954
     4.0965   4.2848   4.7158   5.0270   5.3121   5.5544   5.7015   6.1923
     6.4610   6.6512   6.7486   6.8403   7.1383   7.3904   7.5591   8.1630
     8.2735   8.3771   8.5000   8.7552   9.0034  11.9619  12.2295  12.3285
    12.8385  13.1670  13.3921  14.9186  15.2839  15.4847  15.6033  16.0060
    16.1458  16.5922

     occupation numbers 
     1.0000   1.0000   1.0000   1.0000   1.0000   1.0000   1.0000   1.0000
     1.0000   1.0000   1.0000   1.0000   1.0000   1.0000   1.0000   1.0000
     1.0000   1.0000   1.0000   1.0000   1.0000   1.0000   1.0000   1.0000
     1.0000   1.0000   1.0000   1.0000   1.0000   1.0000   1.0000   1.0000
     1.0000   1.0000   1.0000   1.0000   1.0000   1.0000   1.0000   1.0000
     1.0000   1.0000   1.0000   1.0000   1.0000   1.0000   1.0000   1.0000
     1.0000   1.0000   1.0000   1.0000   1.0000   0.0000   0.0000   0.0000
     0.0000   0.0000   0.0000   0.0000   0.0000   0.0000   0.0000   0.0000
     0.0000   0.0000

          k = 0.0818 0.0723 0.2114 ( 20393 PWs)   bands (ev):

  -103.2068 -65.3443 -65.2551 -65.2531 -61.3218 -61.2849 -59.7360 -34.0832
   -34.0298 -33.9979 -29.6790 -29.5698 -29.5513 -29.5076 -29.4687 -29.4273
    -9.0481  -8.1328  -7.9818  -7.6588  -7.3994  -7.2291  -7.1499  -7.0358
     0.3000   1.3720   1.8473   1.9189   1.9661   3.3403   3.5889   3.8183
     4.1048   4.3770   4.5050   5.0146   5.2823   5.5002   5.9612   6.0590
     6.4507   6.6011   6.7312   6.8851   7.1662   7.2649   7.6742   8.0845
     8.3062   8.4039   8.5594   8.7672   8.9536  11.9307  12.2965  12.4861
    12.8415  13.0126  13.2378  15.0655  15.3226  15.5089  15.6315  15.8658
    16.1528  16.5464

     occupation numbers 
     1.0000   1.0000   1.0000   1.0000   1.0000   1.0000   1.0000   1.0000
     1.0000   1.0000   1.0000   1.0000   1.0000   1.0000   1.0000   1.0000
     1.0000   1.0000   1.0000   1.0000   1.0000   1.0000   1.0000   1.0000
     1.0000   1.0000   1.0000   1.0000   1.0000   1.0000   1.0000   1.0000
     1.0000   1.0000   1.0000   1.0000   1.0000   1.0000   1.0000   1.0000
     1.0000   1.0000   1.0000   1.0000   1.0000   1.0000   1.0000   1.0000
     1.0000   1.0000   1.0000   1.0000   1.0000   0.0000   0.0000   0.0000
     0.0000   0.0000   0.0000   0.0000   0.0000   0.0000   0.0000   0.0000
     0.0000   0.0000

          k = 0.0807 0.0722 0.3569 ( 20409 PWs)   bands (ev):

  -103.2068 -65.3443 -65.2551 -65.2532 -61.3218 -61.2849 -59.7360 -34.0832
   -34.0298 -33.9979 -29.6764 -29.5683 -29.5557 -29.5100 -29.4670 -29.4266
    -8.8068  -8.3731  -8.0365  -7.7366  -7.3749  -7.2190  -7.1122  -6.9927
     0.2656   1.3606   1.8822   1.9199   1.9627   3.3127   3.5806   3.9597
     4.1812   4.3975   4.6735   4.9373   5.2906   5.5485   5.9173   6.0195
     6.1579   6.3158   6.5338   7.0971   7.2778   7.4275   7.8736   8.0550
     8.1949   8.3694   8.5654   8.7858   8.9179  12.0756  12.2067  12.5632
    12.7594  12.9501  13.0509  15.1529  15.3324  15.6572  15.7385  15.8007
    16.4462  16.5452

     occupation numbers 
     1.0000   1.0000   1.0000   1.0000   1.0000   1.0000   1.0000   1.0000
     1.0000   1.0000   1.0000   1.0000   1.0000   1.0000   1.0000   1.0000
     1.0000   1.0000   1.0000   1.0000   1.0000   1.0000   1.0000   1.0000
     1.0000   1.0000   1.0000   1.0000   1.0000   1.0000   1.0000   1.0000
     1.0000   1.0000   1.0000   1.0000   1.0000   1.0000   1.0000   1.0000
     1.0000   1.0000   1.0000   1.0000   1.0000   1.0000   1.0000   1.0000
     1.0000   1.0000   1.0000   1.0000   1.0000   0.0000   0.0000   0.0000
     0.0000   0.0000   0.0000   0.0000   0.0000   0.0000   0.0000   0.0000
     0.0000   0.0000

          k = 0.0861 0.0723-0.3708 ( 20434 PWs)   bands (ev):

  -103.2068 -65.3443 -65.2551 -65.2532 -61.3218 -61.2849 -59.7360 -34.0832
   -34.0298 -33.9979 -29.6760 -29.5683 -29.5559 -29.5103 -29.4674 -29.4262
    -8.7696  -8.4173  -8.0261  -7.7465  -7.3767  -7.2236  -7.1138  -6.9807
     0.2452   1.3548   1.8899   1.9210   1.9761   3.3316   3.5290   3.9530
     4.2776   4.3779   4.7154   5.1504   5.2446   5.5176   5.8191   5.9487
     6.1992   6.3238   6.4157   7.1648   7.2324   7.5643   7.6828   7.9508
     8.3150   8.3859   8.5223   8.8050   8.9127  11.9484  12.3817  12.5532
    12.7460  12.8944  13.0239  15.2586  15.3773  15.5916  15.7517  15.9448
    16.4389  16.6612

     occupation numbers 
     1.0000   1.0000   1.0000   1.0000   1.0000   1.0000   1.0000   1.0000
     1.0000   1.0000   1.0000   1.0000   1.0000   1.0000   1.0000   1.0000
     1.0000   1.0000   1.0000   1.0000   1.0000   1.0000   1.0000   1.0000
     1.0000   1.0000   1.0000   1.0000   1.0000   1.0000   1.0000   1.0000
     1.0000   1.0000   1.0000   1.0000   1.0000   1.0000   1.0000   1.0000
     1.0000   1.0000   1.0000   1.0000   1.0000   1.0000   1.0000   1.0000
     1.0000   1.0000   1.0000   1.0000   1.0000   0.0000   0.0000   0.0000
     0.0000   0.0000   0.0000   0.0000   0.0000   0.0000   0.0000   0.0000
     0.0000   0.0000

          k = 0.0850 0.0723-0.2253 ( 20438 PWs)   bands (ev):

  -103.2068 -65.3443 -65.2551 -65.2531 -61.3218 -61.2849 -59.7360 -34.0832
   -34.0298 -33.9979 -29.6782 -29.5698 -29.5517 -29.5080 -29.4695 -29.4265
    -9.0196  -8.1453  -7.9993  -7.6751  -7.3985  -7.2349  -7.1664  -7.0015
     0.2582   1.3610   1.8524   1.9344   1.9912   3.2880   3.5576   3.9415
     4.1706   4.3476   4.6875   4.9757   5.3860   5.5838   5.8728   6.0158
     6.3578   6.5592   6.6328   6.8008   7.1228   7.3366   7.7327   7.8368
     8.3573   8.4427   8.5583   8.8092   8.9277  11.8570  12.3607  12.5092
    12.8433  12.8733  13.2212  15.2943  15.4100  15.5156  15.7411  16.0200
    16.2391  16.5210

     occupation numbers 
     1.0000   1.0000   1.0000   1.0000   1.0000   1.0000   1.0000   1.0000
     1.0000   1.0000   1.0000   1.0000   1.0000   1.0000   1.0000   1.0000
     1.0000   1.0000   1.0000   1.0000   1.0000   1.0000   1.0000   1.0000
     1.0000   1.0000   1.0000   1.0000   1.0000   1.0000   1.0000   1.0000
     1.0000   1.0000   1.0000   1.0000   1.0000   1.0000   1.0000   1.0000
     1.0000   1.0000   1.0000   1.0000   1.0000   1.0000   1.0000   1.0000
     1.0000   1.0000   1.0000   1.0000   1.0000   0.0000   0.0000   0.0000
     0.0000   0.0000   0.0000   0.0000   0.0000   0.0000   0.0000   0.0000
     0.0000   0.0000

          k = 0.0839 0.0723-0.0797 ( 20395 PWs)   bands (ev):

  -103.2068 -65.3444 -65.2551 -65.2531 -61.3218 -61.2849 -59.7360 -34.0832
   -34.0298 -33.9979 -29.6806 -29.5712 -29.5475 -29.5056 -29.4711 -29.4273
    -9.1717  -8.0893  -7.8181  -7.6116  -7.3936  -7.2895  -7.2182  -7.0317
     0.2919   1.3713   1.8027   1.9528   1.9929   3.1872   3.6292   3.7889
     4.2284   4.3614   4.6532   4.8884   5.3646   5.7516   5.8341   6.0576
     6.2556   6.6365   6.7527   6.8563   7.0429   7.4301   7.5738   8.0073
     8.3200   8.4569   8.4970   8.7629   8.9940  11.9805  12.1663  12.3401
    12.8272  13.1227  13.3942  15.0311  15.4000  15.4817  15.6347  16.0338
    16.2679  16.4897

     occupation numbers 
     1.0000   1.0000   1.0000   1.0000   1.0000   1.0000   1.0000   1.0000
     1.0000   1.0000   1.0000   1.0000   1.0000   1.0000   1.0000   1.0000
     1.0000   1.0000   1.0000   1.0000   1.0000   1.0000   1.0000   1.0000
     1.0000   1.0000   1.0000   1.0000   1.0000   1.0000   1.0000   1.0000
     1.0000   1.0000   1.0000   1.0000   1.0000   1.0000   1.0000   1.0000
     1.0000   1.0000   1.0000   1.0000   1.0000   1.0000   1.0000   1.0000
     1.0000   1.0000   1.0000   1.0000   1.0000   0.0000   0.0000   0.0000
     0.0000   0.0000   0.0000   0.0000   0.0000   0.0000   0.0000   0.0000
     0.0000   0.0000

          k = 0.0829 0.2214 0.0623 ( 20394 PWs)   bands (ev):

  -103.2068 -65.3443 -65.2550 -65.2533 -61.3218 -61.2849 -59.7360 -34.0832
   -34.0298 -33.9979 -29.6808 -29.5711 -29.5466 -29.5062 -29.4708 -29.4284
    -9.0835  -8.0480  -7.8537  -7.6850  -7.4434  -7.3552  -7.1910  -7.0171
     0.3444   1.3805   1.8383   1.9578   2.0160   3.3996   3.6297   3.9089
     4.1050   4.2804   4.5693   5.0852   5.3742   5.6533   5.8224   5.9627
     6.2531   6.5809   6.8556   6.9863   7.1763   7.4501   7.5911   7.9702
     8.1653   8.2290   8.3225   8.6142   8.9086  11.9254  12.2867  12.3824
    12.8603  13.1082  13.3338  15.2170  15.3230  15.5213  15.6515  16.0242
    16.3185  16.5544

     occupation numbers 
     1.0000   1.0000   1.0000   1.0000   1.0000   1.0000   1.0000   1.0000
     1.0000   1.0000   1.0000   1.0000   1.0000   1.0000   1.0000   1.0000
     1.0000   1.0000   1.0000   1.0000   1.0000   1.0000   1.0000   1.0000
     1.0000   1.0000   1.0000   1.0000   1.0000   1.0000   1.0000   1.0000
     1.0000   1.0000   1.0000   1.0000   1.0000   1.0000   1.0000   1.0000
     1.0000   1.0000   1.0000   1.0000   1.0000   1.0000   1.0000   1.0000
     1.0000   1.0000   1.0000   1.0000   1.0000   0.0000   0.0000   0.0000
     0.0000   0.0000   0.0000   0.0000   0.0000   0.0000   0.0000   0.0000
     0.0000   0.0000

          k = 0.0818 0.2214 0.2079 ( 20411 PWs)   bands (ev):

  -103.2068 -65.3442 -65.2550 -65.2534 -61.3218 -61.2849 -59.7360 -34.0832
   -34.0298 -33.9979 -29.6796 -29.5700 -29.5513 -29.5075 -29.4682 -29.4275
    -8.9733  -8.0669  -8.0085  -7.6893  -7.4398  -7.3009  -7.1928  -7.0204
     0.3228   1.3776   1.8780   1.9470   2.0165   3.4039   3.5692   3.9308
     4.1987   4.4007   4.4681   5.1358   5.3288   5.5177   5.9475   6.0531
     6.3158   6.5746   6.8242   6.9028   7.0822   7.2578   7.7695   7.9008
     8.1108   8.2711   8.4004   8.6379   8.8749  11.8978  12.3744  12.4528
    12.8277  13.0624  13.1697  15.2568  15.4351  15.5714  15.6465  15.8969
    16.3867  16.5673

     occupation numbers 
     1.0000   1.0000   1.0000   1.0000   1.0000   1.0000   1.0000   1.0000
     1.0000   1.0000   1.0000   1.0000   1.0000   1.0000   1.0000   1.0000
     1.0000   1.0000   1.0000   1.0000   1.0000   1.0000   1.0000   1.0000
     1.0000   1.0000   1.0000   1.0000   1.0000   1.0000   1.0000   1.0000
     1.0000   1.0000   1.0000   1.0000   1.0000   1.0000   1.0000   1.0000
     1.0000   1.0000   1.0000   1.0000   1.0000   1.0000   1.0000   1.0000
     1.0000   1.0000   1.0000   1.0000   1.0000   0.0000   0.0000   0.0000
     0.0000   0.0000   0.0000   0.0000   0.0000   0.0000   0.0000   0.0000
     0.0000   0.0000

          k = 0.0807 0.2213 0.3534 ( 20403 PWs)   bands (ev):

  -103.2068 -65.3442 -65.2550 -65.2534 -61.3218 -61.2849 -59.7360 -34.0832
   -34.0298 -33.9979 -29.6775 -29.5687 -29.5566 -29.5094 -29.4661 -29.4262
    -8.7705  -8.2953  -8.0403  -7.7126  -7.4180  -7.2664  -7.1882  -7.0180
     0.2852   1.3682   1.9116   1.9558   2.0228   3.3598   3.6299   3.9300
     4.1803   4.4459   4.7069   5.0482   5.4222   5.6221   5.9393   6.0018
     6.1028   6.3507   6.7772   7.0020   7.0515   7.2671   7.6776   8.0445
     8.1115   8.3060   8.4835   8.5915   8.7994  11.9460  12.1767  12.5824
    12.8953  12.9581  13.0329  15.3652  15.4042  15.6615  15.7193  15.8862
    16.5191  16.6593

     occupation numbers 
     1.0000   1.0000   1.0000   1.0000   1.0000   1.0000   1.0000   1.0000
     1.0000   1.0000   1.0000   1.0000   1.0000   1.0000   1.0000   1.0000
     1.0000   1.0000   1.0000   1.0000   1.0000   1.0000   1.0000   1.0000
     1.0000   1.0000   1.0000   1.0000   1.0000   1.0000   1.0000   1.0000
     1.0000   1.0000   1.0000   1.0000   1.0000   1.0000   1.0000   1.0000
     1.0000   1.0000   1.0000   1.0000   1.0000   1.0000   1.0000   1.0000
     1.0000   1.0000   1.0000   1.0000   1.0000   0.0000   0.0000   0.0000
     0.0000   0.0000   0.0000   0.0000   0.0000   0.0000   0.0000   0.0000
     0.0000   0.0000

          k = 0.0862 0.2214-0.3743 ( 20399 PWs)   bands (ev):

  -103.2068 -65.3442 -65.2550 -65.2534 -61.3218 -61.2849 -59.7360 -34.0832
   -34.0298 -33.9979 -29.6767 -29.5687 -29.5569 -29.5100 -29.4668 -29.4254
    -8.7045  -8.3855  -8.0397  -7.6914  -7.3909  -7.3102  -7.1951  -6.9948
     0.2693   1.3626   1.9130   1.9602   2.0369   3.4087   3.6512   3.8778
     4.2087   4.3787   4.8244   5.1890   5.3086   5.6183   5.7554   6.0204
     6.1321   6.4343   6.6277   7.0810   7.1489   7.3483   7.4945   7.8926
     8.2499   8.3196   8.4910   8.6422   8.7173  11.8358  12.2817  12.6060
    12.8003  12.9085  13.0933  15.3452  15.5442  15.6441  15.7813  15.9398
    16.5336  16.6551

     occupation numbers 
     1.0000   1.0000   1.0000   1.0000   1.0000   1.0000   1.0000   1.0000
     1.0000   1.0000   1.0000   1.0000   1.0000   1.0000   1.0000   1.0000
     1.0000   1.0000   1.0000   1.0000   1.0000   1.0000   1.0000   1.0000
     1.0000   1.0000   1.0000   1.0000   1.0000   1.0000   1.0000   1.0000
     1.0000   1.0000   1.0000   1.0000   1.0000   1.0000   1.0000   1.0000
     1.0000   1.0000   1.0000   1.0000   1.0000   1.0000   1.0000   1.0000
     1.0000   1.0000   1.0000   1.0000   1.0000   0.0000   0.0000   0.0000
     0.0000   0.0000   0.0000   0.0000   0.0000   0.0000   0.0000   0.0000
     0.0000   0.0000

          k = 0.0851 0.2214-0.2288 ( 20426 PWs)   bands (ev):

  -103.2068 -65.3442 -65.2550 -65.2534 -61.3218 -61.2849 -59.7360 -34.0832
   -34.0298 -33.9979 -29.6780 -29.5700 -29.5520 -29.5086 -29.4696 -29.4260
    -8.9185  -8.1688  -8.0047  -7.6633  -7.3913  -7.3512  -7.2165  -6.9831
     0.2896   1.3670   1.8838   1.9529   2.0436   3.4511   3.6778   3.8832
     4.1233   4.4016   4.6764   5.0231   5.3605   5.4340   5.8896   6.1715
     6.3275   6.5505   6.6898   6.9549   7.0797   7.3503   7.6247   7.7261
     8.2336   8.3422   8.4187   8.6451   8.7804  11.7875  12.3697  12.5482
    12.7902  12.9178  13.2297  15.2964  15.5708  15.6499  15.7927  16.0629
    16.2864  16.5623

     occupation numbers 
     1.0000   1.0000   1.0000   1.0000   1.0000   1.0000   1.0000   1.0000
     1.0000   1.0000   1.0000   1.0000   1.0000   1.0000   1.0000   1.0000
     1.0000   1.0000   1.0000   1.0000   1.0000   1.0000   1.0000   1.0000
     1.0000   1.0000   1.0000   1.0000   1.0000   1.0000   1.0000   1.0000
     1.0000   1.0000   1.0000   1.0000   1.0000   1.0000   1.0000   1.0000
     1.0000   1.0000   1.0000   1.0000   1.0000   1.0000   1.0000   1.0000
     1.0000   1.0000   1.0000   1.0000   1.0000   0.0000   0.0000   0.0000
     0.0000   0.0000   0.0000   0.0000   0.0000   0.0000   0.0000   0.0000
     0.0000   0.0000

          k = 0.0840 0.2214-0.0832 ( 20404 PWs)   bands (ev):

  -103.2068 -65.3443 -65.2550 -65.2533 -61.3218 -61.2849 -59.7360 -34.0832
   -34.0298 -33.9979 -29.6800 -29.5711 -29.5470 -29.5066 -29.4717 -29.4276
    -9.0644  -8.0722  -7.8448  -7.7218  -7.4112  -7.3447  -7.2229  -6.9976
     0.3272   1.3756   1.8414   1.9599   2.0297   3.3919   3.7558   3.8452
     4.1756   4.2688   4.5347   4.9754   5.4723   5.6318   5.8536   5.9780
     6.2945   6.4733   6.8822   6.9470   7.2218   7.3569   7.6096   7.9329
     8.1513   8.2627   8.3665   8.6073   8.8757  11.9000  12.2061  12.4399
    12.8935  13.0274  13.3516  15.2372  15.4277  15.5559  15.7088  16.1337
    16.3283  16.4306

     occupation numbers 
     1.0000   1.0000   1.0000   1.0000   1.0000   1.0000   1.0000   1.0000
     1.0000   1.0000   1.0000   1.0000   1.0000   1.0000   1.0000   1.0000
     1.0000   1.0000   1.0000   1.0000   1.0000   1.0000   1.0000   1.0000
     1.0000   1.0000   1.0000   1.0000   1.0000   1.0000   1.0000   1.0000
     1.0000   1.0000   1.0000   1.0000   1.0000   1.0000   1.0000   1.0000
     1.0000   1.0000   1.0000   1.0000   1.0000   1.0000   1.0000   1.0000
     1.0000   1.0000   1.0000   1.0000   1.0000   0.0000   0.0000   0.0000
     0.0000   0.0000   0.0000   0.0000   0.0000   0.0000   0.0000   0.0000
     0.0000   0.0000

          k = 0.0830 0.3705 0.0588 ( 20393 PWs)   bands (ev):

  -103.2068 -65.3441 -65.2547 -65.2535 -61.3218 -61.2849 -59.7360 -34.0832
   -34.0298 -33.9979 -29.6803 -29.5710 -29.5460 -29.5071 -29.4714 -29.4286
    -8.9360  -8.0983  -7.9185  -7.7114  -7.4664  -7.4239  -7.2024  -6.9768
     0.3833   1.3925   1.8741   1.9653   2.0444   3.6027   3.6961   3.9268
     4.1151   4.3707   4.4872   5.1035   5.3952   5.5580   5.8291   5.8994
     6.1930   6.6954   6.8782   7.1278   7.1675   7.4273   7.5633   7.8377
     7.9280   8.0427   8.1970   8.5919   8.7936  11.8801  12.3443  12.5260
    12.8551  13.0209  13.2932  15.2380  15.4510  15.6501  15.7629  16.0642
    16.4066  16.6445

     occupation numbers 
     1.0000   1.0000   1.0000   1.0000   1.0000   1.0000   1.0000   1.0000
     1.0000   1.0000   1.0000   1.0000   1.0000   1.0000   1.0000   1.0000
     1.0000   1.0000   1.0000   1.0000   1.0000   1.0000   1.0000   1.0000
     1.0000   1.0000   1.0000   1.0000   1.0000   1.0000   1.0000   1.0000
     1.0000   1.0000   1.0000   1.0000   1.0000   1.0000   1.0000   1.0000
     1.0000   1.0000   1.0000   1.0000   1.0000   1.0000   1.0000   1.0000
     1.0000   1.0000   1.0000   1.0000   1.0000   0.0000   0.0000   0.0000
     0.0000   0.0000   0.0000   0.0000   0.0000   0.0000   0.0000   0.0000
     0.0000   0.0000

          k = 0.0819 0.3705 0.2044 ( 20401 PWs)   bands (ev):

  -103.2068 -65.3441 -65.2547 -65.2537 -61.3218 -61.2849 -59.7360 -34.0832
   -34.0298 -33.9979 -29.6796 -29.5701 -29.5515 -29.5080 -29.4684 -29.4270
    -8.8462  -8.1493  -7.9552  -7.6990  -7.4555  -7.4448  -7.2026  -6.9969
     0.3549   1.3900   1.9058   1.9665   2.0609   3.4500   3.5838   3.9264
     4.3258   4.5328   4.6224   5.0734   5.3771   5.6586   5.7705   5.9148
     6.1643   6.6170   6.8116   6.9862   7.1803   7.3360   7.6120   7.8413
     7.9823   8.0072   8.2559   8.5784   8.7640  11.8548  12.4001  12.5642
    12.7845  13.0346  13.1679  15.3312  15.5152  15.5829  15.7401  16.0717
    16.4709  16.6719

     occupation numbers 
     1.0000   1.0000   1.0000   1.0000   1.0000   1.0000   1.0000   1.0000
     1.0000   1.0000   1.0000   1.0000   1.0000   1.0000   1.0000   1.0000
     1.0000   1.0000   1.0000   1.0000   1.0000   1.0000   1.0000   1.0000
     1.0000   1.0000   1.0000   1.0000   1.0000   1.0000   1.0000   1.0000
     1.0000   1.0000   1.0000   1.0000   1.0000   1.0000   1.0000   1.0000
     1.0000   1.0000   1.0000   1.0000   1.0000   1.0000   1.0000   1.0000
     1.0000   1.0000   1.0000   1.0000   1.0000   0.0000   0.0000   0.0000
     0.0000   0.0000   0.0000   0.0000   0.0000   0.0000   0.0000   0.0000
     0.0000   0.0000

          k = 0.0808 0.3705 0.3499 ( 20419 PWs)   bands (ev):

  -103.2068 -65.3441 -65.2547 -65.2538 -61.3218 -61.2849 -59.7360 -34.0832
   -34.0298 -33.9979 -29.6783 -29.5691 -29.5574 -29.5092 -29.4655 -29.4254
    -8.6940  -8.2807  -7.9546  -7.7277  -7.4715  -7.4306  -7.1924  -7.0164
     0.3131   1.3812   1.9409   1.9758   2.0829   3.4432   3.5451   3.9402
     4.1691   4.6391   4.9482   5.1457   5.4900   5.5810   5.8270   6.0365
     6.0907   6.3681   6.6663   6.8781   7.0931   7.2774   7.5257   7.8946
     8.0425   8.1311   8.4154   8.5038   8.6773  11.8826  12.1691  12.5687
    12.8387  13.0323  13.1116  15.4037  15.5234  15.6480  15.7354  16.1069
    16.4794  16.6304

     occupation numbers 
     1.0000   1.0000   1.0000   1.0000   1.0000   1.0000   1.0000   1.0000
     1.0000   1.0000   1.0000   1.0000   1.0000   1.0000   1.0000   1.0000
     1.0000   1.0000   1.0000   1.0000   1.0000   1.0000   1.0000   1.0000
     1.0000   1.0000   1.0000   1.0000   1.0000   1.0000   1.0000   1.0000
     1.0000   1.0000   1.0000   1.0000   1.0000   1.0000   1.0000   1.0000
     1.0000   1.0000   1.0000   1.0000   1.0000   1.0000   1.0000   1.0000
     1.0000   1.0000   1.0000   1.0000   1.0000   0.0000   0.0000   0.0000
     0.0000   0.0000   0.0000   0.0000   0.0000   0.0000   0.0000   0.0000
     0.0000   0.0000

          k = 0.0862 0.3705-0.3778 ( 20418 PWs)   bands (ev):

  -103.2068 -65.3441 -65.2547 -65.2538 -61.3218 -61.2849 -59.7360 -34.0832
   -34.0298 -33.9978 -29.6779 -29.5692 -29.5576 -29.5095 -29.4659 -29.4250
    -8.6568  -8.3063  -8.0104  -7.6418  -7.4947  -7.4514  -7.2175  -6.9922
     0.2989   1.3756   1.9417   1.9788   2.1013   3.4385   3.6878   3.9048
     4.1438   4.5171   4.9840   5.2706   5.3643   5.6255   5.7468   5.9548
     6.1854   6.4961   6.7690   6.8401   6.9379   7.3648   7.4433   7.8156
     8.1326   8.2090   8.3023   8.5034   8.6737  11.8363  12.1472  12.5874
    12.7616  13.0350  13.1593  15.3464  15.6353  15.6795  15.8035  16.0960
    16.3411  16.7260

     occupation numbers 
     1.0000   1.0000   1.0000   1.0000   1.0000   1.0000   1.0000   1.0000
     1.0000   1.0000   1.0000   1.0000   1.0000   1.0000   1.0000   1.0000
     1.0000   1.0000   1.0000   1.0000   1.0000   1.0000   1.0000   1.0000
     1.0000   1.0000   1.0000   1.0000   1.0000   1.0000   1.0000   1.0000
     1.0000   1.0000   1.0000   1.0000   1.0000   1.0000   1.0000   1.0000
     1.0000   1.0000   1.0000   1.0000   1.0000   1.0000   1.0000   1.0000
     1.0000   1.0000   1.0000   1.0000   1.0000   0.0000   0.0000   0.0000
     0.0000   0.0000   0.0000   0.0000   0.0000   0.0000   0.0000   0.0000
     0.0000   0.0000

          k = 0.0852 0.3705-0.2323 ( 20414 PWs)   bands (ev):

  -103.2068 -65.3441 -65.2547 -65.2537 -61.3218 -61.2849 -59.7360 -34.0832
   -34.0298 -33.9979 -29.6788 -29.5702 -29.5519 -29.5085 -29.4691 -29.4262
    -8.8058  -8.1677  -8.0129  -7.6155  -7.5095  -7.4508  -7.2285  -6.9648
     0.3251   1.3794   1.9142   1.9665   2.0937   3.5225   3.7459   3.8864
     4.2690   4.4634   4.7330   4.9426   5.2824   5.4267   5.9100   6.0998
     6.2525   6.6867   6.7925   6.9896   7.1407   7.3265   7.4886   7.7614
     7.9720   8.1029   8.2866   8.5005   8.7542  11.7783  12.3580  12.5583
    12.7570  12.9157  13.2816  15.2510  15.6186  15.7354  15.8891  16.0594
    16.3240  16.6772

     occupation numbers 
     1.0000   1.0000   1.0000   1.0000   1.0000   1.0000   1.0000   1.0000
     1.0000   1.0000   1.0000   1.0000   1.0000   1.0000   1.0000   1.0000
     1.0000   1.0000   1.0000   1.0000   1.0000   1.0000   1.0000   1.0000
     1.0000   1.0000   1.0000   1.0000   1.0000   1.0000   1.0000   1.0000
     1.0000   1.0000   1.0000   1.0000   1.0000   1.0000   1.0000   1.0000
     1.0000   1.0000   1.0000   1.0000   1.0000   1.0000   1.0000   1.0000
     1.0000   1.0000   1.0000   1.0000   1.0000   0.0000   0.0000   0.0000
     0.0000   0.0000   0.0000   0.0000   0.0000   0.0000   0.0000   0.0000
     0.0000   0.0000

          k = 0.0841 0.3705-0.0867 ( 20380 PWs)   bands (ev):

  -103.2068 -65.3441 -65.2547 -65.2535 -61.3218 -61.2849 -59.7360 -34.0833
   -34.0298 -33.9979 -29.6799 -29.5710 -29.5462 -29.5073 -29.4718 -29.4282
    -8.9211  -8.1203  -7.8693  -7.7707  -7.4584  -7.4161  -7.2178  -6.9630
     0.3676   1.3875   1.8791   1.9645   2.0593   3.6337   3.8290   3.9059
     4.1464   4.2475   4.4852   5.0594   5.3826   5.5031   5.8043   6.0162
     6.1391   6.8711   6.9169   7.1189   7.1775   7.2703   7.5335   7.7855
     7.9266   8.1392   8.1644   8.5681   8.7861  11.8456  12.2999  12.5735
    12.8329  12.9456  13.3392  15.2007  15.4997  15.7049  15.8476  16.1289
    16.3526  16.5901

     occupation numbers 
     1.0000   1.0000   1.0000   1.0000   1.0000   1.0000   1.0000   1.0000
     1.0000   1.0000   1.0000   1.0000   1.0000   1.0000   1.0000   1.0000
     1.0000   1.0000   1.0000   1.0000   1.0000   1.0000   1.0000   1.0000
     1.0000   1.0000   1.0000   1.0000   1.0000   1.0000   1.0000   1.0000
     1.0000   1.0000   1.0000   1.0000   1.0000   1.0000   1.0000   1.0000
     1.0000   1.0000   1.0000   1.0000   1.0000   1.0000   1.0000   1.0000
     1.0000   1.0000   1.0000   1.0000   1.0000   0.0000   0.0000   0.0000
     0.0000   0.0000   0.0000   0.0000   0.0000   0.0000   0.0000   0.0000
     0.0000   0.0000

          k = 0.0827-0.3751 0.0763 ( 20379 PWs)   bands (ev):

  -103.2068 -65.3441 -65.2547 -65.2536 -61.3218 -61.2849 -59.7360 -34.0832
   -34.0298 -33.9979 -29.6800 -29.5710 -29.5461 -29.5073 -29.4718 -29.4283
    -8.9108  -8.1545  -7.8939  -7.7076  -7.4950  -7.4125  -7.1870  -6.9745
     0.3898   1.3912   1.8798   1.9620   2.0455   3.6587   3.7843   3.8492
     4.0445   4.3151   4.5521   5.0136   5.4159   5.5354   5.8681   5.9304
     6.1749   6.7247   6.8785   7.1237   7.1744   7.4379   7.5493   7.8191
     7.9564   8.0179   8.2135   8.6401   8.7445  11.8670  12.2972  12.5956
    12.9278  12.9361  13.3046  15.2537  15.4475  15.6318  15.7561  16.2037
    16.2388  16.6876

     occupation numbers 
     1.0000   1.0000   1.0000   1.0000   1.0000   1.0000   1.0000   1.0000
     1.0000   1.0000   1.0000   1.0000   1.0000   1.0000   1.0000   1.0000
     1.0000   1.0000   1.0000   1.0000   1.0000   1.0000   1.0000   1.0000
     1.0000   1.0000   1.0000   1.0000   1.0000   1.0000   1.0000   1.0000
     1.0000   1.0000   1.0000   1.0000   1.0000   1.0000   1.0000   1.0000
     1.0000   1.0000   1.0000   1.0000   1.0000   1.0000   1.0000   1.0000
     1.0000   1.0000   1.0000   1.0000   1.0000   0.0000   0.0000   0.0000
     0.0000   0.0000   0.0000   0.0000   0.0000   0.0000   0.0000   0.0000
     0.0000   0.0000

          k = 0.0816-0.3751 0.2219 ( 20415 PWs)   bands (ev):

  -103.2068 -65.3441 -65.2547 -65.2537 -61.3218 -61.2849 -59.7360 -34.0832
   -34.0298 -33.9979 -29.6789 -29.5702 -29.5518 -29.5085 -29.4691 -29.4263
    -8.7991  -8.2356  -7.9491  -7.6241  -7.5703  -7.3923  -7.1881  -6.9931
     0.3626   1.3883   1.9127   1.9627   2.0617   3.4689   3.6590   3.8753
     4.2717   4.4943   4.6307   5.0864   5.3687   5.5552   5.8097   5.9399
     6.1900   6.6559   6.8574   6.9838   7.1834   7.3126   7.5298   7.8732
     8.0009   8.0531   8.2389   8.6122   8.7127  11.8212  12.4175  12.5948
    12.8346  12.9661  13.1885  15.3405  15.4986  15.5696  15.7392  16.1689
    16.3483  16.6304

     occupation numbers 
     1.0000   1.0000   1.0000   1.0000   1.0000   1.0000   1.0000   1.0000
     1.0000   1.0000   1.0000   1.0000   1.0000   1.0000   1.0000   1.0000
     1.0000   1.0000   1.0000   1.0000   1.0000   1.0000   1.0000   1.0000
     1.0000   1.0000   1.0000   1.0000   1.0000   1.0000   1.0000   1.0000
     1.0000   1.0000   1.0000   1.0000   1.0000   1.0000   1.0000   1.0000
     1.0000   1.0000   1.0000   1.0000   1.0000   1.0000   1.0000   1.0000
     1.0000   1.0000   1.0000   1.0000   1.0000   0.0000   0.0000   0.0000
     0.0000   0.0000   0.0000   0.0000   0.0000   0.0000   0.0000   0.0000
     0.0000   0.0000

          k = 0.0805-0.3751 0.3674 ( 20422 PWs)   bands (ev):

  -103.2068 -65.3441 -65.2547 -65.2538 -61.3218 -61.2849 -59.7360 -34.0832
   -34.0298 -33.9979 -29.6780 -29.5692 -29.5575 -29.5095 -29.4658 -29.4250
    -8.6430  -8.3472  -7.9210  -7.7132  -7.5953  -7.3555  -7.1824  -7.0126
     0.3197   1.3793   1.9512   1.9704   2.0846   3.4286   3.6060   3.8703
     4.1779   4.6305   4.9899   5.1726   5.3909   5.6165   5.7868   6.0131
     6.1057   6.4114   6.6510   6.9539   7.0432   7.3256   7.4406   7.9096
     8.0578   8.1709   8.4225   8.5057   8.6346  11.8560  12.2003  12.5936
    12.8188  13.0269  13.1197  15.3605  15.5475  15.6522  15.7319  16.1063
    16.4989  16.6266

     occupation numbers 
     1.0000   1.0000   1.0000   1.0000   1.0000   1.0000   1.0000   1.0000
     1.0000   1.0000   1.0000   1.0000   1.0000   1.0000   1.0000   1.0000
     1.0000   1.0000   1.0000   1.0000   1.0000   1.0000   1.0000   1.0000
     1.0000   1.0000   1.0000   1.0000   1.0000   1.0000   1.0000   1.0000
     1.0000   1.0000   1.0000   1.0000   1.0000   1.0000   1.0000   1.0000
     1.0000   1.0000   1.0000   1.0000   1.0000   1.0000   1.0000   1.0000
     1.0000   1.0000   1.0000   1.0000   1.0000   0.0000   0.0000   0.0000
     0.0000   0.0000   0.0000   0.0000   0.0000   0.0000   0.0000   0.0000
     0.0000   0.0000

          k = 0.0859-0.3750-0.3604 ( 20416 PWs)   bands (ev):

  -103.2068 -65.3441 -65.2547 -65.2539 -61.3218 -61.2849 -59.7360 -34.0832
   -34.0298 -33.9978 -29.6784 -29.5692 -29.5574 -29.5091 -29.4656 -29.4254
    -8.6752  -8.2729  -7.9220  -7.7576  -7.5888  -7.3538  -7.2133  -6.9898
     0.3035   1.3739   1.9526   1.9745   2.1035   3.4181   3.6651   3.9272
     4.1294   4.5667   5.0167   5.2281   5.3402   5.6605   5.7650   5.9734
     6.1500   6.4808   6.7178   6.8139   6.9736   7.3300   7.4903   7.8293
     8.1113   8.2336   8.3492   8.4530   8.6721  11.8809  12.0970  12.5978
    12.7485  13.0384  13.1655  15.3088  15.6366  15.6966  15.8040  16.0358
    16.4369  16.7629

     occupation numbers 
     1.0000   1.0000   1.0000   1.0000   1.0000   1.0000   1.0000   1.0000
     1.0000   1.0000   1.0000   1.0000   1.0000   1.0000   1.0000   1.0000
     1.0000   1.0000   1.0000   1.0000   1.0000   1.0000   1.0000   1.0000
     1.0000   1.0000   1.0000   1.0000   1.0000   1.0000   1.0000   1.0000
     1.0000   1.0000   1.0000   1.0000   1.0000   1.0000   1.0000   1.0000
     1.0000   1.0000   1.0000   1.0000   1.0000   1.0000   1.0000   1.0000
     1.0000   1.0000   1.0000   1.0000   1.0000   0.0000   0.0000   0.0000
     0.0000   0.0000   0.0000   0.0000   0.0000   0.0000   0.0000   0.0000
     0.0000   0.0000

          k = 0.0849-0.3750-0.2148 ( 20402 PWs)   bands (ev):

  -103.2068 -65.3441 -65.2547 -65.2537 -61.3218 -61.2849 -59.7360 -34.0832
   -34.0298 -33.9979 -29.6797 -29.5702 -29.5515 -29.5080 -29.4685 -29.4270
    -8.8261  -8.0853  -8.0010  -7.6948  -7.5585  -7.4274  -7.2015  -6.9633
     0.3286   1.3781   1.9211   1.9659   2.0962   3.4952   3.6743   3.9368
     4.3322   4.4635   4.7601   4.9158   5.2626   5.5310   5.8537   6.0899
     6.1799   6.6620   6.7921   7.0234   7.0935   7.3681   7.5411   7.7566
     7.9634   8.0959   8.2651   8.5088   8.7583  11.8148  12.3269  12.5443
    12.7061  12.9727  13.2773  15.2338  15.6169  15.7378  15.8783  16.0174
    16.4695  16.6658

     occupation numbers 
     1.0000   1.0000   1.0000   1.0000   1.0000   1.0000   1.0000   1.0000
     1.0000   1.0000   1.0000   1.0000   1.0000   1.0000   1.0000   1.0000
     1.0000   1.0000   1.0000   1.0000   1.0000   1.0000   1.0000   1.0000
     1.0000   1.0000   1.0000   1.0000   1.0000   1.0000   1.0000   1.0000
     1.0000   1.0000   1.0000   1.0000   1.0000   1.0000   1.0000   1.0000
     1.0000   1.0000   1.0000   1.0000   1.0000   1.0000   1.0000   1.0000
     1.0000   1.0000   1.0000   1.0000   1.0000   0.0000   0.0000   0.0000
     0.0000   0.0000   0.0000   0.0000   0.0000   0.0000   0.0000   0.0000
     0.0000   0.0000

          k = 0.0838-0.3750-0.0693 ( 20388 PWs)   bands (ev):

  -103.2068 -65.3441 -65.2547 -65.2536 -61.3218 -61.2849 -59.7360 -34.0832
   -34.0298 -33.9979 -29.6804 -29.5711 -29.5459 -29.5071 -29.4714 -29.4286
    -8.9197  -8.1022  -7.8705  -7.7644  -7.5057  -7.4277  -7.1871  -6.9615
     0.3720   1.3865   1.8844   1.9631   2.0614   3.6774   3.7255   3.9055
     4.2192   4.2983   4.4065   5.1393   5.3499   5.5047   5.7614   6.0077
     6.1014   6.8575   6.9300   7.1457   7.1664   7.3172   7.5440   7.7835
     7.9510   8.0521   8.1930   8.5964   8.7686  11.8499  12.3463  12.5007
    12.8241  12.9679  13.3442  15.2021  15.5086  15.7055  15.8178  16.1416
    16.4001  16.5931

     occupation numbers 
     1.0000   1.0000   1.0000   1.0000   1.0000   1.0000   1.0000   1.0000
     1.0000   1.0000   1.0000   1.0000   1.0000   1.0000   1.0000   1.0000
     1.0000   1.0000   1.0000   1.0000   1.0000   1.0000   1.0000   1.0000
     1.0000   1.0000   1.0000   1.0000   1.0000   1.0000   1.0000   1.0000
     1.0000   1.0000   1.0000   1.0000   1.0000   1.0000   1.0000   1.0000
     1.0000   1.0000   1.0000   1.0000   1.0000   1.0000   1.0000   1.0000
     1.0000   1.0000   1.0000   1.0000   1.0000   0.0000   0.0000   0.0000
     0.0000   0.0000   0.0000   0.0000   0.0000   0.0000   0.0000   0.0000
     0.0000   0.0000

          k = 0.0827-0.2259 0.0728 ( 20385 PWs)   bands (ev):

  -103.2068 -65.3442 -65.2549 -65.2533 -61.3218 -61.2849 -59.7360 -34.0832
   -34.0298 -33.9979 -29.6802 -29.5711 -29.5469 -29.5065 -29.4716 -29.4276
    -9.0504  -8.0799  -7.8849  -7.6897  -7.4260  -7.3776  -7.1625  -7.0100
     0.3575   1.3780   1.8487   1.9517   2.0187   3.4651   3.6999   3.9186
     3.9535   4.2730   4.5761   4.9483   5.4050   5.6362   5.8839   6.0643
     6.1056   6.6623   6.8449   7.0047   7.2103   7.4074   7.6117   7.9669
     8.1609   8.2582   8.3326   8.6246   8.8708  11.9006  12.1967  12.5010
    12.8902  13.0764  13.3493  15.2224  15.3860  15.4613  15.6622  16.0926
    16.1856  16.5723

     occupation numbers 
     1.0000   1.0000   1.0000   1.0000   1.0000   1.0000   1.0000   1.0000
     1.0000   1.0000   1.0000   1.0000   1.0000   1.0000   1.0000   1.0000
     1.0000   1.0000   1.0000   1.0000   1.0000   1.0000   1.0000   1.0000
     1.0000   1.0000   1.0000   1.0000   1.0000   1.0000   1.0000   1.0000
     1.0000   1.0000   1.0000   1.0000   1.0000   1.0000   1.0000   1.0000
     1.0000   1.0000   1.0000   1.0000   1.0000   1.0000   1.0000   1.0000
     1.0000   1.0000   1.0000   1.0000   1.0000   0.0000   0.0000   0.0000
     0.0000   0.0000   0.0000   0.0000   0.0000   0.0000   0.0000   0.0000
     0.0000   0.0000

          k = 0.0817-0.2260 0.2184 ( 20411 PWs)   bands (ev):

  -103.2068 -65.3442 -65.2549 -65.2534 -61.3218 -61.2849 -59.7360 -34.0832
   -34.0298 -33.9979 -29.6782 -29.5700 -29.5518 -29.5086 -29.4696 -29.4261
    -8.9098  -8.1961  -7.9795  -7.6833  -7.4462  -7.3185  -7.1535  -7.0091
     0.3383   1.3743   1.8916   1.9397   2.0177   3.4858   3.6461   3.8453
     4.1133   4.3569   4.4747   5.1700   5.2598   5.4416   5.9189   6.1182
     6.3522   6.6501   6.7821   6.9737   7.0468   7.2700   7.7677   7.8872
     8.1040   8.2763   8.4725   8.6364   8.8114  11.8360  12.3620  12.5844
    12.8340  12.9898  13.2123  15.2482  15.4122  15.5385  15.7064  15.9824
    16.2201  16.5951

     occupation numbers 
     1.0000   1.0000   1.0000   1.0000   1.0000   1.0000   1.0000   1.0000
     1.0000   1.0000   1.0000   1.0000   1.0000   1.0000   1.0000   1.0000
     1.0000   1.0000   1.0000   1.0000   1.0000   1.0000   1.0000   1.0000
     1.0000   1.0000   1.0000   1.0000   1.0000   1.0000   1.0000   1.0000
     1.0000   1.0000   1.0000   1.0000   1.0000   1.0000   1.0000   1.0000
     1.0000   1.0000   1.0000   1.0000   1.0000   1.0000   1.0000   1.0000
     1.0000   1.0000   1.0000   1.0000   1.0000   0.0000   0.0000   0.0000
     0.0000   0.0000   0.0000   0.0000   0.0000   0.0000   0.0000   0.0000
     0.0000   0.0000

          k = 0.0806-0.2260 0.3639 ( 20412 PWs)   bands (ev):

  -103.2068 -65.3441 -65.2549 -65.2535 -61.3218 -61.2849 -59.7360 -34.0832
   -34.0298 -33.9979 -29.6769 -29.5688 -29.5567 -29.5100 -29.4667 -29.4255
    -8.6861  -8.4044  -7.9780  -7.7553  -7.4881  -7.2498  -7.1420  -7.0100
     0.2987   1.3646   1.9324   1.9453   2.0257   3.3912   3.6046   3.9276
     4.1398   4.4550   4.7415   5.0786   5.4311   5.4903   5.8122   6.0318
     6.2305   6.4371   6.6056   7.0375   7.1553   7.2955   7.6099   8.0278
     8.1365   8.3300   8.5455   8.5787   8.7306  11.8954  12.2430  12.6150
    12.8427  12.9657  13.0556  15.2467  15.4718  15.6703  15.7091  15.9271
    16.5524  16.6183

     occupation numbers 
     1.0000   1.0000   1.0000   1.0000   1.0000   1.0000   1.0000   1.0000
     1.0000   1.0000   1.0000   1.0000   1.0000   1.0000   1.0000   1.0000
     1.0000   1.0000   1.0000   1.0000   1.0000   1.0000   1.0000   1.0000
     1.0000   1.0000   1.0000   1.0000   1.0000   1.0000   1.0000   1.0000
     1.0000   1.0000   1.0000   1.0000   1.0000   1.0000   1.0000   1.0000
     1.0000   1.0000   1.0000   1.0000   1.0000   1.0000   1.0000   1.0000
     1.0000   1.0000   1.0000   1.0000   1.0000   0.0000   0.0000   0.0000
     0.0000   0.0000   0.0000   0.0000   0.0000   0.0000   0.0000   0.0000
     0.0000   0.0000

          k = 0.0860-0.2259-0.3638 ( 20430 PWs)   bands (ev):

  -103.2068 -65.3441 -65.2549 -65.2535 -61.3218 -61.2849 -59.7360 -34.0832
   -34.0298 -33.9979 -29.6777 -29.5688 -29.5564 -29.5094 -29.4662 -29.4262
    -8.7383  -8.3108  -7.9635  -7.7892  -7.5253  -7.2146  -7.1814  -6.9935
     0.2786   1.3592   1.9362   1.9514   2.0411   3.3911   3.5379   3.9826
     4.2079   4.4272   4.8107   5.2409   5.2777   5.6416   5.7315   6.0143
     6.0948   6.4341   6.6364   7.0030   7.1685   7.2811   7.6058   7.8783
     8.2660   8.3176   8.5098   8.6053   8.7234  11.9043  12.1906  12.6121
    12.8083  12.9281  13.0858  15.2380  15.5883  15.6670  15.7795  15.9151
    16.5996  16.7349

     occupation numbers 
     1.0000   1.0000   1.0000   1.0000   1.0000   1.0000   1.0000   1.0000
     1.0000   1.0000   1.0000   1.0000   1.0000   1.0000   1.0000   1.0000
     1.0000   1.0000   1.0000   1.0000   1.0000   1.0000   1.0000   1.0000
     1.0000   1.0000   1.0000   1.0000   1.0000   1.0000   1.0000   1.0000
     1.0000   1.0000   1.0000   1.0000   1.0000   1.0000   1.0000   1.0000
     1.0000   1.0000   1.0000   1.0000   1.0000   1.0000   1.0000   1.0000
     1.0000   1.0000   1.0000   1.0000   1.0000   0.0000   0.0000   0.0000
     0.0000   0.0000   0.0000   0.0000   0.0000   0.0000   0.0000   0.0000
     0.0000   0.0000

          k = 0.0849-0.2259-0.2183 ( 20427 PWs)   bands (ev):

  -103.2068 -65.3442 -65.2549 -65.2534 -61.3218 -61.2849 -59.7360 -34.0832
   -34.0298 -33.9979 -29.6798 -29.5701 -29.5511 -29.5075 -29.4683 -29.4275
    -8.9452  -8.0328  -7.9908  -7.7426  -7.5318  -7.3260  -7.1487  -6.9840
     0.2966   1.3642   1.8973   1.9530   2.0489   3.4164   3.5330   4.0043
     4.2074   4.3874   4.6953   5.0254   5.3462   5.5614   5.8479   6.0772
     6.2262   6.5047   6.7563   6.9752   7.1113   7.2855   7.6430   7.8017
     8.1790   8.3532   8.4316   8.6079   8.8105  11.8486  12.3687  12.4327
    12.7750  12.9851  13.2214  15.2406  15.5481  15.6706  15.7713  16.0334
    16.4396  16.6939

     occupation numbers 
     1.0000   1.0000   1.0000   1.0000   1.0000   1.0000   1.0000   1.0000
     1.0000   1.0000   1.0000   1.0000   1.0000   1.0000   1.0000   1.0000
     1.0000   1.0000   1.0000   1.0000   1.0000   1.0000   1.0000   1.0000
     1.0000   1.0000   1.0000   1.0000   1.0000   1.0000   1.0000   1.0000
     1.0000   1.0000   1.0000   1.0000   1.0000   1.0000   1.0000   1.0000
     1.0000   1.0000   1.0000   1.0000   1.0000   1.0000   1.0000   1.0000
     1.0000   1.0000   1.0000   1.0000   1.0000   0.0000   0.0000   0.0000
     0.0000   0.0000   0.0000   0.0000   0.0000   0.0000   0.0000   0.0000
     0.0000   0.0000

          k = 0.0838-0.2259-0.0727 ( 20411 PWs)   bands (ev):

  -103.2068 -65.3442 -65.2549 -65.2533 -61.3218 -61.2849 -59.7360 -34.0832
   -34.0298 -33.9979 -29.6810 -29.5712 -29.5465 -29.5061 -29.4709 -29.4284
    -9.0619  -8.0342  -7.8218  -7.7459  -7.4892  -7.3854  -7.1487  -6.9965
     0.3359   1.3734   1.8515   1.9578   2.0346   3.4007   3.6391   3.9259
     4.1995   4.3133   4.4666   5.1311   5.3172   5.6996   5.7806   6.0118
     6.1687   6.4818   6.9142   7.0235   7.1903   7.3589   7.6189   7.9686
     8.1502   8.2953   8.3204   8.6050   8.8670  11.9062  12.2794  12.3454
    12.8780  13.0424  13.3612  15.2611  15.4019  15.5365  15.7009  16.1410
    16.3080  16.5751

     occupation numbers 
     1.0000   1.0000   1.0000   1.0000   1.0000   1.0000   1.0000   1.0000
     1.0000   1.0000   1.0000   1.0000   1.0000   1.0000   1.0000   1.0000
     1.0000   1.0000   1.0000   1.0000   1.0000   1.0000   1.0000   1.0000
     1.0000   1.0000   1.0000   1.0000   1.0000   1.0000   1.0000   1.0000
     1.0000   1.0000   1.0000   1.0000   1.0000   1.0000   1.0000   1.0000
     1.0000   1.0000   1.0000   1.0000   1.0000   1.0000   1.0000   1.0000
     1.0000   1.0000   1.0000   1.0000   1.0000   0.0000   0.0000   0.0000
     0.0000   0.0000   0.0000   0.0000   0.0000   0.0000   0.0000   0.0000
     0.0000   0.0000

          k = 0.0828-0.0768 0.0693 ( 20395 PWs)   bands (ev):

  -103.2068 -65.3443 -65.2551 -65.2531 -61.3218 -61.2849 -59.7360 -34.0832
   -34.0298 -33.9979 -29.6807 -29.5712 -29.5475 -29.5056 -29.4710 -29.4273
    -9.1689  -8.0972  -7.8196  -7.6168  -7.3782  -7.3172  -7.1761  -7.0492
     0.3199   1.3751   1.8053   1.9424   1.9809   3.2436   3.6387   3.8042
     4.0281   4.3118   4.7074   4.9230   5.3564   5.5879   5.7181   6.1775
     6.3974   6.6144   6.7779   6.9279   7.1387   7.4334   7.5095   8.1577
     8.2932   8.3872   8.5083   8.7307   8.9997  11.9518  12.1739  12.3920
    12.8478  13.1628  13.3974  14.9232  15.3207  15.4588  15.5962  15.9970
    16.1368  16.5880

     occupation numbers 
     1.0000   1.0000   1.0000   1.0000   1.0000   1.0000   1.0000   1.0000
     1.0000   1.0000   1.0000   1.0000   1.0000   1.0000   1.0000   1.0000
     1.0000   1.0000   1.0000   1.0000   1.0000   1.0000   1.0000   1.0000
     1.0000   1.0000   1.0000   1.0000   1.0000   1.0000   1.0000   1.0000
     1.0000   1.0000   1.0000   1.0000   1.0000   1.0000   1.0000   1.0000
     1.0000   1.0000   1.0000   1.0000   1.0000   1.0000   1.0000   1.0000
     1.0000   1.0000   1.0000   1.0000   1.0000   0.0000   0.0000   0.0000
     0.0000   0.0000   0.0000   0.0000   0.0000   0.0000   0.0000   0.0000
     0.0000   0.0000

          k = 0.0817-0.0769 0.2149 ( 20413 PWs)   bands (ev):

  -103.2068 -65.3443 -65.2551 -65.2532 -61.3218 -61.2849 -59.7360 -34.0832
   -34.0298 -33.9979 -29.6783 -29.5698 -29.5516 -29.5081 -29.4694 -29.4266
    -9.0236  -8.1648  -7.9846  -7.6724  -7.3856  -7.2535  -7.1267  -7.0266
     0.3079   1.3704   1.8527   1.9179   1.9652   3.3745   3.6512   3.7398
     4.0921   4.3597   4.5018   5.0187   5.2467   5.4627   5.9473   6.1592
     6.4505   6.5150   6.7652   6.8925   7.1821   7.2879   7.7017   8.0557
     8.2745   8.4381   8.5924   8.7436   8.9392  11.9006  12.3034  12.5320
    12.8392  12.9917  13.2553  15.0528  15.3278  15.5095  15.6514  15.8781
    16.0993  16.5576

     occupation numbers 
     1.0000   1.0000   1.0000   1.0000   1.0000   1.0000   1.0000   1.0000
     1.0000   1.0000   1.0000   1.0000   1.0000   1.0000   1.0000   1.0000
     1.0000   1.0000   1.0000   1.0000   1.0000   1.0000   1.0000   1.0000
     1.0000   1.0000   1.0000   1.0000   1.0000   1.0000   1.0000   1.0000
     1.0000   1.0000   1.0000   1.0000   1.0000   1.0000   1.0000   1.0000
     1.0000   1.0000   1.0000   1.0000   1.0000   1.0000   1.0000   1.0000
     1.0000   1.0000   1.0000   1.0000   1.0000   0.0000   0.0000   0.0000
     0.0000   0.0000   0.0000   0.0000   0.0000   0.0000   0.0000   0.0000
     0.0000   0.0000

          k = 0.0806-0.0769 0.3604 ( 20415 PWs)   bands (ev):

  -103.2068 -65.3442 -65.2551 -65.2532 -61.3218 -61.2849 -59.7360 -34.0832
   -34.0298 -33.9979 -29.6761 -29.5683 -29.5558 -29.5103 -29.4673 -29.4262
    -8.7720  -8.4139  -8.0127  -7.7606  -7.3947  -7.2268  -7.0839  -6.9894
     0.2725   1.3588   1.8886   1.9221   1.9605   3.3360   3.5396   3.9990
     4.1405   4.4194   4.6754   4.9442   5.2965   5.4808   5.8669   6.0387
     6.2591   6.3268   6.4591   7.1002   7.2978   7.4614   7.8611   8.0437
     8.1800   8.3841   8.5800   8.7887   8.8973  12.0351  12.2688  12.5519
    12.7506  12.9571  13.0568  15.1024  15.3620  15.6609  15.7164  15.8387
    16.4493  16.5251

     occupation numbers 
     1.0000   1.0000   1.0000   1.0000   1.0000   1.0000   1.0000   1.0000
     1.0000   1.0000   1.0000   1.0000   1.0000   1.0000   1.0000   1.0000
     1.0000   1.0000   1.0000   1.0000   1.0000   1.0000   1.0000   1.0000
     1.0000   1.0000   1.0000   1.0000   1.0000   1.0000   1.0000   1.0000
     1.0000   1.0000   1.0000   1.0000   1.0000   1.0000   1.0000   1.0000
     1.0000   1.0000   1.0000   1.0000   1.0000   1.0000   1.0000   1.0000
     1.0000   1.0000   1.0000   1.0000   1.0000   0.0000   0.0000   0.0000
     0.0000   0.0000   0.0000   0.0000   0.0000   0.0000   0.0000   0.0000
     0.0000   0.0000

          k = 0.0861-0.0768-0.3673 ( 20418 PWs)   bands (ev):

  -103.2068 -65.3442 -65.2551 -65.2532 -61.3218 -61.2849 -59.7360 -34.0832
   -34.0298 -33.9979 -29.6765 -29.5683 -29.5557 -29.5099 -29.4671 -29.4266
    -8.7846  -8.3815  -8.0069  -7.7766  -7.4245  -7.2152  -7.0781  -6.9893
     0.2499   1.3530   1.8999   1.9221   1.9747   3.3296   3.4704   4.0143
     4.2921   4.3732   4.6971   5.1917   5.3214   5.3905   5.7911   5.9901
     6.2199   6.2748   6.4517   7.0962   7.2731   7.5402   7.7177   7.9561
     8.3012   8.3888   8.5183   8.8167   8.9065  11.9884  12.3121  12.5476
    12.7921  12.9385  12.9711  15.1657  15.4573  15.5856  15.7587  15.9340
    16.4820  16.6450

     occupation numbers 
     1.0000   1.0000   1.0000   1.0000   1.0000   1.0000   1.0000   1.0000
     1.0000   1.0000   1.0000   1.0000   1.0000   1.0000   1.0000   1.0000
     1.0000   1.0000   1.0000   1.0000   1.0000   1.0000   1.0000   1.0000
     1.0000   1.0000   1.0000   1.0000   1.0000   1.0000   1.0000   1.0000
     1.0000   1.0000   1.0000   1.0000   1.0000   1.0000   1.0000   1.0000
     1.0000   1.0000   1.0000   1.0000   1.0000   1.0000   1.0000   1.0000
     1.0000   1.0000   1.0000   1.0000   1.0000   0.0000   0.0000   0.0000
     0.0000   0.0000   0.0000   0.0000   0.0000   0.0000   0.0000   0.0000
     0.0000   0.0000

          k = 0.0850-0.0768-0.2218 ( 20422 PWs)   bands (ev):

  -103.2068 -65.3443 -65.2551 -65.2532 -61.3218 -61.2849 -59.7360 -34.0832
   -34.0298 -33.9979 -29.6791 -29.5699 -29.5512 -29.5075 -29.4688 -29.4272
    -9.0297  -8.0881  -8.0044  -7.6905  -7.4541  -7.2610  -7.1008  -7.0142
     0.2616   1.3595   1.8592   1.9360   1.9928   3.2706   3.5050   3.9998
     4.1927   4.3386   4.6976   4.9844   5.4251   5.5755   5.8238   6.0188
     6.3313   6.5171   6.6396   6.8430   7.1330   7.3499   7.6214   7.9406
     8.3370   8.4430   8.5627   8.8007   8.9362  11.8821  12.3642  12.4596
    12.8167  12.9210  13.2168  15.2251  15.4136  15.5512  15.7310  16.0299
    16.2662  16.5783

     occupation numbers 
     1.0000   1.0000   1.0000   1.0000   1.0000   1.0000   1.0000   1.0000
     1.0000   1.0000   1.0000   1.0000   1.0000   1.0000   1.0000   1.0000
     1.0000   1.0000   1.0000   1.0000   1.0000   1.0000   1.0000   1.0000
     1.0000   1.0000   1.0000   1.0000   1.0000   1.0000   1.0000   1.0000
     1.0000   1.0000   1.0000   1.0000   1.0000   1.0000   1.0000   1.0000
     1.0000   1.0000   1.0000   1.0000   1.0000   1.0000   1.0000   1.0000
     1.0000   1.0000   1.0000   1.0000   1.0000   0.0000   0.0000   0.0000
     0.0000   0.0000   0.0000   0.0000   0.0000   0.0000   0.0000   0.0000
     0.0000   0.0000

          k = 0.0839-0.0768-0.0762 ( 20419 PWs)   bands (ev):

  -103.2068 -65.3443 -65.2551 -65.2531 -61.3218 -61.2849 -59.7360 -34.0832
   -34.0298 -33.9979 -29.6811 -29.5712 -29.5472 -29.5054 -29.4707 -29.4277
    -9.1706  -8.0751  -7.8090  -7.6107  -7.4379  -7.3355  -7.1504  -7.0365
     0.2963   1.3701   1.8078   1.9520   1.9956   3.1857   3.5855   3.8328
     4.2459   4.3370   4.6254   5.0030   5.2718   5.7272   5.8309   6.1135
     6.2884   6.4743   6.7127   6.9627   7.1303   7.4198   7.5034   8.0529
     8.3354   8.4470   8.4934   8.7500   8.9933  11.9776  12.2015  12.3012
    12.8286  13.1230  13.3972  15.0361  15.3797  15.4725  15.6367  16.0430
    16.2622  16.5596

     occupation numbers 
     1.0000   1.0000   1.0000   1.0000   1.0000   1.0000   1.0000   1.0000
     1.0000   1.0000   1.0000   1.0000   1.0000   1.0000   1.0000   1.0000
     1.0000   1.0000   1.0000   1.0000   1.0000   1.0000   1.0000   1.0000
     1.0000   1.0000   1.0000   1.0000   1.0000   1.0000   1.0000   1.0000
     1.0000   1.0000   1.0000   1.0000   1.0000   1.0000   1.0000   1.0000
     1.0000   1.0000   1.0000   1.0000   1.0000   1.0000   1.0000   1.0000
     1.0000   1.0000   1.0000   1.0000   1.0000   0.0000   0.0000   0.0000
     0.0000   0.0000   0.0000   0.0000   0.0000   0.0000   0.0000   0.0000
     0.0000   0.0000

          k = 0.2496 0.0677 0.0554 ( 20367 PWs)   bands (ev):

  -103.2068 -65.3443 -65.2549 -65.2533 -61.3218 -61.2849 -59.7360 -34.0832
   -34.0298 -33.9979 -29.6813 -29.5716 -29.5476 -29.5059 -29.4708 -29.4278
    -9.0719  -8.1027  -7.7732  -7.5990  -7.4427  -7.3055  -7.2879  -7.0874
     0.3224   1.3700   1.8757   1.9512   2.0291   3.3875   3.6610   3.8164
     3.9921   4.2337   4.8255   5.0252   5.0864   5.2734   5.6178   6.2077
     6.5138   6.7689   6.8451   7.0061   7.2392   7.4278   7.7326   7.8435
     8.1178   8.3346   8.5328   8.7935   8.9755  11.8985  12.2620  12.3391
    12.8564  13.1121  13.5264  15.0551  15.3481  15.5249  15.6355  15.9374
    16.2721  16.6420

     occupation numbers 
     1.0000   1.0000   1.0000   1.0000   1.0000   1.0000   1.0000   1.0000
     1.0000   1.0000   1.0000   1.0000   1.0000   1.0000   1.0000   1.0000
     1.0000   1.0000   1.0000   1.0000   1.0000   1.0000   1.0000   1.0000
     1.0000   1.0000   1.0000   1.0000   1.0000   1.0000   1.0000   1.0000
     1.0000   1.0000   1.0000   1.0000   1.0000   1.0000   1.0000   1.0000
     1.0000   1.0000   1.0000   1.0000   1.0000   1.0000   1.0000   1.0000
     1.0000   1.0000   1.0000   1.0000   1.0000   0.0000   0.0000   0.0000
     0.0000   0.0000   0.0000   0.0000   0.0000   0.0000   0.0000   0.0000
     0.0000   0.0000

          k = 0.2485 0.0677 0.2010 ( 20380 PWs)   bands (ev):

  -103.2068 -65.3442 -65.2550 -65.2534 -61.3218 -61.2849 -59.7360 -34.0832
   -34.0298 -33.9979 -29.6792 -29.5702 -29.5516 -29.5080 -29.4688 -29.4274
    -8.9530  -8.1297  -7.9494  -7.6350  -7.4436  -7.3166  -7.2308  -7.0206
     0.3558   1.3742   1.8890   1.9453   2.0062   3.3936   3.7034   3.8489
     4.0799   4.2086   4.4482   4.7185   4.9811   5.6163   6.0414   6.3603
     6.4694   6.6222   6.7560   6.8739   7.0671   7.3771   7.9501   8.0033
     8.2586   8.3500   8.4622   8.8073   8.9220  11.8597  12.3045  12.5550
    12.8628  13.0444  13.3728  15.0156  15.2856  15.5873  15.6733  15.7725
    16.3274  16.4873

     occupation numbers 
     1.0000   1.0000   1.0000   1.0000   1.0000   1.0000   1.0000   1.0000
     1.0000   1.0000   1.0000   1.0000   1.0000   1.0000   1.0000   1.0000
     1.0000   1.0000   1.0000   1.0000   1.0000   1.0000   1.0000   1.0000
     1.0000   1.0000   1.0000   1.0000   1.0000   1.0000   1.0000   1.0000
     1.0000   1.0000   1.0000   1.0000   1.0000   1.0000   1.0000   1.0000
     1.0000   1.0000   1.0000   1.0000   1.0000   1.0000   1.0000   1.0000
     1.0000   1.0000   1.0000   1.0000   1.0000   0.0000   0.0000   0.0000
     0.0000   0.0000   0.0000   0.0000   0.0000   0.0000   0.0000   0.0000
     0.0000   0.0000

          k = 0.2474 0.0677 0.3465 ( 20406 PWs)   bands (ev):

  -103.2068 -65.3441 -65.2551 -65.2534 -61.3218 -61.2849 -59.7360 -34.0832
   -34.0298 -33.9979 -29.6766 -29.5685 -29.5561 -29.5104 -29.4671 -29.4266
    -8.7333  -8.2855  -8.0612  -7.7068  -7.4643  -7.3076  -7.1637  -6.9692
     0.3454   1.3666   1.8982   1.9670   2.0088   3.3074   3.5926   3.8999
     4.0645   4.3855   4.6223   4.8185   5.1119   5.7353   5.8633   6.0069
     6.2050   6.3797   6.7385   6.9965   7.2015   7.4659   8.0134   8.1095
     8.2467   8.3715   8.5099   8.7927   8.8505  12.0337  12.2231  12.6173
    12.8258  12.9738  13.1541  15.1858  15.3193  15.5965  15.6585  15.9486
    16.2877  16.6893

     occupation numbers 
     1.0000   1.0000   1.0000   1.0000   1.0000   1.0000   1.0000   1.0000
     1.0000   1.0000   1.0000   1.0000   1.0000   1.0000   1.0000   1.0000
     1.0000   1.0000   1.0000   1.0000   1.0000   1.0000   1.0000   1.0000
     1.0000   1.0000   1.0000   1.0000   1.0000   1.0000   1.0000   1.0000
     1.0000   1.0000   1.0000   1.0000   1.0000   1.0000   1.0000   1.0000
     1.0000   1.0000   1.0000   1.0000   1.0000   1.0000   1.0000   1.0000
     1.0000   1.0000   1.0000   1.0000   1.0000   0.0000   0.0000   0.0000
     0.0000   0.0000   0.0000   0.0000   0.0000   0.0000   0.0000   0.0000
     0.0000   0.0000

          k = 0.2529 0.0678-0.3812 ( 20416 PWs)   bands (ev):

  -103.2068 -65.3441 -65.2551 -65.2534 -61.3218 -61.2849 -59.7360 -34.0832
   -34.0298 -33.9979 -29.6763 -29.5685 -29.5563 -29.5106 -29.4675 -29.4262
    -8.6800  -8.3381  -8.0403  -7.7489  -7.4751  -7.2961  -7.1501  -6.9681
     0.3024   1.3545   1.9151   1.9833   2.0188   3.3119   3.4695   3.9100
     4.1691   4.5510   4.7384   5.0730   5.2329   5.5002   5.7167   5.8517
     6.1048   6.4218   6.5766   7.0980   7.2659   7.5439   7.8179   7.9939
     8.1487   8.4829   8.5974   8.7321   8.8786  11.9156  12.4055  12.6078
    12.7847  12.9648  13.0336  15.4116  15.4577  15.5601  15.6900  16.1401
    16.2402  16.8224

     occupation numbers 
     1.0000   1.0000   1.0000   1.0000   1.0000   1.0000   1.0000   1.0000
     1.0000   1.0000   1.0000   1.0000   1.0000   1.0000   1.0000   1.0000
     1.0000   1.0000   1.0000   1.0000   1.0000   1.0000   1.0000   1.0000
     1.0000   1.0000   1.0000   1.0000   1.0000   1.0000   1.0000   1.0000
     1.0000   1.0000   1.0000   1.0000   1.0000   1.0000   1.0000   1.0000
     1.0000   1.0000   1.0000   1.0000   1.0000   1.0000   1.0000   1.0000
     1.0000   1.0000   1.0000   1.0000   1.0000   0.0000   0.0000   0.0000
     0.0000   0.0000   0.0000   0.0000   0.0000   0.0000   0.0000   0.0000
     0.0000   0.0000

          k = 0.2518 0.0678-0.2357 ( 20435 PWs)   bands (ev):

  -103.2068 -65.3442 -65.2550 -65.2533 -61.3218 -61.2849 -59.7360 -34.0832
   -34.0298 -33.9979 -29.6785 -29.5702 -29.5520 -29.5084 -29.4696 -29.4265
    -8.9081  -8.0839  -8.0072  -7.7120  -7.4712  -7.3121  -7.1847  -7.0096
     0.2717   1.3496   1.9130   1.9718   2.0439   3.2658   3.4780   4.1957
     4.2778   4.3858   4.6194   4.8195   5.4185   5.5439   5.6125   6.0180
     6.2880   6.5632   6.6902   6.7807   7.1655   7.5803   7.7398   7.8245
     8.0777   8.4534   8.6084   8.8369   8.8770  11.8014  12.4045  12.5755
    12.8070  12.8461  13.2935  15.3670  15.5246  15.6525  15.7675  16.1817
    16.3345  16.6156

     occupation numbers 
     1.0000   1.0000   1.0000   1.0000   1.0000   1.0000   1.0000   1.0000
     1.0000   1.0000   1.0000   1.0000   1.0000   1.0000   1.0000   1.0000
     1.0000   1.0000   1.0000   1.0000   1.0000   1.0000   1.0000   1.0000
     1.0000   1.0000   1.0000   1.0000   1.0000   1.0000   1.0000   1.0000
     1.0000   1.0000   1.0000   1.0000   1.0000   1.0000   1.0000   1.0000
     1.0000   1.0000   1.0000   1.0000   1.0000   1.0000   1.0000   1.0000
     1.0000   1.0000   1.0000   1.0000   1.0000   0.0000   0.0000   0.0000
     0.0000   0.0000   0.0000   0.0000   0.0000   0.0000   0.0000   0.0000
     0.0000   0.0000

          k = 0.2507 0.0677-0.0901 ( 20409 PWs)   bands (ev):

  -103.2068 -65.3443 -65.2549 -65.2533 -61.3218 -61.2849 -59.7360 -34.0833
   -34.0298 -33.9979 -29.6809 -29.5716 -29.5478 -29.5060 -29.4713 -29.4274
    -9.0559  -8.0748  -7.8016  -7.6440  -7.4519  -7.3315  -7.2444  -7.0713
     0.2814   1.3575   1.8834   1.9650   2.0526   3.2704   3.5436   3.9954
     4.1860   4.4039   4.7429   4.9485   5.2773   5.4672   5.6942   5.8028
     6.3108   6.6640   6.8653   7.0256   7.2936   7.3746   7.7124   7.8551
     7.9845   8.3963   8.5864   8.8186   8.9431  11.9570  12.1391  12.3789
    12.8121  13.0572  13.4937  15.2177  15.5075  15.6300  15.6392  16.1523
    16.3538  16.5041

     occupation numbers 
     1.0000   1.0000   1.0000   1.0000   1.0000   1.0000   1.0000   1.0000
     1.0000   1.0000   1.0000   1.0000   1.0000   1.0000   1.0000   1.0000
     1.0000   1.0000   1.0000   1.0000   1.0000   1.0000   1.0000   1.0000
     1.0000   1.0000   1.0000   1.0000   1.0000   1.0000   1.0000   1.0000
     1.0000   1.0000   1.0000   1.0000   1.0000   1.0000   1.0000   1.0000
     1.0000   1.0000   1.0000   1.0000   1.0000   1.0000   1.0000   1.0000
     1.0000   1.0000   1.0000   1.0000   1.0000   0.0000   0.0000   0.0000
     0.0000   0.0000   0.0000   0.0000   0.0000   0.0000   0.0000   0.0000
     0.0000   0.0000

          k = 0.2497 0.2168 0.0519 ( 20388 PWs)   bands (ev):

  -103.2068 -65.3445 -65.2548 -65.2533 -61.3218 -61.2849 -59.7360 -34.0833
   -34.0298 -33.9980 -29.6808 -29.5714 -29.5467 -29.5066 -29.4710 -29.4285
    -9.0038  -8.0762  -7.8804  -7.5826  -7.4634  -7.3666  -7.2485  -7.0805
     0.3061   1.3826   1.8740   1.9606   2.0362   3.4382   3.7002   3.8828
     4.0325   4.3586   4.7801   5.0842   5.2300   5.5021   5.6121   6.2247
     6.3491   6.6027   6.8169   6.9773   7.1486   7.4778   7.7280   7.9137
     8.0001   8.1484   8.4140   8.5829   8.8372  11.9302  12.3329  12.3785
    12.8649  13.0461  13.4482  15.2557  15.3087  15.5572  15.6297  15.9487
    16.3536  16.6309

     occupation numbers 
     1.0000   1.0000   1.0000   1.0000   1.0000   1.0000   1.0000   1.0000
     1.0000   1.0000   1.0000   1.0000   1.0000   1.0000   1.0000   1.0000
     1.0000   1.0000   1.0000   1.0000   1.0000   1.0000   1.0000   1.0000
     1.0000   1.0000   1.0000   1.0000   1.0000   1.0000   1.0000   1.0000
     1.0000   1.0000   1.0000   1.0000   1.0000   1.0000   1.0000   1.0000
     1.0000   1.0000   1.0000   1.0000   1.0000   1.0000   1.0000   1.0000
     1.0000   1.0000   1.0000   1.0000   1.0000   0.0000   0.0000   0.0000
     0.0000   0.0000   0.0000   0.0000   0.0000   0.0000   0.0000   0.0000
     0.0000   0.0000

          k = 0.2486 0.2168 0.1975 ( 20405 PWs)   bands (ev):

  -103.2068 -65.3444 -65.2549 -65.2534 -61.3218 -61.2849 -59.7360 -34.0832
   -34.0298 -33.9980 -29.6796 -29.5702 -29.5514 -29.5079 -29.4683 -29.4276
    -8.9071  -8.1058  -7.9971  -7.6165  -7.4273  -7.3456  -7.2592  -7.0501
     0.3256   1.3882   1.8869   1.9619   2.0204   3.3584   3.6827   3.9651
     4.1423   4.2638   4.5993   4.8172   5.3931   5.5206   5.9295   6.3109
     6.4192   6.5345   6.7224   6.9524   7.0466   7.3313   7.8149   7.9868
     8.0854   8.2452   8.3314   8.6389   8.7978  11.8688  12.3999  12.5376
    12.8096  13.0410  13.3175  15.1565  15.3040  15.5608  15.6487  15.8642
    16.4568  16.5163

     occupation numbers 
     1.0000   1.0000   1.0000   1.0000   1.0000   1.0000   1.0000   1.0000
     1.0000   1.0000   1.0000   1.0000   1.0000   1.0000   1.0000   1.0000
     1.0000   1.0000   1.0000   1.0000   1.0000   1.0000   1.0000   1.0000
     1.0000   1.0000   1.0000   1.0000   1.0000   1.0000   1.0000   1.0000
     1.0000   1.0000   1.0000   1.0000   1.0000   1.0000   1.0000   1.0000
     1.0000   1.0000   1.0000   1.0000   1.0000   1.0000   1.0000   1.0000
     1.0000   1.0000   1.0000   1.0000   1.0000   0.0000   0.0000   0.0000
     0.0000   0.0000   0.0000   0.0000   0.0000   0.0000   0.0000   0.0000
     0.0000   0.0000

          k = 0.2475 0.2168 0.3430 ( 20393 PWs)   bands (ev):

  -103.2068 -65.3443 -65.2550 -65.2535 -61.3218 -61.2849 -59.7360 -34.0832
   -34.0298 -33.9979 -29.6775 -29.5688 -29.5568 -29.5098 -29.4662 -29.4262
    -8.7262  -8.2229  -8.1051  -7.6601  -7.4350  -7.3286  -7.2177  -7.0251
     0.3086   1.3836   1.8996   1.9800   2.0326   3.2957   3.7113   3.8740
     4.1940   4.2919   4.6683   4.9521   5.4942   5.6363   5.8828   6.0434
     6.2741   6.4660   6.7081   6.9112   7.0724   7.3829   7.8865   7.9822
     8.1371   8.2796   8.3494   8.6125   8.7696  11.9457  12.2232  12.6284
    12.8510  12.9755  13.1437  15.1995  15.3886  15.5865  15.6550  16.0080
    16.3730  16.6201

     occupation numbers 
     1.0000   1.0000   1.0000   1.0000   1.0000   1.0000   1.0000   1.0000
     1.0000   1.0000   1.0000   1.0000   1.0000   1.0000   1.0000   1.0000
     1.0000   1.0000   1.0000   1.0000   1.0000   1.0000   1.0000   1.0000
     1.0000   1.0000   1.0000   1.0000   1.0000   1.0000   1.0000   1.0000
     1.0000   1.0000   1.0000   1.0000   1.0000   1.0000   1.0000   1.0000
     1.0000   1.0000   1.0000   1.0000   1.0000   1.0000   1.0000   1.0000
     1.0000   1.0000   1.0000   1.0000   1.0000   0.0000   0.0000   0.0000
     0.0000   0.0000   0.0000   0.0000   0.0000   0.0000   0.0000   0.0000
     0.0000   0.0000

          k = 0.2529 0.2169-0.3847 ( 20405 PWs)   bands (ev):

  -103.2068 -65.3443 -65.2550 -65.2535 -61.3218 -61.2849 -59.7360 -34.0832
   -34.0298 -33.9979 -29.6767 -29.5689 -29.5571 -29.5104 -29.4669 -29.4254
    -8.6585  -8.3003  -8.0978  -7.6666  -7.4523  -7.2929  -7.2569  -7.0010
     0.2733   1.3730   1.9106   1.9908   2.0508   3.3493   3.6852   3.8565
     4.1138   4.4465   4.8317   5.1747   5.3201   5.5478   5.7772   5.9465
     6.2674   6.5243   6.6531   7.0309   7.0971   7.3788   7.7430   7.8537
     8.0968   8.2849   8.4686   8.5821   8.7713  11.8236  12.3182  12.6588
    12.7940  12.9768  13.0588  15.2924  15.5052  15.6275  15.7949  16.0343
    16.3234  16.6672

     occupation numbers 
     1.0000   1.0000   1.0000   1.0000   1.0000   1.0000   1.0000   1.0000
     1.0000   1.0000   1.0000   1.0000   1.0000   1.0000   1.0000   1.0000
     1.0000   1.0000   1.0000   1.0000   1.0000   1.0000   1.0000   1.0000
     1.0000   1.0000   1.0000   1.0000   1.0000   1.0000   1.0000   1.0000
     1.0000   1.0000   1.0000   1.0000   1.0000   1.0000   1.0000   1.0000
     1.0000   1.0000   1.0000   1.0000   1.0000   1.0000   1.0000   1.0000
     1.0000   1.0000   1.0000   1.0000   1.0000   0.0000   0.0000   0.0000
     0.0000   0.0000   0.0000   0.0000   0.0000   0.0000   0.0000   0.0000
     0.0000   0.0000

          k = 0.2518 0.2169-0.2392 ( 20403 PWs)   bands (ev):

  -103.2068 -65.3444 -65.2549 -65.2534 -61.3218 -61.2849 -59.7360 -34.0833
   -34.0298 -33.9979 -29.6780 -29.5702 -29.5522 -29.5089 -29.4698 -29.4260
    -8.8416  -8.1214  -8.0300  -7.6770  -7.4505  -7.3145  -7.2753  -7.0097
     0.2557   1.3670   1.9046   1.9773   2.0658   3.3665   3.6953   4.0096
     4.1930   4.4715   4.6971   4.9738   5.2799   5.5127   5.7537   6.1406
     6.3610   6.5427   6.7823   6.9275   7.1450   7.3986   7.6058   7.7082
     8.0216   8.2689   8.4948   8.6471   8.7477  11.7578  12.3953  12.6119
    12.7346  12.9514  13.2287  15.3186  15.5276  15.7113  15.8040  16.1048
    16.3088  16.7841

     occupation numbers 
     1.0000   1.0000   1.0000   1.0000   1.0000   1.0000   1.0000   1.0000
     1.0000   1.0000   1.0000   1.0000   1.0000   1.0000   1.0000   1.0000
     1.0000   1.0000   1.0000   1.0000   1.0000   1.0000   1.0000   1.0000
     1.0000   1.0000   1.0000   1.0000   1.0000   1.0000   1.0000   1.0000
     1.0000   1.0000   1.0000   1.0000   1.0000   1.0000   1.0000   1.0000
     1.0000   1.0000   1.0000   1.0000   1.0000   1.0000   1.0000   1.0000
     1.0000   1.0000   1.0000   1.0000   1.0000   0.0000   0.0000   0.0000
     0.0000   0.0000   0.0000   0.0000   0.0000   0.0000   0.0000   0.0000
     0.0000   0.0000

          k = 0.2508 0.2169-0.0936 ( 20391 PWs)   bands (ev):

  -103.2068 -65.3445 -65.2548 -65.2533 -61.3218 -61.2849 -59.7360 -34.0833
   -34.0298 -33.9979 -29.6801 -29.5714 -29.5471 -29.5069 -29.4719 -29.4277
    -8.9801  -8.0766  -7.8423  -7.7115  -7.4406  -7.3335  -7.2669  -7.0562
     0.2716   1.3719   1.8806   1.9673   2.0613   3.3743   3.7262   4.0478
     4.1080   4.4274   4.6488   5.0079   5.3340   5.5845   5.8005   5.9432
     6.1583   6.5964   6.8092   7.0878   7.2679   7.3996   7.6688   7.7493
     7.9415   8.2595   8.3982   8.6333   8.7990  11.9322  12.1926  12.4555
    12.8795  12.9692  13.4147  15.2814  15.4802  15.6253  15.7136  16.1360
    16.3272  16.6255

     occupation numbers 
     1.0000   1.0000   1.0000   1.0000   1.0000   1.0000   1.0000   1.0000
     1.0000   1.0000   1.0000   1.0000   1.0000   1.0000   1.0000   1.0000
     1.0000   1.0000   1.0000   1.0000   1.0000   1.0000   1.0000   1.0000
     1.0000   1.0000   1.0000   1.0000   1.0000   1.0000   1.0000   1.0000
     1.0000   1.0000   1.0000   1.0000   1.0000   1.0000   1.0000   1.0000
     1.0000   1.0000   1.0000   1.0000   1.0000   1.0000   1.0000   1.0000
     1.0000   1.0000   1.0000   1.0000   1.0000   0.0000   0.0000   0.0000
     0.0000   0.0000   0.0000   0.0000   0.0000   0.0000   0.0000   0.0000
     0.0000   0.0000

          k = 0.2497 0.3659 0.0484 ( 20387 PWs)   bands (ev):

  -103.2068 -65.3446 -65.2546 -65.2535 -61.3218 -61.2849 -59.7360 -34.0833
   -34.0298 -33.9980 -29.6802 -29.5713 -29.5459 -29.5074 -29.4716 -29.4288
    -8.8888  -8.0822  -7.9921  -7.6022  -7.5107  -7.3885  -7.2169  -7.0560
     0.3037   1.3984   1.8864   1.9545   2.0415   3.4204   3.7225   3.9923
     4.1951   4.5801   4.7392   5.0170   5.4218   5.5808   5.7063   5.9983
     6.1875   6.7004   6.8042   6.9610   7.1339   7.4681   7.5828   7.6996
     7.9635   8.1251   8.2939   8.4362   8.7043  11.9431  12.3805  12.4901
    12.8550  13.0668  13.2961  15.2737  15.3924  15.5257  15.6574  16.0540
    16.4220  16.5965

     occupation numbers 
     1.0000   1.0000   1.0000   1.0000   1.0000   1.0000   1.0000   1.0000
     1.0000   1.0000   1.0000   1.0000   1.0000   1.0000   1.0000   1.0000
     1.0000   1.0000   1.0000   1.0000   1.0000   1.0000   1.0000   1.0000
     1.0000   1.0000   1.0000   1.0000   1.0000   1.0000   1.0000   1.0000
     1.0000   1.0000   1.0000   1.0000   1.0000   1.0000   1.0000   1.0000
     1.0000   1.0000   1.0000   1.0000   1.0000   1.0000   1.0000   1.0000
     1.0000   1.0000   1.0000   1.0000   1.0000   0.0000   0.0000   0.0000
     0.0000   0.0000   0.0000   0.0000   0.0000   0.0000   0.0000   0.0000
     0.0000   0.0000

          k = 0.2486 0.3659 0.1940 ( 20403 PWs)   bands (ev):

  -103.2068 -65.3445 -65.2547 -65.2536 -61.3218 -61.2849 -59.7360 -34.0832
   -34.0298 -33.9980 -29.6794 -29.5703 -29.5515 -29.5083 -29.4686 -29.4272
    -8.8087  -8.1589  -8.0108  -7.6151  -7.4956  -7.3525  -7.2433  -7.0579
     0.3117   1.4060   1.9019   1.9598   2.0330   3.3393   3.5057   4.0914
     4.2998   4.5451   4.7936   5.1198   5.3472   5.6656   5.7523   5.9513
     6.1516   6.6272   6.8211   7.0588   7.1379   7.2859   7.6668   7.7149
     7.9928   8.1739   8.2700   8.4608   8.6886  11.8627  12.4773  12.5776
    12.7909  13.0265  13.2486  15.1369  15.3808  15.5293  15.6146  16.0475
    16.4922  16.6344

     occupation numbers 
     1.0000   1.0000   1.0000   1.0000   1.0000   1.0000   1.0000   1.0000
     1.0000   1.0000   1.0000   1.0000   1.0000   1.0000   1.0000   1.0000
     1.0000   1.0000   1.0000   1.0000   1.0000   1.0000   1.0000   1.0000
     1.0000   1.0000   1.0000   1.0000   1.0000   1.0000   1.0000   1.0000
     1.0000   1.0000   1.0000   1.0000   1.0000   1.0000   1.0000   1.0000
     1.0000   1.0000   1.0000   1.0000   1.0000   1.0000   1.0000   1.0000
     1.0000   1.0000   1.0000   1.0000   1.0000   0.0000   0.0000   0.0000
     0.0000   0.0000   0.0000   0.0000   0.0000   0.0000   0.0000   0.0000
     0.0000   0.0000

          k = 0.2476 0.3659 0.3395 ( 20380 PWs)   bands (ev):

  -103.2068 -65.3444 -65.2548 -65.2538 -61.3218 -61.2849 -59.7360 -34.0832
   -34.0298 -33.9979 -29.6781 -29.5692 -29.5574 -29.5095 -29.4656 -29.4255
    -8.6718  -8.2559  -8.0370  -7.6656  -7.5085  -7.3238  -7.2401  -7.0517
     0.2886   1.4033   1.9192   1.9742   2.0565   3.3089   3.4768   4.0231
     4.3137   4.5789   4.9068   5.0850   5.4532   5.6646   5.8057   6.0998
     6.2067   6.3915   6.6220   7.0076   7.1730   7.3118   7.6326   7.8674
     7.9551   8.1193   8.3419   8.4300   8.6790  11.8872  12.2446  12.5574
    12.8852  13.0274  13.1366  15.1296  15.4424  15.5496  15.6253  16.1380
    16.3863  16.6462

     occupation numbers 
     1.0000   1.0000   1.0000   1.0000   1.0000   1.0000   1.0000   1.0000
     1.0000   1.0000   1.0000   1.0000   1.0000   1.0000   1.0000   1.0000
     1.0000   1.0000   1.0000   1.0000   1.0000   1.0000   1.0000   1.0000
     1.0000   1.0000   1.0000   1.0000   1.0000   1.0000   1.0000   1.0000
     1.0000   1.0000   1.0000   1.0000   1.0000   1.0000   1.0000   1.0000
     1.0000   1.0000   1.0000   1.0000   1.0000   1.0000   1.0000   1.0000
     1.0000   1.0000   1.0000   1.0000   1.0000   0.0000   0.0000   0.0000
     0.0000   0.0000   0.0000   0.0000   0.0000   0.0000   0.0000   0.0000
     0.0000   0.0000

          k = 0.2530 0.3660-0.3882 ( 20403 PWs)   bands (ev):

  -103.2068 -65.3444 -65.2548 -65.2538 -61.3218 -61.2849 -59.7360 -34.0832
   -34.0298 -33.9979 -29.6777 -29.5693 -29.5576 -29.5098 -29.4660 -29.4250
    -8.6366  -8.2407  -8.0903  -7.6346  -7.5227  -7.3480  -7.2806  -7.0070
     0.2588   1.3927   1.9216   1.9849   2.0850   3.3878   3.5760   3.9786
     4.2266   4.5059   4.9613   5.2126   5.3945   5.5903   5.7802   6.0086
     6.4183   6.4589   6.7174   6.9375   6.9984   7.4095   7.5980   7.8526
     7.9007   8.1054   8.1857   8.5107   8.6917  11.8256  12.1566  12.6109
    12.8793  13.0217  13.0759  15.2103  15.4721  15.6283  15.8069  16.0831
    16.2554  16.7094

     occupation numbers 
     1.0000   1.0000   1.0000   1.0000   1.0000   1.0000   1.0000   1.0000
     1.0000   1.0000   1.0000   1.0000   1.0000   1.0000   1.0000   1.0000
     1.0000   1.0000   1.0000   1.0000   1.0000   1.0000   1.0000   1.0000
     1.0000   1.0000   1.0000   1.0000   1.0000   1.0000   1.0000   1.0000
     1.0000   1.0000   1.0000   1.0000   1.0000   1.0000   1.0000   1.0000
     1.0000   1.0000   1.0000   1.0000   1.0000   1.0000   1.0000   1.0000
     1.0000   1.0000   1.0000   1.0000   1.0000   0.0000   0.0000   0.0000
     0.0000   0.0000   0.0000   0.0000   0.0000   0.0000   0.0000   0.0000
     0.0000   0.0000

          k = 0.2519 0.3660-0.2427 ( 20399 PWs)   bands (ev):

  -103.2068 -65.3445 -65.2547 -65.2537 -61.3218 -61.2849 -59.7360 -34.0833
   -34.0298 -33.9979 -29.6786 -29.5704 -29.5519 -29.5089 -29.4693 -29.4263
    -8.7645  -8.1184  -8.0455  -7.6268  -7.5579  -7.4000  -7.2486  -6.9932
     0.2518   1.3853   1.9129   1.9693   2.0893   3.4745   3.6927   4.1151
     4.1835   4.5577   4.7820   4.9371   5.2395   5.5869   5.8271   6.1994
     6.3177   6.5924   6.8352   6.9319   7.1913   7.3423   7.6032   7.6909
     7.8336   7.9424   8.2740   8.5522   8.6646  11.7743  12.3425  12.5903
    12.7342  13.0214  13.1752  15.2673  15.4849  15.7414  15.8126  16.0916
    16.3103  16.7190

     occupation numbers 
     1.0000   1.0000   1.0000   1.0000   1.0000   1.0000   1.0000   1.0000
     1.0000   1.0000   1.0000   1.0000   1.0000   1.0000   1.0000   1.0000
     1.0000   1.0000   1.0000   1.0000   1.0000   1.0000   1.0000   1.0000
     1.0000   1.0000   1.0000   1.0000   1.0000   1.0000   1.0000   1.0000
     1.0000   1.0000   1.0000   1.0000   1.0000   1.0000   1.0000   1.0000
     1.0000   1.0000   1.0000   1.0000   1.0000   1.0000   1.0000   1.0000
     1.0000   1.0000   1.0000   1.0000   1.0000   0.0000   0.0000   0.0000
     0.0000   0.0000   0.0000   0.0000   0.0000   0.0000   0.0000   0.0000
     0.0000   0.0000

          k = 0.2508 0.3660-0.0971 ( 20385 PWs)   bands (ev):

  -103.2068 -65.3446 -65.2546 -65.2535 -61.3218 -61.2849 -59.7360 -34.0833
   -34.0298 -33.9979 -29.6798 -29.5713 -29.5461 -29.5076 -29.4721 -29.4284
    -8.8716  -8.1079  -7.8676  -7.7650  -7.5038  -7.3767  -7.2273  -7.0236
     0.2737   1.3883   1.8942   1.9550   2.0685   3.4454   3.9484   4.0481
     4.1720   4.4123   4.6143   5.0688   5.3205   5.6941   5.7608   5.9283
     6.1874   6.7159   6.8596   7.0639   7.2575   7.2903   7.5398   7.7103
     7.8479   7.9939   8.3782   8.4433   8.6866  11.9186  12.3100  12.5271
    12.7585  13.0832  13.2559  15.2870  15.4595  15.6790  15.7252  16.1309
    16.4226  16.6250

     occupation numbers 
     1.0000   1.0000   1.0000   1.0000   1.0000   1.0000   1.0000   1.0000
     1.0000   1.0000   1.0000   1.0000   1.0000   1.0000   1.0000   1.0000
     1.0000   1.0000   1.0000   1.0000   1.0000   1.0000   1.0000   1.0000
     1.0000   1.0000   1.0000   1.0000   1.0000   1.0000   1.0000   1.0000
     1.0000   1.0000   1.0000   1.0000   1.0000   1.0000   1.0000   1.0000
     1.0000   1.0000   1.0000   1.0000   1.0000   1.0000   1.0000   1.0000
     1.0000   1.0000   1.0000   1.0000   1.0000   0.0000   0.0000   0.0000
     0.0000   0.0000   0.0000   0.0000   0.0000   0.0000   0.0000   0.0000
     0.0000   0.0000

          k = 0.2494-0.3796 0.0659 ( 20376 PWs)   bands (ev):

  -103.2068 -65.3445 -65.2545 -65.2536 -61.3218 -61.2849 -59.7360 -34.0833
   -34.0298 -33.9980 -29.6800 -29.5713 -29.5460 -29.5076 -29.4720 -29.4285
    -8.8486  -8.1522  -7.9586  -7.6325  -7.5311  -7.3873  -7.1718  -7.0595
     0.3150   1.3954   1.9032   1.9449   2.0435   3.4651   3.7392   3.9548
     4.1829   4.5365   4.7355   4.9966   5.4201   5.5630   5.7481   5.9881
     6.1744   6.6816   6.8077   6.9857   7.1491   7.4579   7.5804   7.7743
     7.9494   8.1092   8.2624   8.4921   8.6658  11.9263  12.3242  12.5729
    12.8689  13.0737  13.2795  15.2663  15.3721  15.5319  15.6511  16.1044
    16.3559  16.6775

     occupation numbers 
     1.0000   1.0000   1.0000   1.0000   1.0000   1.0000   1.0000   1.0000
     1.0000   1.0000   1.0000   1.0000   1.0000   1.0000   1.0000   1.0000
     1.0000   1.0000   1.0000   1.0000   1.0000   1.0000   1.0000   1.0000
     1.0000   1.0000   1.0000   1.0000   1.0000   1.0000   1.0000   1.0000
     1.0000   1.0000   1.0000   1.0000   1.0000   1.0000   1.0000   1.0000
     1.0000   1.0000   1.0000   1.0000   1.0000   1.0000   1.0000   1.0000
     1.0000   1.0000   1.0000   1.0000   1.0000   0.0000   0.0000   0.0000
     0.0000   0.0000   0.0000   0.0000   0.0000   0.0000   0.0000   0.0000
     0.0000   0.0000

          k = 0.2483-0.3796 0.2114 ( 20386 PWs)   bands (ev):

  -103.2068 -65.3445 -65.2546 -65.2537 -61.3218 -61.2849 -59.7360 -34.0832
   -34.0298 -33.9980 -29.6788 -29.5703 -29.5517 -29.5089 -29.4692 -29.4265
    -8.7495  -8.2374  -7.9829  -7.6532  -7.5429  -7.3254  -7.1924  -7.0636
     0.3241   1.4026   1.9215   1.9498   2.0351   3.3518   3.5089   4.0790
     4.2921   4.5354   4.7840   5.1860   5.3065   5.5851   5.7843   5.9033
     6.1668   6.6272   6.8500   7.0499   7.1729   7.3326   7.6179   7.7061
     8.0166   8.1455   8.2697   8.5384   8.6281  11.8353  12.4706  12.6184
    12.8343  13.0195  13.2289  15.0787  15.4102  15.5266  15.6132  16.0816
    16.4125  16.6949

     occupation numbers 
     1.0000   1.0000   1.0000   1.0000   1.0000   1.0000   1.0000   1.0000
     1.0000   1.0000   1.0000   1.0000   1.0000   1.0000   1.0000   1.0000
     1.0000   1.0000   1.0000   1.0000   1.0000   1.0000   1.0000   1.0000
     1.0000   1.0000   1.0000   1.0000   1.0000   1.0000   1.0000   1.0000
     1.0000   1.0000   1.0000   1.0000   1.0000   1.0000   1.0000   1.0000
     1.0000   1.0000   1.0000   1.0000   1.0000   1.0000   1.0000   1.0000
     1.0000   1.0000   1.0000   1.0000   1.0000   0.0000   0.0000   0.0000
     0.0000   0.0000   0.0000   0.0000   0.0000   0.0000   0.0000   0.0000
     0.0000   0.0000

          k = 0.2473-0.3796 0.3570 ( 20398 PWs)   bands (ev):

  -103.2068 -65.3444 -65.2547 -65.2539 -61.3218 -61.2849 -59.7360 -34.0832
   -34.0298 -33.9979 -29.6780 -29.5693 -29.5574 -29.5098 -29.4659 -29.4251
    -8.6082  -8.3306  -7.9558  -7.7420  -7.5913  -7.2751  -7.2087  -7.0471
     0.3006   1.3999   1.9406   1.9648   2.0598   3.2966   3.4640   4.0050
     4.3213   4.6609   4.9498   5.0890   5.3024   5.6563   5.7811   6.1289
     6.2102   6.3948   6.6275   7.0618   7.1154   7.4248   7.5274   7.8288
     7.9856   8.1142   8.3592   8.4949   8.6244  11.8735  12.2565  12.5781
    12.8856  13.0467  13.1167  15.0720  15.4919  15.5351  15.6177  16.1157
    16.4000  16.6955

     occupation numbers 
     1.0000   1.0000   1.0000   1.0000   1.0000   1.0000   1.0000   1.0000
     1.0000   1.0000   1.0000   1.0000   1.0000   1.0000   1.0000   1.0000
     1.0000   1.0000   1.0000   1.0000   1.0000   1.0000   1.0000   1.0000
     1.0000   1.0000   1.0000   1.0000   1.0000   1.0000   1.0000   1.0000
     1.0000   1.0000   1.0000   1.0000   1.0000   1.0000   1.0000   1.0000
     1.0000   1.0000   1.0000   1.0000   1.0000   1.0000   1.0000   1.0000
     1.0000   1.0000   1.0000   1.0000   1.0000   0.0000   0.0000   0.0000
     0.0000   0.0000   0.0000   0.0000   0.0000   0.0000   0.0000   0.0000
     0.0000   0.0000

          k = 0.2527-0.3795-0.3708 ( 20397 PWs)   bands (ev):

  -103.2068 -65.3444 -65.2547 -65.2539 -61.3218 -61.2849 -59.7360 -34.0832
   -34.0298 -33.9979 -29.6784 -29.5693 -29.5573 -29.5095 -29.4657 -29.4254
    -8.6307  -8.2474  -7.9823  -7.7404  -7.6071  -7.3322  -7.2291  -6.9956
     0.2692   1.3895   1.9375   1.9804   2.0903   3.3565   3.5564   3.9863
     4.2852   4.5276   4.9750   5.1225   5.3528   5.6346   5.7888   6.0455
     6.3797   6.4281   6.8005   6.8629   7.0169   7.4642   7.5382   7.8349
     7.9144   8.0453   8.2771   8.5184   8.6671  11.8699  12.1050  12.6209
    12.8610  13.0346  13.0850  15.1724  15.4957  15.6269  15.7704  16.0819
    16.3069  16.7355

     occupation numbers 
     1.0000   1.0000   1.0000   1.0000   1.0000   1.0000   1.0000   1.0000
     1.0000   1.0000   1.0000   1.0000   1.0000   1.0000   1.0000   1.0000
     1.0000   1.0000   1.0000   1.0000   1.0000   1.0000   1.0000   1.0000
     1.0000   1.0000   1.0000   1.0000   1.0000   1.0000   1.0000   1.0000
     1.0000   1.0000   1.0000   1.0000   1.0000   1.0000   1.0000   1.0000
     1.0000   1.0000   1.0000   1.0000   1.0000   1.0000   1.0000   1.0000
     1.0000   1.0000   1.0000   1.0000   1.0000   0.0000   0.0000   0.0000
     0.0000   0.0000   0.0000   0.0000   0.0000   0.0000   0.0000   0.0000
     0.0000   0.0000

          k = 0.2516-0.3796-0.2252 ( 20393 PWs)   bands (ev):

  -103.2068 -65.3445 -65.2546 -65.2538 -61.3218 -61.2849 -59.7360 -34.0833
   -34.0298 -33.9979 -29.6796 -29.5705 -29.5514 -29.5083 -29.4687 -29.4271
    -8.7645  -8.1031  -7.9818  -7.6925  -7.5866  -7.4532  -7.1989  -6.9785
     0.2612   1.3824   1.9289   1.9627   2.0941   3.5120   3.6015   4.0852
     4.3457   4.4996   4.7391   4.9373   5.2080   5.7186   5.7706   6.1144
     6.2667   6.6937   6.8274   6.9318   7.1759   7.3828   7.5710   7.6567
     7.8766   7.9764   8.2289   8.5776   8.6508  11.8081  12.2963  12.5943
    12.7242  13.0229  13.1897  15.2555  15.4951  15.7416  15.7700  16.1023
    16.3782  16.7051

     occupation numbers 
     1.0000   1.0000   1.0000   1.0000   1.0000   1.0000   1.0000   1.0000
     1.0000   1.0000   1.0000   1.0000   1.0000   1.0000   1.0000   1.0000
     1.0000   1.0000   1.0000   1.0000   1.0000   1.0000   1.0000   1.0000
     1.0000   1.0000   1.0000   1.0000   1.0000   1.0000   1.0000   1.0000
     1.0000   1.0000   1.0000   1.0000   1.0000   1.0000   1.0000   1.0000
     1.0000   1.0000   1.0000   1.0000   1.0000   1.0000   1.0000   1.0000
     1.0000   1.0000   1.0000   1.0000   1.0000   0.0000   0.0000   0.0000
     0.0000   0.0000   0.0000   0.0000   0.0000   0.0000   0.0000   0.0000
     0.0000   0.0000

          k = 0.2505-0.3796-0.0797 ( 20379 PWs)   bands (ev):

  -103.2068 -65.3445 -65.2545 -65.2536 -61.3218 -61.2849 -59.7360 -34.0833
   -34.0298 -33.9979 -29.6804 -29.5714 -29.5458 -29.5074 -29.4717 -29.4288
    -8.8527  -8.1207  -7.8415  -7.7696  -7.5417  -7.4264  -7.1837  -7.0111
     0.2835   1.3855   1.9128   1.9437   2.0717   3.5021   3.8343   4.0861
     4.1585   4.4967   4.5465   5.0961   5.3004   5.6229   5.7611   5.9737
     6.1446   6.7412   6.9158   7.0246   7.2345   7.3148   7.5308   7.7469
     7.8578   8.0189   8.3176   8.4778   8.6715  11.9190  12.3687  12.4407
    12.7905  13.0698  13.2656  15.3028  15.4577  15.6549  15.7139  16.1205
    16.5183  16.6148

     occupation numbers 
     1.0000   1.0000   1.0000   1.0000   1.0000   1.0000   1.0000   1.0000
     1.0000   1.0000   1.0000   1.0000   1.0000   1.0000   1.0000   1.0000
     1.0000   1.0000   1.0000   1.0000   1.0000   1.0000   1.0000   1.0000
     1.0000   1.0000   1.0000   1.0000   1.0000   1.0000   1.0000   1.0000
     1.0000   1.0000   1.0000   1.0000   1.0000   1.0000   1.0000   1.0000
     1.0000   1.0000   1.0000   1.0000   1.0000   1.0000   1.0000   1.0000
     1.0000   1.0000   1.0000   1.0000   1.0000   0.0000   0.0000   0.0000
     0.0000   0.0000   0.0000   0.0000   0.0000   0.0000   0.0000   0.0000
     0.0000   0.0000

          k = 0.2495-0.2305 0.0624 ( 20408 PWs)   bands (ev):

  -103.2068 -65.3444 -65.2547 -65.2535 -61.3218 -61.2849 -59.7360 -34.0833
   -34.0298 -33.9980 -29.6805 -29.5715 -29.5469 -29.5069 -29.4718 -29.4278
    -8.9460  -8.0898  -7.9337  -7.6450  -7.4958  -7.3584  -7.1505  -7.0911
     0.3290   1.3768   1.9020   1.9451   2.0426   3.5775   3.7325   3.7877
     3.9714   4.3356   4.6964   5.0420   5.2379   5.4706   5.7497   6.0752
     6.3565   6.6410   6.8326   7.0085   7.1695   7.5057   7.6800   7.9639
     8.0016   8.2276   8.3741   8.5530   8.8227  11.9008  12.2206  12.5315
    12.8976  13.0409  13.4368  15.1575  15.3899  15.5597  15.6209  16.0644
    16.1881  16.7347

     occupation numbers 
     1.0000   1.0000   1.0000   1.0000   1.0000   1.0000   1.0000   1.0000
     1.0000   1.0000   1.0000   1.0000   1.0000   1.0000   1.0000   1.0000
     1.0000   1.0000   1.0000   1.0000   1.0000   1.0000   1.0000   1.0000
     1.0000   1.0000   1.0000   1.0000   1.0000   1.0000   1.0000   1.0000
     1.0000   1.0000   1.0000   1.0000   1.0000   1.0000   1.0000   1.0000
     1.0000   1.0000   1.0000   1.0000   1.0000   1.0000   1.0000   1.0000
     1.0000   1.0000   1.0000   1.0000   1.0000   0.0000   0.0000   0.0000
     0.0000   0.0000   0.0000   0.0000   0.0000   0.0000   0.0000   0.0000
     0.0000   0.0000

          k = 0.2484-0.2305 0.2080 ( 20404 PWs)   bands (ev):

  -103.2068 -65.3443 -65.2548 -65.2536 -61.3218 -61.2849 -59.7360 -34.0832
   -34.0298 -33.9980 -29.6784 -29.5703 -29.5519 -29.5090 -29.4697 -29.4262
    -8.8199  -8.1817  -7.9998  -7.6861  -7.5228  -7.2889  -7.1575  -7.0608
     0.3509   1.3817   1.9233   1.9422   2.0272   3.4133   3.6575   3.9392
     4.0937   4.2928   4.5705   4.8941   5.2967   5.4490   6.0388   6.1694
     6.3900   6.5289   6.8135   6.9883   7.0734   7.3720   7.7747   7.9842
     8.0412   8.2585   8.4092   8.6244   8.7696  11.8197  12.3735  12.6686
    12.8280  13.0294  13.3038  15.0014  15.3811  15.5669  15.6540  15.9637
    16.2772  16.6754

     occupation numbers 
     1.0000   1.0000   1.0000   1.0000   1.0000   1.0000   1.0000   1.0000
     1.0000   1.0000   1.0000   1.0000   1.0000   1.0000   1.0000   1.0000
     1.0000   1.0000   1.0000   1.0000   1.0000   1.0000   1.0000   1.0000
     1.0000   1.0000   1.0000   1.0000   1.0000   1.0000   1.0000   1.0000
     1.0000   1.0000   1.0000   1.0000   1.0000   1.0000   1.0000   1.0000
     1.0000   1.0000   1.0000   1.0000   1.0000   1.0000   1.0000   1.0000
     1.0000   1.0000   1.0000   1.0000   1.0000   0.0000   0.0000   0.0000
     0.0000   0.0000   0.0000   0.0000   0.0000   0.0000   0.0000   0.0000
     0.0000   0.0000

          k = 0.2473-0.2305 0.3535 ( 20407 PWs)   bands (ev):

  -103.2068 -65.3442 -65.2549 -65.2537 -61.3218 -61.2849 -59.7360 -34.0832
   -34.0298 -33.9979 -29.6771 -29.5690 -29.5568 -29.5104 -29.4668 -29.4255
    -8.6143  -8.3569  -7.9679  -7.7921  -7.5743  -7.2684  -7.1386  -7.0176
     0.3332   1.3766   1.9372   1.9633   2.0424   3.2941   3.5936   3.8929
     4.2322   4.4087   4.6820   4.9387   5.4447   5.5124   5.8502   6.1025
     6.2806   6.4708   6.6181   6.9841   7.1258   7.4377   7.8505   7.8966
     8.0723   8.3424   8.4429   8.6254   8.7153  11.9212  12.2498  12.6578
    12.8482  13.0385  13.0926  15.0444  15.4737  15.5956  15.6321  16.0138
    16.4133  16.6984

     occupation numbers 
     1.0000   1.0000   1.0000   1.0000   1.0000   1.0000   1.0000   1.0000
     1.0000   1.0000   1.0000   1.0000   1.0000   1.0000   1.0000   1.0000
     1.0000   1.0000   1.0000   1.0000   1.0000   1.0000   1.0000   1.0000
     1.0000   1.0000   1.0000   1.0000   1.0000   1.0000   1.0000   1.0000
     1.0000   1.0000   1.0000   1.0000   1.0000   1.0000   1.0000   1.0000
     1.0000   1.0000   1.0000   1.0000   1.0000   1.0000   1.0000   1.0000
     1.0000   1.0000   1.0000   1.0000   1.0000   0.0000   0.0000   0.0000
     0.0000   0.0000   0.0000   0.0000   0.0000   0.0000   0.0000   0.0000
     0.0000   0.0000

          k = 0.2528-0.2304-0.3743 ( 20409 PWs)   bands (ev):

  -103.2068 -65.3442 -65.2549 -65.2537 -61.3218 -61.2849 -59.7360 -34.0832
   -34.0298 -33.9979 -29.6779 -29.5690 -29.5565 -29.5097 -29.4663 -29.4262
    -8.6509  -8.2732  -7.9423  -7.8253  -7.6094  -7.3065  -7.1464  -6.9812
     0.2948   1.3661   1.9414   1.9815   2.0630   3.3108   3.5647   3.9629
     4.2181   4.4243   4.8069   5.1220   5.2961   5.5650   5.7697   6.0266
     6.2376   6.4003   6.7325   6.9806   7.1791   7.3685   7.7013   7.8654
     8.0356   8.3333   8.5343   8.5877   8.7211  11.8932  12.2211  12.7055
    12.7701  12.9804  13.0747  15.1890  15.5328  15.6377  15.7287  16.0536
    16.4612  16.7203

     occupation numbers 
     1.0000   1.0000   1.0000   1.0000   1.0000   1.0000   1.0000   1.0000
     1.0000   1.0000   1.0000   1.0000   1.0000   1.0000   1.0000   1.0000
     1.0000   1.0000   1.0000   1.0000   1.0000   1.0000   1.0000   1.0000
     1.0000   1.0000   1.0000   1.0000   1.0000   1.0000   1.0000   1.0000
     1.0000   1.0000   1.0000   1.0000   1.0000   1.0000   1.0000   1.0000
     1.0000   1.0000   1.0000   1.0000   1.0000   1.0000   1.0000   1.0000
     1.0000   1.0000   1.0000   1.0000   1.0000   0.0000   0.0000   0.0000
     0.0000   0.0000   0.0000   0.0000   0.0000   0.0000   0.0000   0.0000
     0.0000   0.0000

          k = 0.2517-0.2305-0.2287 ( 20399 PWs)   bands (ev):

  -103.2068 -65.3443 -65.2548 -65.2536 -61.3218 -61.2849 -59.7360 -34.0832
   -34.0298 -33.9979 -29.6801 -29.5704 -29.5512 -29.5078 -29.4685 -29.4276
    -8.8405  -8.0664  -7.9378  -7.7353  -7.6137  -7.3981  -7.1578  -6.9785
     0.2749   1.3606   1.9329   1.9671   2.0768   3.3846   3.5905   4.0557
     4.2481   4.4618   4.7519   4.8708   5.2247   5.6293   5.7122   6.0862
     6.3063   6.6034   6.7622   7.0106   7.1318   7.3683   7.5506   7.7627
     8.0573   8.2530   8.5101   8.6526   8.7211  11.8087  12.3502  12.5546
    12.7504  12.9776  13.2356  15.2896  15.5197  15.6791  15.7662  16.1182
    16.5060  16.7192

     occupation numbers 
     1.0000   1.0000   1.0000   1.0000   1.0000   1.0000   1.0000   1.0000
     1.0000   1.0000   1.0000   1.0000   1.0000   1.0000   1.0000   1.0000
     1.0000   1.0000   1.0000   1.0000   1.0000   1.0000   1.0000   1.0000
     1.0000   1.0000   1.0000   1.0000   1.0000   1.0000   1.0000   1.0000
     1.0000   1.0000   1.0000   1.0000   1.0000   1.0000   1.0000   1.0000
     1.0000   1.0000   1.0000   1.0000   1.0000   1.0000   1.0000   1.0000
     1.0000   1.0000   1.0000   1.0000   1.0000   0.0000   0.0000   0.0000
     0.0000   0.0000   0.0000   0.0000   0.0000   0.0000   0.0000   0.0000
     0.0000   0.0000

          k = 0.2506-0.2305-0.0831 ( 20405 PWs)   bands (ev):

  -103.2068 -65.3444 -65.2547 -65.2535 -61.3218 -61.2849 -59.7360 -34.0833
   -34.0298 -33.9979 -29.6812 -29.5716 -29.5465 -29.5064 -29.4711 -29.4285
    -8.9520  -8.0671  -7.8134  -7.7306  -7.5352  -7.4220  -7.1710  -7.0241
     0.2914   1.3661   1.9083   1.9528   2.0697   3.4668   3.6625   3.9871
     4.0929   4.4834   4.5910   5.1082   5.2566   5.5114   5.7428   5.9684
     6.1708   6.5658   6.9811   7.0577   7.1883   7.4087   7.6574   7.8117
     7.9915   8.2422   8.4356   8.5707   8.7930  11.9328  12.2230  12.4042
    12.8957  12.9808  13.4092  15.3120  15.4783  15.5769  15.6995  16.1200
    16.3846  16.7080

     occupation numbers 
     1.0000   1.0000   1.0000   1.0000   1.0000   1.0000   1.0000   1.0000
     1.0000   1.0000   1.0000   1.0000   1.0000   1.0000   1.0000   1.0000
     1.0000   1.0000   1.0000   1.0000   1.0000   1.0000   1.0000   1.0000
     1.0000   1.0000   1.0000   1.0000   1.0000   1.0000   1.0000   1.0000
     1.0000   1.0000   1.0000   1.0000   1.0000   1.0000   1.0000   1.0000
     1.0000   1.0000   1.0000   1.0000   1.0000   1.0000   1.0000   1.0000
     1.0000   1.0000   1.0000   1.0000   1.0000   0.0000   0.0000   0.0000
     0.0000   0.0000   0.0000   0.0000   0.0000   0.0000   0.0000   0.0000
     0.0000   0.0000

          k = 0.2495-0.0814 0.0589 ( 20408 PWs)   bands (ev):

  -103.2068 -65.3442 -65.2549 -65.2534 -61.3218 -61.2849 -59.7360 -34.0832
   -34.0298 -33.9979 -29.6811 -29.5716 -29.5477 -29.5060 -29.4712 -29.4275
    -9.0489  -8.0908  -7.8230  -7.6295  -7.4488  -7.3338  -7.2115  -7.0885
     0.3340   1.3670   1.8891   1.9432   2.0335   3.4388   3.6621   3.8196
     3.9339   4.2523   4.7463   4.9767   5.1502   5.2260   5.7146   6.1671
     6.4640   6.7203   6.9067   7.0631   7.2265   7.4821   7.6419   7.8928
     8.1287   8.3675   8.5162   8.7625   8.9835  11.8865  12.1924  12.4250
    12.8670  13.1141  13.5226  15.0228  15.3908  15.5361  15.6185  15.9767
    16.1807  16.7031

     occupation numbers 
     1.0000   1.0000   1.0000   1.0000   1.0000   1.0000   1.0000   1.0000
     1.0000   1.0000   1.0000   1.0000   1.0000   1.0000   1.0000   1.0000
     1.0000   1.0000   1.0000   1.0000   1.0000   1.0000   1.0000   1.0000
     1.0000   1.0000   1.0000   1.0000   1.0000   1.0000   1.0000   1.0000
     1.0000   1.0000   1.0000   1.0000   1.0000   1.0000   1.0000   1.0000
     1.0000   1.0000   1.0000   1.0000   1.0000   1.0000   1.0000   1.0000
     1.0000   1.0000   1.0000   1.0000   1.0000   0.0000   0.0000   0.0000
     0.0000   0.0000   0.0000   0.0000   0.0000   0.0000   0.0000   0.0000
     0.0000   0.0000

          k = 0.2485-0.0814 0.2045 ( 20382 PWs)   bands (ev):

  -103.2068 -65.3441 -65.2550 -65.2534 -61.3218 -61.2849 -59.7360 -34.0832
   -34.0298 -33.9980 -29.6786 -29.5702 -29.5519 -29.5085 -29.4694 -29.4266
    -8.9179  -8.1301  -7.9851  -7.6634  -7.4892  -7.2919  -7.1839  -7.0217
     0.3687   1.3709   1.9107   1.9309   2.0110   3.4760   3.5777   3.8886
     4.0662   4.2300   4.4498   4.7313   4.9303   5.5756   6.1498   6.2849
     6.4298   6.5648   6.8070   6.9095   7.0980   7.3846   7.9224   8.0008
     8.2604   8.3771   8.4695   8.7830   8.9286  11.8365  12.3007  12.6070
    12.8649  13.0429  13.3726  14.9361  15.3241  15.6035  15.6787  15.8142
    16.2409  16.5534

     occupation numbers 
     1.0000   1.0000   1.0000   1.0000   1.0000   1.0000   1.0000   1.0000
     1.0000   1.0000   1.0000   1.0000   1.0000   1.0000   1.0000   1.0000
     1.0000   1.0000   1.0000   1.0000   1.0000   1.0000   1.0000   1.0000
     1.0000   1.0000   1.0000   1.0000   1.0000   1.0000   1.0000   1.0000
     1.0000   1.0000   1.0000   1.0000   1.0000   1.0000   1.0000   1.0000
     1.0000   1.0000   1.0000   1.0000   1.0000   1.0000   1.0000   1.0000
     1.0000   1.0000   1.0000   1.0000   1.0000   0.0000   0.0000   0.0000
     0.0000   0.0000   0.0000   0.0000   0.0000   0.0000   0.0000   0.0000
     0.0000   0.0000

          k = 0.2474-0.0814 0.3500 ( 20422 PWs)   bands (ev):

  -103.2068 -65.3440 -65.2551 -65.2535 -61.3218 -61.2849 -59.7360 -34.0832
   -34.0298 -33.9979 -29.6765 -29.5686 -29.5561 -29.5107 -29.4674 -29.4263
    -8.6856  -8.3312  -8.0144  -7.7641  -7.5197  -7.2913  -7.1249  -6.9650
     0.3581   1.3629   1.9183   1.9552   2.0161   3.3296   3.5027   3.9150
     4.1052   4.4216   4.6456   4.7973   5.0809   5.6669   5.8456   6.0814
     6.2167   6.3347   6.7079   7.0229   7.2377   7.4814   7.9881   8.0978
     8.1855   8.4417   8.5296   8.7721   8.8502  12.0204  12.2452  12.6046
    12.8419  13.0100  13.1277  15.0617  15.3990  15.6024  15.6549  15.9594
    16.3345  16.6738

     occupation numbers 
     1.0000   1.0000   1.0000   1.0000   1.0000   1.0000   1.0000   1.0000
     1.0000   1.0000   1.0000   1.0000   1.0000   1.0000   1.0000   1.0000
     1.0000   1.0000   1.0000   1.0000   1.0000   1.0000   1.0000   1.0000
     1.0000   1.0000   1.0000   1.0000   1.0000   1.0000   1.0000   1.0000
     1.0000   1.0000   1.0000   1.0000   1.0000   1.0000   1.0000   1.0000
     1.0000   1.0000   1.0000   1.0000   1.0000   1.0000   1.0000   1.0000
     1.0000   1.0000   1.0000   1.0000   1.0000   0.0000   0.0000   0.0000
     0.0000   0.0000   0.0000   0.0000   0.0000   0.0000   0.0000   0.0000
     0.0000   0.0000

          k = 0.2528-0.0813-0.3777 ( 20414 PWs)   bands (ev):

  -103.2068 -65.3440 -65.2551 -65.2535 -61.3218 -61.2849 -59.7360 -34.0832
   -34.0298 -33.9979 -29.6769 -29.5686 -29.5559 -29.5103 -29.4672 -29.4266
    -8.6779  -8.3145  -7.9825  -7.8168  -7.5370  -7.3069  -7.1032  -6.9623
     0.3134   1.3506   1.9316   1.9761   2.0269   3.3064   3.4185   3.9515
     4.2136   4.5168   4.7188   5.0768   5.2676   5.4641   5.6932   5.8787
     6.1173   6.3577   6.6332   7.0748   7.2762   7.5271   7.8431   8.0028
     8.1034   8.5095   8.6148   8.7307   8.8610  11.9535  12.3398  12.6247
    12.8153  12.9486  13.0388  15.2777  15.4963  15.5999  15.6886  16.0947
    16.3838  16.7881

     occupation numbers 
     1.0000   1.0000   1.0000   1.0000   1.0000   1.0000   1.0000   1.0000
     1.0000   1.0000   1.0000   1.0000   1.0000   1.0000   1.0000   1.0000
     1.0000   1.0000   1.0000   1.0000   1.0000   1.0000   1.0000   1.0000
     1.0000   1.0000   1.0000   1.0000   1.0000   1.0000   1.0000   1.0000
     1.0000   1.0000   1.0000   1.0000   1.0000   1.0000   1.0000   1.0000
     1.0000   1.0000   1.0000   1.0000   1.0000   1.0000   1.0000   1.0000
     1.0000   1.0000   1.0000   1.0000   1.0000   0.0000   0.0000   0.0000
     0.0000   0.0000   0.0000   0.0000   0.0000   0.0000   0.0000   0.0000
     0.0000   0.0000

          k = 0.2517-0.0813-0.2322 ( 20420 PWs)   bands (ev):

  -103.2068 -65.3441 -65.2550 -65.2534 -61.3218 -61.2849 -59.7360 -34.0832
   -34.0298 -33.9979 -29.6795 -29.5703 -29.5515 -29.5078 -29.4689 -29.4273
    -8.9073  -8.0257  -8.0048  -7.7296  -7.5438  -7.3546  -7.1307  -6.9964
     0.2814   1.3460   1.9279   1.9660   2.0500   3.2758   3.4444   4.2113
     4.2644   4.4120   4.6707   4.7443   5.3939   5.5612   5.6027   6.0248
     6.3096   6.4887   6.6998   6.8697   7.1336   7.5077   7.7562   7.8840
     8.0887   8.4232   8.6404   8.8216   8.8717  11.8201  12.4128  12.5293
    12.7684  12.9081  13.2894  15.3570  15.4795  15.6542  15.7569  16.1507
    16.5278  16.5853

     occupation numbers 
     1.0000   1.0000   1.0000   1.0000   1.0000   1.0000   1.0000   1.0000
     1.0000   1.0000   1.0000   1.0000   1.0000   1.0000   1.0000   1.0000
     1.0000   1.0000   1.0000   1.0000   1.0000   1.0000   1.0000   1.0000
     1.0000   1.0000   1.0000   1.0000   1.0000   1.0000   1.0000   1.0000
     1.0000   1.0000   1.0000   1.0000   1.0000   1.0000   1.0000   1.0000
     1.0000   1.0000   1.0000   1.0000   1.0000   1.0000   1.0000   1.0000
     1.0000   1.0000   1.0000   1.0000   1.0000   0.0000   0.0000   0.0000
     0.0000   0.0000   0.0000   0.0000   0.0000   0.0000   0.0000   0.0000
     0.0000   0.0000

          k = 0.2506-0.0814-0.0866 ( 20419 PWs)   bands (ev):

  -103.2068 -65.3442 -65.2549 -65.2534 -61.3218 -61.2849 -59.7360 -34.0832
   -34.0298 -33.9979 -29.6815 -29.5717 -29.5474 -29.5058 -29.4709 -29.4278
    -9.0445  -8.0615  -7.7896  -7.6641  -7.4841  -7.3963  -7.1860  -7.0535
     0.2914   1.3544   1.8963   1.9582   2.0578   3.3009   3.5241   3.9777
     4.2133   4.3697   4.7019   5.0467   5.2125   5.4043   5.7524   5.7897
     6.2750   6.6902   6.8810   7.0398   7.2391   7.4566   7.6370   7.9392
     7.9770   8.3775   8.6112   8.7859   8.9467  11.9537  12.1503  12.3603
    12.8222  13.0662  13.4864  15.2289  15.5168  15.6021  15.6321  16.1352
    16.3276  16.6239

     occupation numbers 
     1.0000   1.0000   1.0000   1.0000   1.0000   1.0000   1.0000   1.0000
     1.0000   1.0000   1.0000   1.0000   1.0000   1.0000   1.0000   1.0000
     1.0000   1.0000   1.0000   1.0000   1.0000   1.0000   1.0000   1.0000
     1.0000   1.0000   1.0000   1.0000   1.0000   1.0000   1.0000   1.0000
     1.0000   1.0000   1.0000   1.0000   1.0000   1.0000   1.0000   1.0000
     1.0000   1.0000   1.0000   1.0000   1.0000   1.0000   1.0000   1.0000
     1.0000   1.0000   1.0000   1.0000   1.0000   0.0000   0.0000   0.0000
     0.0000   0.0000   0.0000   0.0000   0.0000   0.0000   0.0000   0.0000
     0.0000   0.0000

          k = 0.4164 0.0632 0.0450 ( 20397 PWs)   bands (ev):

  -103.2068 -65.3442 -65.2547 -65.2536 -61.3218 -61.2849 -59.7360 -34.0833
   -34.0298 -33.9979 -29.6817 -29.5721 -29.5477 -29.5062 -29.4709 -29.4279
    -8.9227  -8.0901  -7.7653  -7.6761  -7.4940  -7.4061  -7.3006  -7.0680
     0.3251   1.3402   1.9207   1.9875   2.0998   3.5334   3.6883   3.7976
     4.0337   4.4074   4.6007   4.8493   5.1074   5.3839   5.5955   5.9324
     6.5690   6.7603   7.0313   7.1408   7.2496   7.3320   7.5878   7.7810
     7.8941   8.4510   8.6962   8.7748   8.9198  11.8766  12.2705  12.3294
    12.8989  13.0157  13.5698  15.2669  15.4147  15.6020  15.7092  15.9972
    16.5166  16.6658

     occupation numbers 
     1.0000   1.0000   1.0000   1.0000   1.0000   1.0000   1.0000   1.0000
     1.0000   1.0000   1.0000   1.0000   1.0000   1.0000   1.0000   1.0000
     1.0000   1.0000   1.0000   1.0000   1.0000   1.0000   1.0000   1.0000
     1.0000   1.0000   1.0000   1.0000   1.0000   1.0000   1.0000   1.0000
     1.0000   1.0000   1.0000   1.0000   1.0000   1.0000   1.0000   1.0000
     1.0000   1.0000   1.0000   1.0000   1.0000   1.0000   1.0000   1.0000
     1.0000   1.0000   1.0000   1.0000   1.0000   0.0000   0.0000   0.0000
     0.0000   0.0000   0.0000   0.0000   0.0000   0.0000   0.0000   0.0000
     0.0000   0.0000

          k = 0.4153 0.0632 0.1906 ( 20393 PWs)   bands (ev):

  -103.2068 -65.3440 -65.2549 -65.2536 -61.3218 -61.2849 -59.7360 -34.0833
   -34.0298 -33.9980 -29.6796 -29.5705 -29.5518 -29.5083 -29.4689 -29.4274
    -8.8138  -8.0954  -7.9161  -7.6613  -7.5939  -7.4172  -7.2364  -6.9938
     0.3789   1.3516   1.9225   1.9848   2.0916   3.4242   3.7645   3.8905
     4.1021   4.1694   4.3096   4.7976   4.9096   5.7117   5.9306   6.1547
     6.4151   6.6451   6.8281   6.9589   7.1731   7.4424   7.7350   7.9931
     8.0701   8.4073   8.6099   8.8221   8.8725  11.8061  12.3469  12.6033
    12.8700  12.9915  13.4218  15.2202  15.3667  15.6037  15.7464  15.8591
    16.3901  16.6745

     occupation numbers 
     1.0000   1.0000   1.0000   1.0000   1.0000   1.0000   1.0000   1.0000
     1.0000   1.0000   1.0000   1.0000   1.0000   1.0000   1.0000   1.0000
     1.0000   1.0000   1.0000   1.0000   1.0000   1.0000   1.0000   1.0000
     1.0000   1.0000   1.0000   1.0000   1.0000   1.0000   1.0000   1.0000
     1.0000   1.0000   1.0000   1.0000   1.0000   1.0000   1.0000   1.0000
     1.0000   1.0000   1.0000   1.0000   1.0000   1.0000   1.0000   1.0000
     1.0000   1.0000   1.0000   1.0000   1.0000   0.0000   0.0000   0.0000
     0.0000   0.0000   0.0000   0.0000   0.0000   0.0000   0.0000   0.0000
     0.0000   0.0000

          k = 0.4142 0.0632 0.3361 ( 20401 PWs)   bands (ev):

  -103.2068 -65.3439 -65.2552 -65.2536 -61.3218 -61.2849 -59.7360 -34.0833
   -34.0298 -33.9980 -29.6770 -29.5688 -29.5564 -29.5107 -29.4671 -29.4266
    -8.6190  -8.1741  -8.0702  -7.7414  -7.5952  -7.4088  -7.1809  -6.9457
     0.4148   1.3547   1.9322   1.9883   2.1047   3.3791   3.5766   3.7182
     3.8752   4.4268   4.6799   4.9069   5.0997   5.6632   5.8476   6.0940
     6.1711   6.3087   6.6987   6.9880   7.2281   7.6922   7.9131   8.0922
     8.2103   8.3805   8.5325   8.7871   8.8359  11.9779  12.2558  12.7497
    12.8798  12.9711  13.1794  15.3289  15.3807  15.5665  15.6106  16.0300
    16.1843  16.8017

     occupation numbers 
     1.0000   1.0000   1.0000   1.0000   1.0000   1.0000   1.0000   1.0000
     1.0000   1.0000   1.0000   1.0000   1.0000   1.0000   1.0000   1.0000
     1.0000   1.0000   1.0000   1.0000   1.0000   1.0000   1.0000   1.0000
     1.0000   1.0000   1.0000   1.0000   1.0000   1.0000   1.0000   1.0000
     1.0000   1.0000   1.0000   1.0000   1.0000   1.0000   1.0000   1.0000
     1.0000   1.0000   1.0000   1.0000   1.0000   1.0000   1.0000   1.0000
     1.0000   1.0000   1.0000   1.0000   1.0000   0.0000   0.0000   0.0000
     0.0000   0.0000   0.0000   0.0000   0.0000   0.0000   0.0000   0.0000
     0.0000   0.0000

          k = 0.4196 0.0632-0.3916 ( 20409 PWs)   bands (ev):

  -103.2068 -65.3439 -65.2552 -65.2536 -61.3218 -61.2849 -59.7360 -34.0833
   -34.0298 -33.9980 -29.6766 -29.5688 -29.5565 -29.5110 -29.4675 -29.4263
    -8.5751  -8.2336  -8.0360  -7.8083  -7.5619  -7.3972  -7.1764  -6.9494
     0.3929   1.3476   1.9422   1.9973   2.1060   3.3571   3.4999   3.7443
     3.9308   4.5683   4.7968   4.9196   5.2769   5.4912   5.7462   5.8782
     6.1273   6.4127   6.6763   7.0145   7.2380   7.6669   7.8709   8.0664
     8.1916   8.4343   8.5403   8.7443   8.8627  11.9359  12.3220  12.7558
    12.8578  12.9621  13.1286  15.3836  15.4869  15.5734  15.7088  15.9438
    16.2411  16.8171

     occupation numbers 
     1.0000   1.0000   1.0000   1.0000   1.0000   1.0000   1.0000   1.0000
     1.0000   1.0000   1.0000   1.0000   1.0000   1.0000   1.0000   1.0000
     1.0000   1.0000   1.0000   1.0000   1.0000   1.0000   1.0000   1.0000
     1.0000   1.0000   1.0000   1.0000   1.0000   1.0000   1.0000   1.0000
     1.0000   1.0000   1.0000   1.0000   1.0000   1.0000   1.0000   1.0000
     1.0000   1.0000   1.0000   1.0000   1.0000   1.0000   1.0000   1.0000
     1.0000   1.0000   1.0000   1.0000   1.0000   0.0000   0.0000   0.0000
     0.0000   0.0000   0.0000   0.0000   0.0000   0.0000   0.0000   0.0000
     0.0000   0.0000

          k = 0.4185 0.0632-0.2461 ( 20409 PWs)   bands (ev):

  -103.2068 -65.3440 -65.2549 -65.2536 -61.3218 -61.2849 -59.7360 -34.0833
   -34.0298 -33.9979 -29.6788 -29.5705 -29.5522 -29.5088 -29.4697 -29.4266
    -8.7763  -8.0481  -7.9885  -7.7811  -7.5287  -7.3851  -7.2234  -7.0020
     0.3380   1.3363   1.9401   2.0022   2.0989   3.3492   3.5355   4.0582
     4.2078   4.3151   4.5827   4.8364   5.1177   5.5711   5.7319   6.0492
     6.1518   6.6218   6.8257   6.9395   7.2162   7.4738   7.7035   7.9848
     8.0227   8.5147   8.5559   8.7906   8.8821  11.7855  12.3821  12.6701
    12.8204  12.8833  13.3805  15.3501  15.4593  15.6753  15.8312  16.0273
    16.3177  16.8094

     occupation numbers 
     1.0000   1.0000   1.0000   1.0000   1.0000   1.0000   1.0000   1.0000
     1.0000   1.0000   1.0000   1.0000   1.0000   1.0000   1.0000   1.0000
     1.0000   1.0000   1.0000   1.0000   1.0000   1.0000   1.0000   1.0000
     1.0000   1.0000   1.0000   1.0000   1.0000   1.0000   1.0000   1.0000
     1.0000   1.0000   1.0000   1.0000   1.0000   1.0000   1.0000   1.0000
     1.0000   1.0000   1.0000   1.0000   1.0000   1.0000   1.0000   1.0000
     1.0000   1.0000   1.0000   1.0000   1.0000   0.0000   0.0000   0.0000
     0.0000   0.0000   0.0000   0.0000   0.0000   0.0000   0.0000   0.0000
     0.0000   0.0000

          k = 0.4174 0.0632-0.1005 ( 20406 PWs)   bands (ev):

  -103.2068 -65.3442 -65.2547 -65.2536 -61.3218 -61.2849 -59.7360 -34.0833
   -34.0298 -33.9979 -29.6813 -29.5721 -29.5480 -29.5064 -29.4714 -29.4275
    -8.9095  -8.0658  -7.8315  -7.6729  -7.5230  -7.3445  -7.3048  -7.0736
     0.3058   1.3323   1.9282   1.9952   2.1062   3.4410   3.6027   3.8520
     4.1820   4.5708   4.6665   4.9115   5.0345   5.4365   5.5821   5.8325
     6.3200   6.6864   6.9499   7.1693   7.3429   7.4390   7.5894   7.7901
     7.8187   8.5102   8.6374   8.8089   8.8944  11.9032  12.1725  12.4097
    12.8707  12.9898  13.5503  15.3104  15.4623  15.6394  15.7400  16.1735
    16.5112  16.5838

     occupation numbers 
     1.0000   1.0000   1.0000   1.0000   1.0000   1.0000   1.0000   1.0000
     1.0000   1.0000   1.0000   1.0000   1.0000   1.0000   1.0000   1.0000
     1.0000   1.0000   1.0000   1.0000   1.0000   1.0000   1.0000   1.0000
     1.0000   1.0000   1.0000   1.0000   1.0000   1.0000   1.0000   1.0000
     1.0000   1.0000   1.0000   1.0000   1.0000   1.0000   1.0000   1.0000
     1.0000   1.0000   1.0000   1.0000   1.0000   1.0000   1.0000   1.0000
     1.0000   1.0000   1.0000   1.0000   1.0000   0.0000   0.0000   0.0000
     0.0000   0.0000   0.0000   0.0000   0.0000   0.0000   0.0000   0.0000
     0.0000   0.0000

          k = 0.4164 0.2123 0.0415 ( 20372 PWs)   bands (ev):

  -103.2068 -65.3446 -65.2545 -65.2535 -61.3218 -61.2849 -59.7360 -34.0833
   -34.0298 -33.9980 -29.6810 -29.5719 -29.5467 -29.5069 -29.4712 -29.4286
    -8.8841  -8.0920  -7.8958  -7.5495  -7.4941  -7.4644  -7.2651  -7.0884
     0.2692   1.3628   1.9052   1.9798   2.0701   3.3830   3.8037   3.9168
     4.2068   4.4722   4.7282   5.0811   5.2094   5.4708   5.5415   6.1111
     6.3671   6.5245   6.7613   7.0778   7.2138   7.4410   7.6601   7.7888
     7.9410   8.2278   8.4935   8.6242   8.7509  11.9303  12.2919  12.4084
    12.8434  12.9547  13.5385  15.2069  15.3793  15.6332  15.6953  15.9696
    16.4349  16.7347

     occupation numbers 
     1.0000   1.0000   1.0000   1.0000   1.0000   1.0000   1.0000   1.0000
     1.0000   1.0000   1.0000   1.0000   1.0000   1.0000   1.0000   1.0000
     1.0000   1.0000   1.0000   1.0000   1.0000   1.0000   1.0000   1.0000
     1.0000   1.0000   1.0000   1.0000   1.0000   1.0000   1.0000   1.0000
     1.0000   1.0000   1.0000   1.0000   1.0000   1.0000   1.0000   1.0000
     1.0000   1.0000   1.0000   1.0000   1.0000   1.0000   1.0000   1.0000
     1.0000   1.0000   1.0000   1.0000   1.0000   0.0000   0.0000   0.0000
     0.0000   0.0000   0.0000   0.0000   0.0000   0.0000   0.0000   0.0000
     0.0000   0.0000

          k = 0.4153 0.2123 0.1871 ( 20379 PWs)   bands (ev):

  -103.2068 -65.3445 -65.2548 -65.2536 -61.3218 -61.2849 -59.7360 -34.0833
   -34.0298 -33.9980 -29.6798 -29.5706 -29.5515 -29.5082 -29.4685 -29.4277
    -8.7974  -8.1285  -7.9497  -7.5922  -7.5668  -7.4237  -7.2429  -7.0336
     0.3075   1.3753   1.9061   1.9872   2.0551   3.3550   3.7864   4.0221
     4.1089   4.2458   4.4973   4.9472   5.3168   5.5817   5.9117   6.1114
     6.4072   6.6504   6.8043   6.9928   7.0742   7.3023   7.7216   7.9118
     8.0819   8.2064   8.4926   8.5793   8.7236  11.8330  12.4227  12.5641
    12.7827  12.9641  13.4116  15.1393  15.3406  15.5777  15.6596  15.9698
    16.4474  16.6705

     occupation numbers 
     1.0000   1.0000   1.0000   1.0000   1.0000   1.0000   1.0000   1.0000
     1.0000   1.0000   1.0000   1.0000   1.0000   1.0000   1.0000   1.0000
     1.0000   1.0000   1.0000   1.0000   1.0000   1.0000   1.0000   1.0000
     1.0000   1.0000   1.0000   1.0000   1.0000   1.0000   1.0000   1.0000
     1.0000   1.0000   1.0000   1.0000   1.0000   1.0000   1.0000   1.0000
     1.0000   1.0000   1.0000   1.0000   1.0000   1.0000   1.0000   1.0000
     1.0000   1.0000   1.0000   1.0000   1.0000   0.0000   0.0000   0.0000
     0.0000   0.0000   0.0000   0.0000   0.0000   0.0000   0.0000   0.0000
     0.0000   0.0000

          k = 0.4142 0.2123 0.3326 ( 20384 PWs)   bands (ev):

  -103.2068 -65.3443 -65.2551 -65.2537 -61.3218 -61.2849 -59.7360 -34.0833
   -34.0298 -33.9980 -29.6777 -29.5691 -29.5568 -29.5101 -29.4663 -29.4263
    -8.6405  -8.1777  -8.0906  -7.6961  -7.5416  -7.3875  -7.1927  -7.0126
     0.3299   1.3808   1.9131   1.9921   2.0678   3.3562   3.7396   3.7772
     3.9025   4.3923   4.7198   5.0454   5.3819   5.6603   5.8754   6.0801
     6.3069   6.5097   6.6905   6.9842   7.0534   7.5038   7.8487   8.0051
     8.1427   8.2197   8.3939   8.5306   8.7071  11.9644  12.2322  12.7122
    12.7932  12.9797  13.2016  15.1832  15.3310  15.4974  15.6304  16.0975
    16.2685  16.7055

     occupation numbers 
     1.0000   1.0000   1.0000   1.0000   1.0000   1.0000   1.0000   1.0000
     1.0000   1.0000   1.0000   1.0000   1.0000   1.0000   1.0000   1.0000
     1.0000   1.0000   1.0000   1.0000   1.0000   1.0000   1.0000   1.0000
     1.0000   1.0000   1.0000   1.0000   1.0000   1.0000   1.0000   1.0000
     1.0000   1.0000   1.0000   1.0000   1.0000   1.0000   1.0000   1.0000
     1.0000   1.0000   1.0000   1.0000   1.0000   1.0000   1.0000   1.0000
     1.0000   1.0000   1.0000   1.0000   1.0000   0.0000   0.0000   0.0000
     0.0000   0.0000   0.0000   0.0000   0.0000   0.0000   0.0000   0.0000
     0.0000   0.0000

          k = 0.4197 0.2123-0.3951 ( 20397 PWs)   bands (ev):

  -103.2068 -65.3443 -65.2551 -65.2537 -61.3218 -61.2849 -59.7360 -34.0833
   -34.0298 -33.9980 -29.6769 -29.5691 -29.5572 -29.5108 -29.4669 -29.4255
    -8.5850  -8.2326  -8.0973  -7.7408  -7.5115  -7.3526  -7.2126  -7.0100
     0.3119   1.3751   1.9223   1.9979   2.0721   3.3968   3.6121   3.8173
     3.9419   4.4766   4.8505   5.0877   5.3043   5.6430   5.8001   5.9951
     6.2953   6.5415   6.7218   6.9165   7.1294   7.5249   7.7783   7.9258
     8.1215   8.2164   8.4010   8.5456   8.7420  11.8871  12.2985  12.7032
    12.8372  12.9823  13.1138  15.2278  15.3907  15.5069  15.7141  16.0643
    16.2544  16.7311

     occupation numbers 
     1.0000   1.0000   1.0000   1.0000   1.0000   1.0000   1.0000   1.0000
     1.0000   1.0000   1.0000   1.0000   1.0000   1.0000   1.0000   1.0000
     1.0000   1.0000   1.0000   1.0000   1.0000   1.0000   1.0000   1.0000
     1.0000   1.0000   1.0000   1.0000   1.0000   1.0000   1.0000   1.0000
     1.0000   1.0000   1.0000   1.0000   1.0000   1.0000   1.0000   1.0000
     1.0000   1.0000   1.0000   1.0000   1.0000   1.0000   1.0000   1.0000
     1.0000   1.0000   1.0000   1.0000   1.0000   0.0000   0.0000   0.0000
     0.0000   0.0000   0.0000   0.0000   0.0000   0.0000   0.0000   0.0000
     0.0000   0.0000

          k = 0.4186 0.2123-0.2496 ( 20389 PWs)   bands (ev):

  -103.2068 -65.3445 -65.2548 -65.2536 -61.3218 -61.2849 -59.7360 -34.0833
   -34.0298 -33.9980 -29.6782 -29.5705 -29.5522 -29.5093 -29.4699 -29.4261
    -8.7410  -8.1088  -8.0300  -7.7422  -7.4735  -7.3265  -7.2801  -7.0390
     0.2734   1.3628   1.9213   1.9954   2.0710   3.3329   3.7446   4.0092
     4.1892   4.3906   4.6942   4.9924   5.3531   5.4674   5.7027   6.1200
     6.2921   6.6071   6.8672   7.0008   7.2009   7.2874   7.5363   7.8676
     7.9976   8.2985   8.4224   8.6223   8.7541  11.7692  12.4104  12.6624
    12.7963  12.8699  13.3394  15.2323  15.4068  15.6516  15.7145  16.1187
    16.3632  16.7071

     occupation numbers 
     1.0000   1.0000   1.0000   1.0000   1.0000   1.0000   1.0000   1.0000
     1.0000   1.0000   1.0000   1.0000   1.0000   1.0000   1.0000   1.0000
     1.0000   1.0000   1.0000   1.0000   1.0000   1.0000   1.0000   1.0000
     1.0000   1.0000   1.0000   1.0000   1.0000   1.0000   1.0000   1.0000
     1.0000   1.0000   1.0000   1.0000   1.0000   1.0000   1.0000   1.0000
     1.0000   1.0000   1.0000   1.0000   1.0000   1.0000   1.0000   1.0000
     1.0000   1.0000   1.0000   1.0000   1.0000   0.0000   0.0000   0.0000
     0.0000   0.0000   0.0000   0.0000   0.0000   0.0000   0.0000   0.0000
     0.0000   0.0000

          k = 0.4175 0.2123-0.1040 ( 20392 PWs)   bands (ev):

  -103.2068 -65.3446 -65.2545 -65.2535 -61.3218 -61.2849 -59.7360 -34.0833
   -34.0298 -33.9979 -29.6803 -29.5718 -29.5472 -29.5073 -29.4721 -29.4278
    -8.8638  -8.0713  -7.9311  -7.6652  -7.4569  -7.3890  -7.2570  -7.1023
     0.2530   1.3562   1.9112   1.9826   2.0809   3.3436   3.7968   3.9663
     4.2847   4.5200   4.8554   4.9693   5.1626   5.4679   5.7117   5.9403
     6.1635   6.5694   6.8511   7.0456   7.3092   7.4383   7.5488   7.7576
     7.9142   8.3250   8.4091   8.6677   8.7372  11.9280  12.1997  12.5026
    12.8587  12.8979  13.5125  15.2354  15.4152  15.6429  15.7312  16.1138
    16.4571  16.6397

     occupation numbers 
     1.0000   1.0000   1.0000   1.0000   1.0000   1.0000   1.0000   1.0000
     1.0000   1.0000   1.0000   1.0000   1.0000   1.0000   1.0000   1.0000
     1.0000   1.0000   1.0000   1.0000   1.0000   1.0000   1.0000   1.0000
     1.0000   1.0000   1.0000   1.0000   1.0000   1.0000   1.0000   1.0000
     1.0000   1.0000   1.0000   1.0000   1.0000   1.0000   1.0000   1.0000
     1.0000   1.0000   1.0000   1.0000   1.0000   1.0000   1.0000   1.0000
     1.0000   1.0000   1.0000   1.0000   1.0000   0.0000   0.0000   0.0000
     0.0000   0.0000   0.0000   0.0000   0.0000   0.0000   0.0000   0.0000
     0.0000   0.0000

          k = 0.4165 0.3614 0.0380 ( 20356 PWs)   bands (ev):

  -103.2068 -65.3450 -65.2543 -65.2535 -61.3218 -61.2849 -59.7360 -34.0833
   -34.0299 -33.9980 -29.6801 -29.5716 -29.5458 -29.5077 -29.4719 -29.4290
    -8.8200  -8.0794  -8.0120  -7.5815  -7.5080  -7.4068  -7.2340  -7.1039
     0.2221   1.3870   1.8948   1.9507   2.0571   3.2531   3.8841   4.1430
     4.3411   4.6401   4.8886   5.0986   5.3451   5.4410   5.7506   5.9970
     6.2485   6.4640   6.7124   6.9474   7.1468   7.3606   7.5688   7.7064
     7.9454   8.1861   8.3084   8.4701   8.6338  11.9740  12.3649  12.4723
    12.7464  12.9822  13.4499  15.0464  15.4366  15.5902  15.6401  16.0125
    16.4092  16.8275

     occupation numbers 
     1.0000   1.0000   1.0000   1.0000   1.0000   1.0000   1.0000   1.0000
     1.0000   1.0000   1.0000   1.0000   1.0000   1.0000   1.0000   1.0000
     1.0000   1.0000   1.0000   1.0000   1.0000   1.0000   1.0000   1.0000
     1.0000   1.0000   1.0000   1.0000   1.0000   1.0000   1.0000   1.0000
     1.0000   1.0000   1.0000   1.0000   1.0000   1.0000   1.0000   1.0000
     1.0000   1.0000   1.0000   1.0000   1.0000   1.0000   1.0000   1.0000
     1.0000   1.0000   1.0000   1.0000   1.0000   0.0000   0.0000   0.0000
     0.0000   0.0000   0.0000   0.0000   0.0000   0.0000   0.0000   0.0000
     0.0000   0.0000

          k = 0.4154 0.3614 0.1836 ( 20375 PWs)   bands (ev):

  -103.2068 -65.3449 -65.2546 -65.2537 -61.3218 -61.2849 -59.7360 -34.0833
   -34.0298 -33.9980 -29.6794 -29.5706 -29.5514 -29.5087 -29.4688 -29.4273
    -8.7467  -8.1637  -8.0122  -7.6211  -7.4922  -7.3848  -7.2550  -7.0681
     0.2468   1.4008   1.9000   1.9663   2.0327   3.2703   3.6921   4.1193
     4.2314   4.5368   4.8305   5.1145   5.3607   5.7372   5.9004   5.9653
     6.1257   6.6766   6.8015   6.8960   7.1360   7.3388   7.5404   7.8528
     7.9238   8.1706   8.2638   8.4357   8.6081  11.8598  12.4520  12.5672
    12.7439  12.9394  13.3784  14.9742  15.3559  15.5005  15.6187  16.0755
    16.4904  16.6544

     occupation numbers 
     1.0000   1.0000   1.0000   1.0000   1.0000   1.0000   1.0000   1.0000
     1.0000   1.0000   1.0000   1.0000   1.0000   1.0000   1.0000   1.0000
     1.0000   1.0000   1.0000   1.0000   1.0000   1.0000   1.0000   1.0000
     1.0000   1.0000   1.0000   1.0000   1.0000   1.0000   1.0000   1.0000
     1.0000   1.0000   1.0000   1.0000   1.0000   1.0000   1.0000   1.0000
     1.0000   1.0000   1.0000   1.0000   1.0000   1.0000   1.0000   1.0000
     1.0000   1.0000   1.0000   1.0000   1.0000   0.0000   0.0000   0.0000
     0.0000   0.0000   0.0000   0.0000   0.0000   0.0000   0.0000   0.0000
     0.0000   0.0000

          k = 0.4143 0.3614 0.3291 ( 20391 PWs)   bands (ev):

  -103.2068 -65.3448 -65.2549 -65.2538 -61.3218 -61.2849 -59.7360 -34.0833
   -34.0298 -33.9980 -29.6781 -29.5693 -29.5574 -29.5099 -29.4658 -29.4255
    -8.6284  -8.2417  -8.0533  -7.6901  -7.5060  -7.3502  -7.2024  -7.0732
     0.2576   1.4085   1.9059   1.9814   2.0358   3.3469   3.6127   3.8324
     4.0345   4.7025   4.9756   5.2212   5.3768   5.6410   5.8205   6.0843
     6.2855   6.5591   6.7306   7.0281   7.1889   7.3336   7.6967   7.8879
     7.9242   8.0511   8.2358   8.3870   8.5876  11.9360  12.2556  12.6111
    12.7326  13.0061  13.2307  15.0237  15.2909  15.4121  15.6367  16.1492
    16.3394  16.6954

     occupation numbers 
     1.0000   1.0000   1.0000   1.0000   1.0000   1.0000   1.0000   1.0000
     1.0000   1.0000   1.0000   1.0000   1.0000   1.0000   1.0000   1.0000
     1.0000   1.0000   1.0000   1.0000   1.0000   1.0000   1.0000   1.0000
     1.0000   1.0000   1.0000   1.0000   1.0000   1.0000   1.0000   1.0000
     1.0000   1.0000   1.0000   1.0000   1.0000   1.0000   1.0000   1.0000
     1.0000   1.0000   1.0000   1.0000   1.0000   1.0000   1.0000   1.0000
     1.0000   1.0000   1.0000   1.0000   1.0000   0.0000   0.0000   0.0000
     0.0000   0.0000   0.0000   0.0000   0.0000   0.0000   0.0000   0.0000
     0.0000   0.0000

          k = 0.4197 0.3615-0.3986 ( 20397 PWs)   bands (ev):

  -103.2068 -65.3448 -65.2549 -65.2538 -61.3218 -61.2849 -59.7360 -34.0833
   -34.0298 -33.9980 -29.6777 -29.5694 -29.5575 -29.5102 -29.4661 -29.4251
    -8.6024  -8.2397  -8.0798  -7.6993  -7.5026  -7.3466  -7.2293  -7.0488
     0.2425   1.4037   1.9081   1.9868   2.0472   3.4338   3.6385   3.8105
     3.9535   4.6631   5.1369   5.2402   5.3104   5.6266   5.7026   6.1144
     6.3508   6.6479   6.7604   6.9564   7.1306   7.4389   7.6437   7.7876
     7.8866   8.0611   8.2465   8.3052   8.6694  11.8914  12.2149  12.6550
    12.8027  12.9735  13.1466  15.1215  15.2811  15.4382  15.7082  16.1467
    16.2824  16.7102

     occupation numbers 
     1.0000   1.0000   1.0000   1.0000   1.0000   1.0000   1.0000   1.0000
     1.0000   1.0000   1.0000   1.0000   1.0000   1.0000   1.0000   1.0000
     1.0000   1.0000   1.0000   1.0000   1.0000   1.0000   1.0000   1.0000
     1.0000   1.0000   1.0000   1.0000   1.0000   1.0000   1.0000   1.0000
     1.0000   1.0000   1.0000   1.0000   1.0000   1.0000   1.0000   1.0000
     1.0000   1.0000   1.0000   1.0000   1.0000   1.0000   1.0000   1.0000
     1.0000   1.0000   1.0000   1.0000   1.0000   0.0000   0.0000   0.0000
     0.0000   0.0000   0.0000   0.0000   0.0000   0.0000   0.0000   0.0000
     0.0000   0.0000

          k = 0.4186 0.3614-0.2531 ( 20387 PWs)   bands (ev):

  -103.2068 -65.3449 -65.2546 -65.2537 -61.3218 -61.2849 -59.7360 -34.0833
   -34.0298 -33.9980 -29.6786 -29.5706 -29.5518 -29.5092 -29.4695 -29.4264
    -8.7137  -8.1522  -8.0271  -7.6692  -7.5232  -7.3709  -7.2487  -7.0452
     0.2178   1.3903   1.9040   1.9728   2.0584   3.3307   3.8556   4.0233
     4.1840   4.5696   4.7629   5.1798   5.4090   5.4884   5.8494   6.1762
     6.2879   6.5429   6.8699   6.9578   7.1662   7.2667   7.4297   7.8269
     7.9137   8.0052   8.2851   8.3949   8.6950  11.8082  12.3792  12.5982
    12.7883  12.9238  13.2641  15.1339  15.3676  15.5735  15.6939  16.1278
    16.4566  16.6042

     occupation numbers 
     1.0000   1.0000   1.0000   1.0000   1.0000   1.0000   1.0000   1.0000
     1.0000   1.0000   1.0000   1.0000   1.0000   1.0000   1.0000   1.0000
     1.0000   1.0000   1.0000   1.0000   1.0000   1.0000   1.0000   1.0000
     1.0000   1.0000   1.0000   1.0000   1.0000   1.0000   1.0000   1.0000
     1.0000   1.0000   1.0000   1.0000   1.0000   1.0000   1.0000   1.0000
     1.0000   1.0000   1.0000   1.0000   1.0000   1.0000   1.0000   1.0000
     1.0000   1.0000   1.0000   1.0000   1.0000   0.0000   0.0000   0.0000
     0.0000   0.0000   0.0000   0.0000   0.0000   0.0000   0.0000   0.0000
     0.0000   0.0000

          k = 0.4176 0.3614-0.1075 ( 20360 PWs)   bands (ev):

  -103.2068 -65.3450 -65.2543 -65.2535 -61.3218 -61.2849 -59.7360 -34.0833
   -34.0299 -33.9980 -29.6797 -29.5716 -29.5461 -29.5079 -29.4723 -29.4285
    -8.8072  -8.0959  -7.9694  -7.6572  -7.5230  -7.3747  -7.2249  -7.0964
     0.2081   1.3814   1.8972   1.9524   2.0699   3.2661   3.9871   4.1395
     4.3863   4.5542   4.8434   5.0503   5.2570   5.6251   5.7815   5.9404
     6.2278   6.4300   6.8487   6.9771   7.1013   7.3278   7.4838   7.7515
     7.9370   8.0811   8.3313   8.4694   8.6545  11.9647  12.3085  12.5306
    12.6986  12.9930  13.4044  15.1132  15.4355  15.6290  15.6944  16.0392
    16.4347  16.7572

     occupation numbers 
     1.0000   1.0000   1.0000   1.0000   1.0000   1.0000   1.0000   1.0000
     1.0000   1.0000   1.0000   1.0000   1.0000   1.0000   1.0000   1.0000
     1.0000   1.0000   1.0000   1.0000   1.0000   1.0000   1.0000   1.0000
     1.0000   1.0000   1.0000   1.0000   1.0000   1.0000   1.0000   1.0000
     1.0000   1.0000   1.0000   1.0000   1.0000   1.0000   1.0000   1.0000
     1.0000   1.0000   1.0000   1.0000   1.0000   1.0000   1.0000   1.0000
     1.0000   1.0000   1.0000   1.0000   1.0000   0.0000   0.0000   0.0000
     0.0000   0.0000   0.0000   0.0000   0.0000   0.0000   0.0000   0.0000
     0.0000   0.0000

          k = 0.4162-0.3841 0.0555 ( 20358 PWs)   bands (ev):

  -103.2068 -65.3450 -65.2543 -65.2536 -61.3218 -61.2849 -59.7360 -34.0833
   -34.0299 -33.9980 -29.6798 -29.5716 -29.5460 -29.5079 -29.4723 -29.4286
    -8.7942  -8.0906  -8.0342  -7.6299  -7.4889  -7.3864  -7.1993  -7.1243
     0.2276   1.3850   1.9059   1.9445   2.0573   3.2575   3.8867   4.1445
     4.3580   4.5957   4.9176   5.0787   5.3705   5.4191   5.7392   6.0132
     6.2275   6.4151   6.7597   6.9327   7.1536   7.3881   7.5902   7.6617
     7.9810   8.1742   8.3147   8.4754   8.6173  11.9566  12.3273  12.5404
    12.7515  12.9853  13.4407  15.0193  15.4292  15.5978  15.6382  16.0457
    16.4009  16.8349

     occupation numbers 
     1.0000   1.0000   1.0000   1.0000   1.0000   1.0000   1.0000   1.0000
     1.0000   1.0000   1.0000   1.0000   1.0000   1.0000   1.0000   1.0000
     1.0000   1.0000   1.0000   1.0000   1.0000   1.0000   1.0000   1.0000
     1.0000   1.0000   1.0000   1.0000   1.0000   1.0000   1.0000   1.0000
     1.0000   1.0000   1.0000   1.0000   1.0000   1.0000   1.0000   1.0000
     1.0000   1.0000   1.0000   1.0000   1.0000   1.0000   1.0000   1.0000
     1.0000   1.0000   1.0000   1.0000   1.0000   0.0000   0.0000   0.0000
     0.0000   0.0000   0.0000   0.0000   0.0000   0.0000   0.0000   0.0000
     0.0000   0.0000

          k = 0.4151-0.3842 0.2010 ( 20364 PWs)   bands (ev):

  -103.2068 -65.3449 -65.2546 -65.2537 -61.3218 -61.2849 -59.7360 -34.0833
   -34.0298 -33.9980 -29.6787 -29.5706 -29.5517 -29.5092 -29.4694 -29.4265
    -8.7053  -8.1881  -8.0379  -7.6826  -7.4745  -7.3282  -7.2452  -7.0848
     0.2529   1.3987   1.9116   1.9617   2.0327   3.2599   3.6715   4.1030
     4.3072   4.5363   4.8935   5.0583   5.3712   5.6358   5.8838   5.9840
     6.1455   6.6147   6.8222   6.9604   7.1212   7.3609   7.5755   7.7753
     7.9030   8.2024   8.2848   8.4461   8.5959  11.8345  12.4458  12.5980
    12.7853  12.9294  13.3673  14.9232  15.3606  15.5196  15.6227  16.0947
    16.4897  16.6321

     occupation numbers 
     1.0000   1.0000   1.0000   1.0000   1.0000   1.0000   1.0000   1.0000
     1.0000   1.0000   1.0000   1.0000   1.0000   1.0000   1.0000   1.0000
     1.0000   1.0000   1.0000   1.0000   1.0000   1.0000   1.0000   1.0000
     1.0000   1.0000   1.0000   1.0000   1.0000   1.0000   1.0000   1.0000
     1.0000   1.0000   1.0000   1.0000   1.0000   1.0000   1.0000   1.0000
     1.0000   1.0000   1.0000   1.0000   1.0000   1.0000   1.0000   1.0000
     1.0000   1.0000   1.0000   1.0000   1.0000   0.0000   0.0000   0.0000
     0.0000   0.0000   0.0000   0.0000   0.0000   0.0000   0.0000   0.0000
     0.0000   0.0000

          k = 0.4140-0.3842 0.3466 ( 20382 PWs)   bands (ev):

  -103.2068 -65.3447 -65.2548 -65.2538 -61.3218 -61.2849 -59.7360 -34.0833
   -34.0298 -33.9980 -29.6778 -29.5694 -29.5574 -29.5102 -29.4661 -29.4252
    -8.5878  -8.2811  -8.0333  -7.7384  -7.5208  -7.3230  -7.1877  -7.0758
     0.2636   1.4068   1.9163   1.9778   2.0371   3.3458   3.5358   3.8493
     4.1214   4.7296   4.9932   5.1798   5.3579   5.6016   5.7625   6.1691
     6.2677   6.5429   6.7681   7.0226   7.1454   7.3953   7.6966   7.8155
     7.9119   8.0555   8.2662   8.4177   8.5762  11.9222  12.2636  12.6167
    12.7467  13.0212  13.2140  14.9793  15.3232  15.4068  15.6408  16.1433
    16.3456  16.7069

     occupation numbers 
     1.0000   1.0000   1.0000   1.0000   1.0000   1.0000   1.0000   1.0000
     1.0000   1.0000   1.0000   1.0000   1.0000   1.0000   1.0000   1.0000
     1.0000   1.0000   1.0000   1.0000   1.0000   1.0000   1.0000   1.0000
     1.0000   1.0000   1.0000   1.0000   1.0000   1.0000   1.0000   1.0000
     1.0000   1.0000   1.0000   1.0000   1.0000   1.0000   1.0000   1.0000
     1.0000   1.0000   1.0000   1.0000   1.0000   1.0000   1.0000   1.0000
     1.0000   1.0000   1.0000   1.0000   1.0000   0.0000   0.0000   0.0000
     0.0000   0.0000   0.0000   0.0000   0.0000   0.0000   0.0000   0.0000
     0.0000   0.0000

          k = 0.4194-0.3841-0.3812 ( 20391 PWs)   bands (ev):

  -103.2068 -65.3447 -65.2548 -65.2538 -61.3218 -61.2849 -59.7360 -34.0833
   -34.0298 -33.9980 -29.6782 -29.5694 -29.5573 -29.5098 -29.4658 -29.4255
    -8.6058  -8.2418  -8.0241  -7.7316  -7.5417  -7.3737  -7.1952  -7.0366
     0.2477   1.4023   1.9134   1.9867   2.0497   3.4343   3.5932   3.8271
     3.9878   4.6911   5.0858   5.1846   5.2858   5.6518   5.7973   6.0647
     6.3483   6.6727   6.7796   6.9656   7.1135   7.4114   7.6892   7.7972
     7.8367   8.0502   8.2455   8.3126   8.6781  11.9261  12.1726  12.6683
    12.7994  12.9567  13.1605  15.1302  15.2903  15.4156  15.6962  16.1533
    16.2908  16.7251

     occupation numbers 
     1.0000   1.0000   1.0000   1.0000   1.0000   1.0000   1.0000   1.0000
     1.0000   1.0000   1.0000   1.0000   1.0000   1.0000   1.0000   1.0000
     1.0000   1.0000   1.0000   1.0000   1.0000   1.0000   1.0000   1.0000
     1.0000   1.0000   1.0000   1.0000   1.0000   1.0000   1.0000   1.0000
     1.0000   1.0000   1.0000   1.0000   1.0000   1.0000   1.0000   1.0000
     1.0000   1.0000   1.0000   1.0000   1.0000   1.0000   1.0000   1.0000
     1.0000   1.0000   1.0000   1.0000   1.0000   0.0000   0.0000   0.0000
     0.0000   0.0000   0.0000   0.0000   0.0000   0.0000   0.0000   0.0000
     0.0000   0.0000

          k = 0.4184-0.3841-0.2356 ( 20374 PWs)   bands (ev):

  -103.2068 -65.3449 -65.2546 -65.2537 -61.3218 -61.2849 -59.7360 -34.0833
   -34.0298 -33.9980 -29.6795 -29.5706 -29.5514 -29.5086 -29.4688 -29.4272
    -8.7221  -8.1585  -7.9631  -7.6542  -7.5772  -7.4357  -7.2189  -7.0220
     0.2224   1.3890   1.9074   1.9725   2.0613   3.3602   3.8090   4.0205
     4.2016   4.5384   4.7778   5.1418   5.3520   5.5696   5.8887   6.1193
     6.3107   6.6122   6.8193   6.9744   7.1510   7.2649   7.4352   7.8044
     7.9308   8.0650   8.2215   8.3914   8.7060  11.8384  12.3379  12.6154
    12.7675  12.9257  13.2691  15.1655  15.3831  15.5316  15.6853  16.1055
    16.4743  16.6334

     occupation numbers 
     1.0000   1.0000   1.0000   1.0000   1.0000   1.0000   1.0000   1.0000
     1.0000   1.0000   1.0000   1.0000   1.0000   1.0000   1.0000   1.0000
     1.0000   1.0000   1.0000   1.0000   1.0000   1.0000   1.0000   1.0000
     1.0000   1.0000   1.0000   1.0000   1.0000   1.0000   1.0000   1.0000
     1.0000   1.0000   1.0000   1.0000   1.0000   1.0000   1.0000   1.0000
     1.0000   1.0000   1.0000   1.0000   1.0000   1.0000   1.0000   1.0000
     1.0000   1.0000   1.0000   1.0000   1.0000   0.0000   0.0000   0.0000
     0.0000   0.0000   0.0000   0.0000   0.0000   0.0000   0.0000   0.0000
     0.0000   0.0000

          k = 0.4173-0.3841-0.0901 ( 20386 PWs)   bands (ev):

  -103.2068 -65.3450 -65.2543 -65.2536 -61.3218 -61.2849 -59.7360 -34.0833
   -34.0299 -33.9980 -29.6802 -29.5717 -29.5458 -29.5077 -29.4719 -29.4290
    -8.7998  -8.1157  -7.9371  -7.6347  -7.5692  -7.4026  -7.2206  -7.0707
     0.2129   1.3799   1.9054   1.9472   2.0716   3.2914   3.9994   4.0777
     4.3575   4.6070   4.8125   5.0479   5.2967   5.5748   5.7876   5.8942
     6.3119   6.4896   6.7849   6.9328   7.1518   7.2770   7.4946   7.7691
     7.9697   8.1195   8.2860   8.4645   8.6496  11.9755  12.3325  12.4742
    12.7202  12.9965  13.3989  15.1229  15.4497  15.6031  15.6920  16.0219
    16.4380  16.8386

     occupation numbers 
     1.0000   1.0000   1.0000   1.0000   1.0000   1.0000   1.0000   1.0000
     1.0000   1.0000   1.0000   1.0000   1.0000   1.0000   1.0000   1.0000
     1.0000   1.0000   1.0000   1.0000   1.0000   1.0000   1.0000   1.0000
     1.0000   1.0000   1.0000   1.0000   1.0000   1.0000   1.0000   1.0000
     1.0000   1.0000   1.0000   1.0000   1.0000   1.0000   1.0000   1.0000
     1.0000   1.0000   1.0000   1.0000   1.0000   1.0000   1.0000   1.0000
     1.0000   1.0000   1.0000   1.0000   1.0000   0.0000   0.0000   0.0000
     0.0000   0.0000   0.0000   0.0000   0.0000   0.0000   0.0000   0.0000
     0.0000   0.0000

          k = 0.4162-0.2350 0.0520 ( 20383 PWs)   bands (ev):

  -103.2068 -65.3446 -65.2544 -65.2537 -61.3218 -61.2849 -59.7360 -34.0833
   -34.0298 -33.9980 -29.6805 -29.5719 -29.5470 -29.5072 -29.4720 -29.4279
    -8.8416  -8.0725  -7.9854  -7.6373  -7.4942  -7.3730  -7.2210  -7.1128
     0.2806   1.3587   1.9221   1.9713   2.0724   3.4041   3.8167   3.8945
     4.2220   4.4236   4.7505   5.0816   5.2099   5.3667   5.6251   6.1242
     6.3474   6.5054   6.6983   7.0908   7.2643   7.4276   7.6671   7.7925
     8.0109   8.2186   8.4697   8.6305   8.7346  11.9030  12.2312  12.5180
    12.8636  12.9459  13.5289  15.1134  15.4134  15.6285  15.6869  16.0764
    16.3928  16.7474

     occupation numbers 
     1.0000   1.0000   1.0000   1.0000   1.0000   1.0000   1.0000   1.0000
     1.0000   1.0000   1.0000   1.0000   1.0000   1.0000   1.0000   1.0000
     1.0000   1.0000   1.0000   1.0000   1.0000   1.0000   1.0000   1.0000
     1.0000   1.0000   1.0000   1.0000   1.0000   1.0000   1.0000   1.0000
     1.0000   1.0000   1.0000   1.0000   1.0000   1.0000   1.0000   1.0000
     1.0000   1.0000   1.0000   1.0000   1.0000   1.0000   1.0000   1.0000
     1.0000   1.0000   1.0000   1.0000   1.0000   0.0000   0.0000   0.0000
     0.0000   0.0000   0.0000   0.0000   0.0000   0.0000   0.0000   0.0000
     0.0000   0.0000

          k = 0.4152-0.2350 0.1976 ( 20393 PWs)   bands (ev):

  -103.2068 -65.3444 -65.2547 -65.2537 -61.3218 -61.2849 -59.7360 -34.0833
   -34.0298 -33.9980 -29.6784 -29.5705 -29.5521 -29.5093 -29.4698 -29.4262
    -8.7263  -8.1379  -8.0353  -7.7285  -7.5104  -7.3072  -7.2380  -7.0564
     0.3201   1.3705   1.9293   1.9750   2.0587   3.3517   3.6914   4.0128
     4.1934   4.2912   4.5944   4.8850   5.2833   5.5436   5.9615   6.1113
     6.2604   6.5617   6.9132   6.9826   7.1147   7.3359   7.6977   7.8724
     8.1517   8.2444   8.4060   8.6187   8.7220  11.7916  12.3873  12.6961
    12.7995  12.9423  13.4019  14.9887  15.3839  15.5948  15.6768  16.0384
    16.4341  16.6352

     occupation numbers 
     1.0000   1.0000   1.0000   1.0000   1.0000   1.0000   1.0000   1.0000
     1.0000   1.0000   1.0000   1.0000   1.0000   1.0000   1.0000   1.0000
     1.0000   1.0000   1.0000   1.0000   1.0000   1.0000   1.0000   1.0000
     1.0000   1.0000   1.0000   1.0000   1.0000   1.0000   1.0000   1.0000
     1.0000   1.0000   1.0000   1.0000   1.0000   1.0000   1.0000   1.0000
     1.0000   1.0000   1.0000   1.0000   1.0000   1.0000   1.0000   1.0000
     1.0000   1.0000   1.0000   1.0000   1.0000   0.0000   0.0000   0.0000
     0.0000   0.0000   0.0000   0.0000   0.0000   0.0000   0.0000   0.0000
     0.0000   0.0000

          k = 0.4141-0.2351 0.3431 ( 20408 PWs)   bands (ev):

  -103.2068 -65.3443 -65.2550 -65.2538 -61.3218 -61.2849 -59.7360 -34.0833
   -34.0298 -33.9980 -29.6771 -29.5691 -29.5570 -29.5108 -29.4669 -29.4255
    -8.5571  -8.2813  -8.0160  -7.8064  -7.5614  -7.3400  -7.1699  -7.0123
     0.3423   1.3767   1.9355   1.9805   2.0739   3.3622   3.5357   3.8169
     4.0705   4.4454   4.7605   4.9692   5.3839   5.6142   5.9004   6.0613
     6.1647   6.5899   6.7370   6.9015   7.1565   7.4958   7.8339   7.9573
     8.0858   8.3023   8.3849   8.5549   8.7077  11.9347  12.2548  12.7301
    12.8042  13.0208  13.1651  15.0550  15.3889  15.5066  15.6462  16.0850
    16.2994  16.7358

     occupation numbers 
     1.0000   1.0000   1.0000   1.0000   1.0000   1.0000   1.0000   1.0000
     1.0000   1.0000   1.0000   1.0000   1.0000   1.0000   1.0000   1.0000
     1.0000   1.0000   1.0000   1.0000   1.0000   1.0000   1.0000   1.0000
     1.0000   1.0000   1.0000   1.0000   1.0000   1.0000   1.0000   1.0000
     1.0000   1.0000   1.0000   1.0000   1.0000   1.0000   1.0000   1.0000
     1.0000   1.0000   1.0000   1.0000   1.0000   1.0000   1.0000   1.0000
     1.0000   1.0000   1.0000   1.0000   1.0000   0.0000   0.0000   0.0000
     0.0000   0.0000   0.0000   0.0000   0.0000   0.0000   0.0000   0.0000
     0.0000   0.0000

          k = 0.4195-0.2350-0.3847 ( 20406 PWs)   bands (ev):

  -103.2068 -65.3443 -65.2550 -65.2538 -61.3218 -61.2849 -59.7360 -34.0833
   -34.0298 -33.9980 -29.6779 -29.5692 -29.5567 -29.5101 -29.4663 -29.4263
    -8.5952  -8.2177  -8.0010  -7.7968  -7.5942  -7.3915  -7.1590  -6.9911
     0.3227   1.3722   1.9338   1.9941   2.0801   3.3716   3.5895   3.8381
     4.0016   4.4509   4.7798   5.0868   5.2849   5.6839   5.7552   6.0793
     6.3025   6.5068   6.7613   6.9384   7.1162   7.4771   7.8308   7.8981
     8.0161   8.2985   8.4243   8.5245   8.7449  11.9459  12.2272  12.7144
    12.8678  12.9231  13.1434  15.2551  15.3927  15.4552  15.6772  16.1064
    16.2905  16.7417

     occupation numbers 
     1.0000   1.0000   1.0000   1.0000   1.0000   1.0000   1.0000   1.0000
     1.0000   1.0000   1.0000   1.0000   1.0000   1.0000   1.0000   1.0000
     1.0000   1.0000   1.0000   1.0000   1.0000   1.0000   1.0000   1.0000
     1.0000   1.0000   1.0000   1.0000   1.0000   1.0000   1.0000   1.0000
     1.0000   1.0000   1.0000   1.0000   1.0000   1.0000   1.0000   1.0000
     1.0000   1.0000   1.0000   1.0000   1.0000   1.0000   1.0000   1.0000
     1.0000   1.0000   1.0000   1.0000   1.0000   0.0000   0.0000   0.0000
     0.0000   0.0000   0.0000   0.0000   0.0000   0.0000   0.0000   0.0000
     0.0000   0.0000

          k = 0.4184-0.2350-0.2391 ( 20396 PWs)   bands (ev):

  -103.2068 -65.3444 -65.2547 -65.2537 -61.3218 -61.2849 -59.7360 -34.0833
   -34.0298 -33.9979 -29.6801 -29.5707 -29.5513 -29.5082 -29.4686 -29.4277
    -8.7560  -8.1174  -7.9087  -7.7131  -7.5987  -7.4498  -7.2029  -6.9978
     0.2829   1.3604   1.9255   1.9951   2.0787   3.3840   3.7155   3.9981
     4.1800   4.3492   4.6687   4.9703   5.3059   5.4926   5.7218   6.1164
     6.3953   6.7019   6.8741   7.0054   7.1017   7.2093   7.6847   7.7408
     7.9939   8.3472   8.4323   8.5979   8.7521  11.8135  12.3896  12.6031
    12.7688  12.9245  13.3324  15.3365  15.4045  15.5807  15.6817  16.0614
    16.4528  16.7356

     occupation numbers 
     1.0000   1.0000   1.0000   1.0000   1.0000   1.0000   1.0000   1.0000
     1.0000   1.0000   1.0000   1.0000   1.0000   1.0000   1.0000   1.0000
     1.0000   1.0000   1.0000   1.0000   1.0000   1.0000   1.0000   1.0000
     1.0000   1.0000   1.0000   1.0000   1.0000   1.0000   1.0000   1.0000
     1.0000   1.0000   1.0000   1.0000   1.0000   1.0000   1.0000   1.0000
     1.0000   1.0000   1.0000   1.0000   1.0000   1.0000   1.0000   1.0000
     1.0000   1.0000   1.0000   1.0000   1.0000   0.0000   0.0000   0.0000
     0.0000   0.0000   0.0000   0.0000   0.0000   0.0000   0.0000   0.0000
     0.0000   0.0000

          k = 0.4173-0.2350-0.0936 ( 20390 PWs)   bands (ev):

  -103.2068 -65.3446 -65.2544 -65.2537 -61.3218 -61.2849 -59.7360 -34.0833
   -34.0298 -33.9979 -29.6813 -29.5719 -29.5466 -29.5068 -29.4713 -29.4286
    -8.8513  -8.0955  -7.8752  -7.6406  -7.5444  -7.4353  -7.2441  -7.0535
     0.2628   1.3534   1.9202   1.9779   2.0859   3.4107   3.8088   3.9028
     4.1876   4.6092   4.7378   5.0154   5.2350   5.4158   5.7104   5.8038
     6.3122   6.6968   6.7998   7.0251   7.2976   7.3588   7.5800   7.7659
     7.9358   8.3006   8.4735   8.6468   8.7157  11.9486  12.2125  12.4516
    12.8558  12.9287  13.4975  15.2655  15.4330  15.6255  15.7129  16.0518
    16.4619  16.7730

     occupation numbers 
     1.0000   1.0000   1.0000   1.0000   1.0000   1.0000   1.0000   1.0000
     1.0000   1.0000   1.0000   1.0000   1.0000   1.0000   1.0000   1.0000
     1.0000   1.0000   1.0000   1.0000   1.0000   1.0000   1.0000   1.0000
     1.0000   1.0000   1.0000   1.0000   1.0000   1.0000   1.0000   1.0000
     1.0000   1.0000   1.0000   1.0000   1.0000   1.0000   1.0000   1.0000
     1.0000   1.0000   1.0000   1.0000   1.0000   1.0000   1.0000   1.0000
     1.0000   1.0000   1.0000   1.0000   1.0000   0.0000   0.0000   0.0000
     0.0000   0.0000   0.0000   0.0000   0.0000   0.0000   0.0000   0.0000
     0.0000   0.0000

          k = 0.4163-0.0859 0.0485 ( 20397 PWs)   bands (ev):

  -103.2068 -65.3441 -65.2546 -65.2536 -61.3218 -61.2849 -59.7360 -34.0833
   -34.0298 -33.9979 -29.6814 -29.5721 -29.5479 -29.5064 -29.4713 -29.4275
    -8.9045  -8.0746  -7.8563  -7.6372  -7.5368  -7.3392  -7.3021  -7.0743
     0.3309   1.3380   1.9285   1.9833   2.1018   3.5713   3.6820   3.7821
     4.0078   4.4259   4.5756   4.8843   5.0787   5.3356   5.6541   5.9342
     6.5569   6.7722   6.9533   7.0924   7.2493   7.4319   7.6277   7.7574
     7.9022   8.4654   8.6703   8.7741   8.9229  11.8669  12.2097  12.4104
    12.9019  13.0161  13.5671  15.1967  15.4523  15.5955  15.7209  16.0542
    16.4745  16.6617

     occupation numbers 
     1.0000   1.0000   1.0000   1.0000   1.0000   1.0000   1.0000   1.0000
     1.0000   1.0000   1.0000   1.0000   1.0000   1.0000   1.0000   1.0000
     1.0000   1.0000   1.0000   1.0000   1.0000   1.0000   1.0000   1.0000
     1.0000   1.0000   1.0000   1.0000   1.0000   1.0000   1.0000   1.0000
     1.0000   1.0000   1.0000   1.0000   1.0000   1.0000   1.0000   1.0000
     1.0000   1.0000   1.0000   1.0000   1.0000   1.0000   1.0000   1.0000
     1.0000   1.0000   1.0000   1.0000   1.0000   0.0000   0.0000   0.0000
     0.0000   0.0000   0.0000   0.0000   0.0000   0.0000   0.0000   0.0000
     0.0000   0.0000

          k = 0.4152-0.0859 0.1941 ( 20398 PWs)   bands (ev):

  -103.2068 -65.3440 -65.2549 -65.2537 -61.3218 -61.2849 -59.7360 -34.0833
   -34.0298 -33.9980 -29.6789 -29.5705 -29.5522 -29.5089 -29.4696 -29.4266
    -8.7829  -8.0636  -8.0051  -7.7042  -7.5806  -7.3546  -7.2390  -7.0003
     0.3855   1.3488   1.9355   1.9770   2.0940   3.4494   3.6755   3.8793
     4.1191   4.2216   4.3609   4.8004   4.8748   5.6802   6.0154   6.1475
     6.2950   6.6123   6.8245   6.9857   7.2172   7.4414   7.7288   7.9776
     8.1116   8.4422   8.5539   8.8255   8.8814  11.7877  12.3359  12.6611
    12.8694  12.9848  13.4215  15.1081  15.4034  15.6123  15.7543  15.9169
    16.3906  16.6872

     occupation numbers 
     1.0000   1.0000   1.0000   1.0000   1.0000   1.0000   1.0000   1.0000
     1.0000   1.0000   1.0000   1.0000   1.0000   1.0000   1.0000   1.0000
     1.0000   1.0000   1.0000   1.0000   1.0000   1.0000   1.0000   1.0000
     1.0000   1.0000   1.0000   1.0000   1.0000   1.0000   1.0000   1.0000
     1.0000   1.0000   1.0000   1.0000   1.0000   1.0000   1.0000   1.0000
     1.0000   1.0000   1.0000   1.0000   1.0000   1.0000   1.0000   1.0000
     1.0000   1.0000   1.0000   1.0000   1.0000   0.0000   0.0000   0.0000
     0.0000   0.0000   0.0000   0.0000   0.0000   0.0000   0.0000   0.0000
     0.0000   0.0000

          k = 0.4141-0.0860 0.3396 ( 20393 PWs)   bands (ev):

  -103.2068 -65.3439 -65.2552 -65.2537 -61.3218 -61.2849 -59.7360 -34.0833
   -34.0298 -33.9980 -29.6767 -29.5688 -29.5565 -29.5110 -29.4674 -29.4263
    -8.5782  -8.2327  -8.0181  -7.8071  -7.6002  -7.3857  -7.1713  -6.9444
     0.4214   1.3522   1.9456   1.9804   2.1081   3.4140   3.4724   3.7369
     3.9096   4.4386   4.7644   4.8339   5.1312   5.6251   5.9105   5.9744
     6.1269   6.3630   6.7288   6.9579   7.2704   7.6841   7.9062   8.0692
     8.1985   8.4444   8.4956   8.7972   8.8345  11.9617  12.2727  12.7459
    12.8917  12.9939  13.1621  15.2092  15.4286  15.5741  15.6389  16.0228
    16.2199  16.8330

     occupation numbers 
     1.0000   1.0000   1.0000   1.0000   1.0000   1.0000   1.0000   1.0000
     1.0000   1.0000   1.0000   1.0000   1.0000   1.0000   1.0000   1.0000
     1.0000   1.0000   1.0000   1.0000   1.0000   1.0000   1.0000   1.0000
     1.0000   1.0000   1.0000   1.0000   1.0000   1.0000   1.0000   1.0000
     1.0000   1.0000   1.0000   1.0000   1.0000   1.0000   1.0000   1.0000
     1.0000   1.0000   1.0000   1.0000   1.0000   1.0000   1.0000   1.0000
     1.0000   1.0000   1.0000   1.0000   1.0000   0.0000   0.0000   0.0000
     0.0000   0.0000   0.0000   0.0000   0.0000   0.0000   0.0000   0.0000
     0.0000   0.0000

          k = 0.4196-0.0859-0.3882 ( 20425 PWs)   bands (ev):

  -103.2068 -65.3439 -65.2552 -65.2537 -61.3218 -61.2849 -59.7360 -34.0833
   -34.0298 -33.9980 -29.6771 -29.5689 -29.5563 -29.5107 -29.4672 -29.4266
    -8.5821  -8.2121  -7.9962  -7.8372  -7.6035  -7.4123  -7.1541  -6.9424
     0.3986   1.3459   1.9489   1.9942   2.1103   3.3427   3.4866   3.8088
     3.9100   4.5191   4.7771   4.9360   5.2734   5.5250   5.7110   5.8747
     6.2264   6.3464   6.6873   7.0247   7.2347   7.6342   7.8938   8.0506
     8.1690   8.4598   8.5666   8.7249   8.8599  11.9653  12.2875  12.7612
    12.8705  12.9411  13.1370  15.4214  15.4615  15.5458  15.6505  16.0152
    16.2796  16.7695

     occupation numbers 
     1.0000   1.0000   1.0000   1.0000   1.0000   1.0000   1.0000   1.0000
     1.0000   1.0000   1.0000   1.0000   1.0000   1.0000   1.0000   1.0000
     1.0000   1.0000   1.0000   1.0000   1.0000   1.0000   1.0000   1.0000
     1.0000   1.0000   1.0000   1.0000   1.0000   1.0000   1.0000   1.0000
     1.0000   1.0000   1.0000   1.0000   1.0000   1.0000   1.0000   1.0000
     1.0000   1.0000   1.0000   1.0000   1.0000   1.0000   1.0000   1.0000
     1.0000   1.0000   1.0000   1.0000   1.0000   0.0000   0.0000   0.0000
     0.0000   0.0000   0.0000   0.0000   0.0000   0.0000   0.0000   0.0000
     0.0000   0.0000

          k = 0.4185-0.0859-0.2426 ( 20405 PWs)   bands (ev):

  -103.2068 -65.3440 -65.2549 -65.2537 -61.3218 -61.2849 -59.7360 -34.0833
   -34.0298 -33.9979 -29.6797 -29.5706 -29.5518 -29.5082 -29.4690 -29.4274
    -8.7829  -8.0551  -7.9288  -7.7612  -7.5882  -7.4397  -7.1939  -6.9850
     0.3429   1.3351   1.9416   2.0023   2.1033   3.3732   3.5276   4.0829
     4.1704   4.3098   4.5418   4.8404   5.0971   5.5495   5.7491   6.0234
     6.2765   6.6285   6.8395   6.9376   7.1583   7.4546   7.7384   7.9327
     8.0496   8.4882   8.6079   8.7838   8.8711  11.8028  12.3935  12.6068
    12.8132  12.9265  13.3714  15.3814  15.4861  15.6836  15.7631  15.9960
    16.4079  16.7011

     occupation numbers 
     1.0000   1.0000   1.0000   1.0000   1.0000   1.0000   1.0000   1.0000
     1.0000   1.0000   1.0000   1.0000   1.0000   1.0000   1.0000   1.0000
     1.0000   1.0000   1.0000   1.0000   1.0000   1.0000   1.0000   1.0000
     1.0000   1.0000   1.0000   1.0000   1.0000   1.0000   1.0000   1.0000
     1.0000   1.0000   1.0000   1.0000   1.0000   1.0000   1.0000   1.0000
     1.0000   1.0000   1.0000   1.0000   1.0000   1.0000   1.0000   1.0000
     1.0000   1.0000   1.0000   1.0000   1.0000   0.0000   0.0000   0.0000
     0.0000   0.0000   0.0000   0.0000   0.0000   0.0000   0.0000   0.0000
     0.0000   0.0000

          k = 0.4174-0.0859-0.0970 ( 20391 PWs)   bands (ev):

  -103.2068 -65.3441 -65.2546 -65.2536 -61.3218 -61.2849 -59.7360 -34.0833
   -34.0298 -33.9979 -29.6818 -29.5721 -29.5477 -29.5062 -29.4710 -29.4279
    -8.9041  -8.0718  -7.7793  -7.7147  -7.5051  -7.4343  -7.2654  -7.0527
     0.3109   1.3308   1.9312   1.9936   2.1097   3.4758   3.6230   3.8153
     4.1452   4.5534   4.6569   4.9023   5.0860   5.4069   5.5961   5.7900
     6.3334   6.7783   6.9738   7.1362   7.3340   7.3989   7.5970   7.7190
     7.8915   8.4879   8.6852   8.7881   8.8893  11.9095  12.1858  12.3821
    12.8748  13.0008  13.5402  15.3181  15.4889  15.6340  15.7343  16.1269
    16.5024  16.6223

     occupation numbers 
     1.0000   1.0000   1.0000   1.0000   1.0000   1.0000   1.0000   1.0000
     1.0000   1.0000   1.0000   1.0000   1.0000   1.0000   1.0000   1.0000
     1.0000   1.0000   1.0000   1.0000   1.0000   1.0000   1.0000   1.0000
     1.0000   1.0000   1.0000   1.0000   1.0000   1.0000   1.0000   1.0000
     1.0000   1.0000   1.0000   1.0000   1.0000   1.0000   1.0000   1.0000
     1.0000   1.0000   1.0000   1.0000   1.0000   1.0000   1.0000   1.0000
     1.0000   1.0000   1.0000   1.0000   1.0000   0.0000   0.0000   0.0000
     0.0000   0.0000   0.0000   0.0000   0.0000   0.0000   0.0000   0.0000
     0.0000   0.0000

     the Fermi energy is    10.2391 ev

!    total energy              =   -1163.58652419 Ry
     estimated scf accuracy    <          6.6E-10 Ry
     smearing contrib. (-TS)   =       0.00172689 Ry
     internal energy E=F+TS    =   -1163.58825108 Ry

     The total energy is F=E-TS. E is the sum of the following terms:
     one-electron contribution =    -551.25594777 Ry
     hartree contribution      =     329.23076096 Ry
     xc contribution           =    -213.82256182 Ry
     ewald contribution        =    -727.87679779 Ry
     Hubbard energy            =       0.13629534 Ry

     total magnetization       =     4.00 Bohr mag/cell
     absolute magnetization    =     5.94 Bohr mag/cell

     convergence has been achieved in  17 iterations

     Writing all to output data dir ./tmp/MnCuWO4_AFM/MnCuWO4_AFM.save/ :
     XML data file, charge density, pseudopotentials, collected wavefunctions
 
     init_run     :     11.68s CPU     11.94s WALL (       1 calls)
     electrons    :    509.95s CPU    515.34s WALL (       1 calls)

     Called by init_run:
     wfcinit      :     11.61s CPU     11.85s WALL (       1 calls)
     wfcinit:atom :      0.08s CPU      0.08s WALL (     216 calls)
     wfcinit:wfcr :      8.74s CPU      8.92s WALL (     216 calls)
     potinit      :      0.02s CPU      0.02s WALL (       1 calls)
     hinit0       :      0.02s CPU      0.02s WALL (       1 calls)

     Called by electrons:
     c_bands      :    457.23s CPU    461.77s WALL (      17 calls)
     sum_band     :     52.12s CPU     52.86s WALL (      17 calls)
     v_of_rho     :      0.26s CPU      0.28s WALL (      18 calls)
     v_h          :      0.01s CPU      0.01s WALL (      18 calls)
     v_xc         :      0.26s CPU      0.27s WALL (      18 calls)
     mix_rho      :      0.34s CPU      0.35s WALL (      17 calls)

     Called by c_bands:
     init_us_2    :     11.28s CPU     11.50s WALL (    7776 calls)
     cegterg      :    417.87s CPU    421.75s WALL (    3672 calls)

     Called by sum_band:
     sum_band:wei :      0.41s CPU      0.42s WALL (      17 calls)
     sum_band:loo :     48.72s CPU     49.29s WALL (      17 calls)
     sum_band:buf :      1.16s CPU      1.19s WALL (    3672 calls)
     sum_band:ini :      4.24s CPU      4.29s WALL (    3672 calls)

     Called by *egterg:
     cdiaghg      :     50.74s CPU     51.04s WALL (   16408 calls)
     cegterg:over :     22.96s CPU     23.13s WALL (   12736 calls)
     cegterg:upda :     14.80s CPU     14.91s WALL (   12736 calls)
     cegterg:last :     29.03s CPU     29.22s WALL (    7390 calls)
     h_psi        :    295.18s CPU    298.42s WALL (   16624 calls)
     g_psi        :      1.03s CPU      1.04s WALL (   12736 calls)

     Called by h_psi:
     h_psi:calbec :     36.76s CPU     37.05s WALL (   16624 calls)
     vloc_psi     :    206.40s CPU    208.99s WALL (   16624 calls)
     add_vuspsi   :     39.12s CPU     39.38s WALL (   16624 calls)
     vhpsi        :     10.94s CPU     11.03s WALL (   16624 calls)

     General routines
     calbec       :     47.80s CPU     48.27s WALL (   37136 calls)
     fft          :      0.11s CPU      0.12s WALL (     340 calls)
     ffts         :      0.18s CPU      0.19s WALL (     556 calls)
     fftw         :    231.67s CPU    234.53s WALL ( 1452044 calls)
 
     Parallel routines

     Hubbard U routines
     new_ns       :      2.96s CPU      3.13s WALL (      17 calls)
     vhpsi        :     10.94s CPU     11.03s WALL (   16624 calls)
 
     PWSCF        :   8m43.20s CPU   8m57.28s WALL

 
   This run was terminated on:   6:37:24  19Nov2025            

=------------------------------------------------------------------------------=
   JOB DONE.
=------------------------------------------------------------------------------=
