
     Program PWSCF v.7.4.1 starts on 19Nov2025 at  6:23:31 
        Git branch: heads/qe-7.4.1
        Last git commit: 500de340b820e1cb8c05f2d8bb8fced102f377c1-dirty
        Last git commit date: Fri Feb 7 14:59:05 2025 +0000
        Last git commit subject: Merge branch 'qe-7.4.1' into 'master'

     This program is part of the open-source Quantum ESPRESSO suite
     for quantum simulation of materials; please cite
         "P. Giannozzi et al., J. Phys.:Condens. Matter 21 395502 (2009);
         "P. Giannozzi et al., J. Phys.:Condens. Matter 29 465901 (2017);
         "P. Giannozzi et al., J. Chem. Phys. 152 154105 (2020);
          URL http://www.quantum-espresso.org", 
     in publications or presentations arising from this work. More details at
     http://www.quantum-espresso.org/quote

     Parallel version (MPI), running on    16 processors

     MPI processes distributed on     1 nodes
     660936 MiB available memory on the printing compute node when the environment starts
 
     Reading input from inputs_FM/NiFeWO4_FM.in

     Current dimensions of program PWSCF are:
     Max number of different atomic species (ntypx) = 10
     Max number of k-points (npk) =  40000
     Max angular momentum in pseudopotentials (lmaxx) =  4
     Message from routine setup:
     using ibrav=0 with symmetry is DISCOURAGED, use correct ibrav instead
 
     R & G space division:  proc/nbgrp/npool/nimage =      16
     Subspace diagonalization in iterative solution of the eigenvalue problem:
     a serial algorithm will be used

 
     Parallelization info
     --------------------
     sticks:   dense  smooth     PW     G-vecs:    dense   smooth      PW
     Min         207     207     56                 8889     8889    1268
     Max         208     208     57                 8892     8892    1269
     Sum        3323    3323    907               142247   142247   20295
 
     Using Slab Decomposition
 


     bravais-lattice index     =            0
     lattice parameter (alat)  =       8.3436  a.u.
     unit-cell volume          =     800.2752 (a.u.)^3
     number of atoms/cell      =           12
     number of atomic types    =            4
     number of electrons       =       110.00
     number of Kohn-Sham states=           66
     kinetic-energy cutoff     =     120.0000  Ry
     charge density cutoff     =     480.0000  Ry
     scf convergence threshold =      1.0E-09
     mixing beta               =       0.7000
     number of iterations used =            8  local-TF  mixing
     Exchange-correlation= PBESOL
                           (   1   4  10   8   0   0   0)
     Hubbard projectors: ortho-atomic
     Hubbard parameters of DFT+U (Dudarev formulation) in eV:
     U(Ni-3d) =  8.5500
     U(Fe-3d) =  7.0800

     Internal variables: lda_plus_u = T, lda_plus_u_kind = 0

     celldm(1)=   8.343587  celldm(2)=   0.000000  celldm(3)=   0.000000
     celldm(4)=   0.000000  celldm(5)=   0.000000  celldm(6)=   0.000000

     crystal axes: (cart. coord. in units of alat)
               a(1) = (   0.999997   0.000000   0.002326 )  
               a(2) = (   0.000000   1.247336   0.000000 )  
               a(3) = (   0.000558   0.000000   1.104585 )  

     reciprocal axes: (cart. coord. in units 2 pi/alat)
               b(1) = (  1.000004  0.000000 -0.000505 )  
               b(2) = (  0.000000  0.801709  0.000000 )  
               b(3) = ( -0.002106  0.000000  0.905318 )  


     PseudoPot. # 1 for Ni read from file:
     pseudo_dojo_pbesol/Ni.upf
     MD5 check sum: 3ec56ad6bf78c9cc1bbec815420e1c7d
     Pseudo is Norm-conserving + core correction, Zval = 18.0
     Generated using ONCVPSP code by D. R. Hamann
     Using radial grid of 1356 points,  6 beta functions with: 
                l(1) =   0
                l(2) =   0
                l(3) =   1
                l(4) =   1
                l(5) =   2
                l(6) =   2

     PseudoPot. # 2 for Fe read from file:
     pseudo_dojo_pbesol/Fe.upf
     MD5 check sum: d1f1a3649ace7f41c554fadafcf9d57b
     Pseudo is Norm-conserving + core correction, Zval = 16.0
     Generated using ONCVPSP code by D. R. Hamann
     Using radial grid of 1426 points,  6 beta functions with: 
                l(1) =   0
                l(2) =   0
                l(3) =   1
                l(4) =   1
                l(5) =   2
                l(6) =   2

     PseudoPot. # 3 for W  read from file:
     pseudo_dojo_pbesol/W.upf
     MD5 check sum: b5ac44390825a9169ccdba7091ec60d0
     Pseudo is Norm-conserving + core correction, Zval = 14.0
     Generated using ONCVPSP code by D. R. Hamann
     Using radial grid of 1396 points,  8 beta functions with: 
                l(1) =   0
                l(2) =   0
                l(3) =   1
                l(4) =   1
                l(5) =   2
                l(6) =   2
                l(7) =   3
                l(8) =   3

     PseudoPot. # 4 for O  read from file:
     pseudo_dojo_pbesol/O.upf
     MD5 check sum: f226cbcd508cec715ff87a8f75a1dfba
     Pseudo is Norm-conserving + core correction, Zval =  6.0
     Generated using ONCVPSP code by D. R. Hamann
     Using radial grid of  936 points,  5 beta functions with: 
                l(1) =   0
                l(2) =   0
                l(3) =   1
                l(4) =   1
                l(5) =   2

     atomic species   valence    mass     pseudopotential
     Ni               18.00    58.69340     Ni( 1.00)
     Fe               16.00    55.84500     Fe( 1.00)
     W                14.00   183.84000     W ( 1.00)
     O                 6.00    15.99940     O ( 1.00)

     Starting magnetic structure 
     atomic species   magnetization
     Ni              0.200
     Fe              0.200
     W               0.000
     O               0.000

      2 Sym. Ops. (no inversion) found ( 1 have fractional translation)


                                    s                        frac. trans.

      isym =  1     identity                                     

 cryst.   s( 1) = (     1          0          0      )
                  (     0          1          0      )
                  (     0          0          1      )

 cart.    s( 1) = (  1.0000000  0.0000000  0.0000000 )
                  (  0.0000000  1.0000000  0.0000000 )
                  ( -0.0000000  0.0000000  1.0000000 )


      isym =  2     180 deg rotation - cart. axis [0,1,0]        

 cryst.   s( 2) = (    -1          0          0      )    f =(  0.0000000 )
                  (     0          1          0      )       (  0.0000000 )
                  (     0          0         -1      )       ( -0.5000000 )

 cart.    s( 2) = ( -1.0000000  0.0000000  0.0000000 )    f =( -0.0002789 )
                  (  0.0000000  1.0000000  0.0000000 )       (  0.0000000 )
                  (  0.0000000  0.0000000 -1.0000000 )       ( -0.5522927 )


   Cartesian axes

     site n.     atom                  positions (alat units)
         1        Ni     tau(   1) = (   0.5001381   0.8087761   0.2773093  )
         2        Fe     tau(   2) = (   0.5004170   0.4385596   0.8296021  )
         3        W      tau(   3) = (   0.0004184   1.0323177   0.8284391  )
         4        W      tau(   4) = (   0.0001395   0.2150180   0.2761464  )
         5        O      tau(   5) = (   0.7348048   0.7727597   1.0069160  )
         6        O      tau(   6) = (   0.2660292   0.7727597   0.6522882  )
         7        O      tau(   7) = (   0.2657503   0.4745760   0.0999954  )
         8        O      tau(   8) = (   0.7345259   0.4745760   0.4546232  )
         9        O      tau(   9) = (   0.7714994   0.1420665   1.0226464  )
        10        O      tau(  10) = (   0.2293347   0.1420665   0.6365577  )
        11        O      tau(  11) = (   0.7712205   1.1052692   0.4703537  )
        12        O      tau(  12) = (   0.2290558   1.1052692   0.0842649  )

   Crystallographic axes

     site n.     atom                  positions (cryst. coord.)
         1        Ni     tau(   1) = (  0.5000000  0.6484029  0.2500000  )
         2        Fe     tau(   2) = (  0.5000000  0.3515971  0.7500000  )
         3        W      tau(   3) = (  0.0000000  0.8276182  0.7500000  )
         4        W      tau(   4) = (  0.0000000  0.1723818  0.2500000  )
         5        O      tau(   5) = (  0.7342992  0.6195283  0.9100319  )
         6        O      tau(   6) = (  0.2657008  0.6195283  0.5899681  )
         7        O      tau(   7) = (  0.2657008  0.3804717  0.0899681  )
         8        O      tau(   8) = (  0.7342992  0.3804717  0.4100319  )
         9        O      tau(   9) = (  0.7709859  0.1138960  0.9241958  )
        10        O      tau(  10) = (  0.2290141  0.1138960  0.5758042  )
        11        O      tau(  11) = (  0.7709859  0.8861040  0.4241958  )
        12        O      tau(  12) = (  0.2290141  0.8861040  0.0758042  )

     number of k points=    54  Marzari-Vanderbilt smearing, width (Ry)=  0.0200
                       cart. coord. in units 2pi/alat
        k(    1) = (   0.0831582   0.0668091   0.0754011), wk =   0.0185185
        k(    2) = (   0.0828072   0.0668091   0.2262874), wk =   0.0185185
        k(    3) = (   0.0824563   0.0668091   0.3771738), wk =   0.0185185
        k(    4) = (   0.0842110   0.0668091  -0.3772579), wk =   0.0185185
        k(    5) = (   0.0838601   0.0668091  -0.2263716), wk =   0.0185185
        k(    6) = (   0.0835091   0.0668091  -0.0754853), wk =   0.0185185
        k(    7) = (   0.0831582   0.2004272   0.0754011), wk =   0.0185185
        k(    8) = (   0.0828072   0.2004272   0.2262874), wk =   0.0185185
        k(    9) = (   0.0824563   0.2004272   0.3771738), wk =   0.0185185
        k(   10) = (   0.0842110   0.2004272  -0.3772579), wk =   0.0185185
        k(   11) = (   0.0838601   0.2004272  -0.2263716), wk =   0.0185185
        k(   12) = (   0.0835091   0.2004272  -0.0754853), wk =   0.0185185
        k(   13) = (   0.0831582   0.3340453   0.0754011), wk =   0.0185185
        k(   14) = (   0.0828072   0.3340453   0.2262874), wk =   0.0185185
        k(   15) = (   0.0824563   0.3340453   0.3771738), wk =   0.0185185
        k(   16) = (   0.0842110   0.3340453  -0.3772579), wk =   0.0185185
        k(   17) = (   0.0838601   0.3340453  -0.2263716), wk =   0.0185185
        k(   18) = (   0.0835091   0.3340453  -0.0754853), wk =   0.0185185
        k(   19) = (   0.2498255   0.0668091   0.0753169), wk =   0.0185185
        k(   20) = (   0.2494745   0.0668091   0.2262033), wk =   0.0185185
        k(   21) = (   0.2491236   0.0668091   0.3770896), wk =   0.0185185
        k(   22) = (   0.2508783   0.0668091  -0.3773421), wk =   0.0185185
        k(   23) = (   0.2505274   0.0668091  -0.2264558), wk =   0.0185185
        k(   24) = (   0.2501764   0.0668091  -0.0755694), wk =   0.0185185
        k(   25) = (   0.2498255   0.2004272   0.0753169), wk =   0.0185185
        k(   26) = (   0.2494745   0.2004272   0.2262033), wk =   0.0185185
        k(   27) = (   0.2491236   0.2004272   0.3770896), wk =   0.0185185
        k(   28) = (   0.2508783   0.2004272  -0.3773421), wk =   0.0185185
        k(   29) = (   0.2505274   0.2004272  -0.2264558), wk =   0.0185185
        k(   30) = (   0.2501764   0.2004272  -0.0755694), wk =   0.0185185
        k(   31) = (   0.2498255   0.3340453   0.0753169), wk =   0.0185185
        k(   32) = (   0.2494745   0.3340453   0.2262033), wk =   0.0185185
        k(   33) = (   0.2491236   0.3340453   0.3770896), wk =   0.0185185
        k(   34) = (   0.2508783   0.3340453  -0.3773421), wk =   0.0185185
        k(   35) = (   0.2505274   0.3340453  -0.2264558), wk =   0.0185185
        k(   36) = (   0.2501764   0.3340453  -0.0755694), wk =   0.0185185
        k(   37) = (   0.4164928   0.0668091   0.0752327), wk =   0.0185185
        k(   38) = (   0.4161419   0.0668091   0.2261191), wk =   0.0185185
        k(   39) = (   0.4157909   0.0668091   0.3770054), wk =   0.0185185
        k(   40) = (   0.4175457   0.0668091  -0.3774263), wk =   0.0185185
        k(   41) = (   0.4171947   0.0668091  -0.2265399), wk =   0.0185185
        k(   42) = (   0.4168438   0.0668091  -0.0756536), wk =   0.0185185
        k(   43) = (   0.4164928   0.2004272   0.0752327), wk =   0.0185185
        k(   44) = (   0.4161419   0.2004272   0.2261191), wk =   0.0185185
        k(   45) = (   0.4157909   0.2004272   0.3770054), wk =   0.0185185
        k(   46) = (   0.4175457   0.2004272  -0.3774263), wk =   0.0185185
        k(   47) = (   0.4171947   0.2004272  -0.2265399), wk =   0.0185185
        k(   48) = (   0.4168438   0.2004272  -0.0756536), wk =   0.0185185
        k(   49) = (   0.4164928   0.3340453   0.0752327), wk =   0.0185185
        k(   50) = (   0.4161419   0.3340453   0.2261191), wk =   0.0185185
        k(   51) = (   0.4157909   0.3340453   0.3770054), wk =   0.0185185
        k(   52) = (   0.4175457   0.3340453  -0.3774263), wk =   0.0185185
        k(   53) = (   0.4171947   0.3340453  -0.2265399), wk =   0.0185185
        k(   54) = (   0.4168438   0.3340453  -0.0756536), wk =   0.0185185

                       cryst. coord.
        k(    1) = (   0.0833333   0.0833333   0.0833333), wk =   0.0185185
        k(    2) = (   0.0833333   0.0833333   0.2500000), wk =   0.0185185
        k(    3) = (   0.0833333   0.0833333   0.4166667), wk =   0.0185185
        k(    4) = (   0.0833333   0.0833333  -0.4166667), wk =   0.0185185
        k(    5) = (   0.0833333   0.0833333  -0.2500000), wk =   0.0185185
        k(    6) = (   0.0833333   0.0833333  -0.0833333), wk =   0.0185185
        k(    7) = (   0.0833333   0.2500000   0.0833333), wk =   0.0185185
        k(    8) = (   0.0833333   0.2500000   0.2500000), wk =   0.0185185
        k(    9) = (   0.0833333   0.2500000   0.4166667), wk =   0.0185185
        k(   10) = (   0.0833333   0.2500000  -0.4166667), wk =   0.0185185
        k(   11) = (   0.0833333   0.2500000  -0.2500000), wk =   0.0185185
        k(   12) = (   0.0833333   0.2500000  -0.0833333), wk =   0.0185185
        k(   13) = (   0.0833333   0.4166667   0.0833333), wk =   0.0185185
        k(   14) = (   0.0833333   0.4166667   0.2500000), wk =   0.0185185
        k(   15) = (   0.0833333   0.4166667   0.4166667), wk =   0.0185185
        k(   16) = (   0.0833333   0.4166667  -0.4166667), wk =   0.0185185
        k(   17) = (   0.0833333   0.4166667  -0.2500000), wk =   0.0185185
        k(   18) = (   0.0833333   0.4166667  -0.0833333), wk =   0.0185185
        k(   19) = (   0.2500000   0.0833333   0.0833333), wk =   0.0185185
        k(   20) = (   0.2500000   0.0833333   0.2500000), wk =   0.0185185
        k(   21) = (   0.2500000   0.0833333   0.4166667), wk =   0.0185185
        k(   22) = (   0.2500000   0.0833333  -0.4166667), wk =   0.0185185
        k(   23) = (   0.2500000   0.0833333  -0.2500000), wk =   0.0185185
        k(   24) = (   0.2500000   0.0833333  -0.0833333), wk =   0.0185185
        k(   25) = (   0.2500000   0.2500000   0.0833333), wk =   0.0185185
        k(   26) = (   0.2500000   0.2500000   0.2500000), wk =   0.0185185
        k(   27) = (   0.2500000   0.2500000   0.4166667), wk =   0.0185185
        k(   28) = (   0.2500000   0.2500000  -0.4166667), wk =   0.0185185
        k(   29) = (   0.2500000   0.2500000  -0.2500000), wk =   0.0185185
        k(   30) = (   0.2500000   0.2500000  -0.0833333), wk =   0.0185185
        k(   31) = (   0.2500000   0.4166667   0.0833333), wk =   0.0185185
        k(   32) = (   0.2500000   0.4166667   0.2500000), wk =   0.0185185
        k(   33) = (   0.2500000   0.4166667   0.4166667), wk =   0.0185185
        k(   34) = (   0.2500000   0.4166667  -0.4166667), wk =   0.0185185
        k(   35) = (   0.2500000   0.4166667  -0.2500000), wk =   0.0185185
        k(   36) = (   0.2500000   0.4166667  -0.0833333), wk =   0.0185185
        k(   37) = (   0.4166667   0.0833333   0.0833333), wk =   0.0185185
        k(   38) = (   0.4166667   0.0833333   0.2500000), wk =   0.0185185
        k(   39) = (   0.4166667   0.0833333   0.4166667), wk =   0.0185185
        k(   40) = (   0.4166667   0.0833333  -0.4166667), wk =   0.0185185
        k(   41) = (   0.4166667   0.0833333  -0.2500000), wk =   0.0185185
        k(   42) = (   0.4166667   0.0833333  -0.0833333), wk =   0.0185185
        k(   43) = (   0.4166667   0.2500000   0.0833333), wk =   0.0185185
        k(   44) = (   0.4166667   0.2500000   0.2500000), wk =   0.0185185
        k(   45) = (   0.4166667   0.2500000   0.4166667), wk =   0.0185185
        k(   46) = (   0.4166667   0.2500000  -0.4166667), wk =   0.0185185
        k(   47) = (   0.4166667   0.2500000  -0.2500000), wk =   0.0185185
        k(   48) = (   0.4166667   0.2500000  -0.0833333), wk =   0.0185185
        k(   49) = (   0.4166667   0.4166667   0.0833333), wk =   0.0185185
        k(   50) = (   0.4166667   0.4166667   0.2500000), wk =   0.0185185
        k(   51) = (   0.4166667   0.4166667   0.4166667), wk =   0.0185185
        k(   52) = (   0.4166667   0.4166667  -0.4166667), wk =   0.0185185
        k(   53) = (   0.4166667   0.4166667  -0.2500000), wk =   0.0185185
        k(   54) = (   0.4166667   0.4166667  -0.0833333), wk =   0.0185185

     Dense  grid:   142247 G-vectors     FFT dimensions: (  60,  75,  72)

     Dynamical RAM for                 wfc:       1.12 MB

     Dynamical RAM for     wfc (w. buffer):     121.85 MB

     Dynamical RAM for             U proj.:       0.17 MB

     Dynamical RAM for  U proj. (w. buff.):      18.46 MB

     Dynamical RAM for           str. fact:       0.54 MB

     Dynamical RAM for           local pot:       0.00 MB

     Dynamical RAM for          nlocal pot:       3.46 MB

     Dynamical RAM for                qrad:      16.87 MB

     Dynamical RAM for          rho,v,vnew:       1.84 MB

     Dynamical RAM for               rhoin:       0.61 MB

     Dynamical RAM for            rho*nmix:       4.34 MB

     Dynamical RAM for           G-vectors:       0.58 MB

     Dynamical RAM for          h,s,v(r/c):       0.80 MB

     Dynamical RAM for          <psi|beta>:       0.21 MB

     Dynamical RAM for                 psi:       2.24 MB

     Dynamical RAM for                hpsi:       2.24 MB

     Dynamical RAM for      wfcinit/wfcrot:       2.34 MB

     Estimated static dynamical RAM per process >     165.92 MB

     Estimated max dynamical RAM per process >     175.74 MB

     Estimated total dynamical RAM >       2.75 GB
     Generating pointlists ...
     new r_m :   0.1830 (alat units)  1.5265 (a.u.) for type    1
     new r_m :   0.1830 (alat units)  1.5265 (a.u.) for type    2
     new r_m :   0.1696 (alat units)  1.4147 (a.u.) for type    3
     new r_m :   0.1696 (alat units)  1.4147 (a.u.) for type    4

     Initial potential from superposition of free atoms

     starting charge     109.9985, renormalised to     110.0000

     HUBBARD ENERGY =    0.5852  (Ry)

     STARTING HUBBARD OCCUPATIONS:

     =================== HUBBARD OCCUPATIONS ===================
     ------------------------ ATOM    1 ------------------------
     Tr[ns(  1)] (up, down, total) =   5.00000  3.00000  8.00000
     Atomic magnetic moment for atom   1 =   2.00000
     SPIN  1
     eigenvalues:
       1.000  1.000  1.000  1.000  1.000
     eigenvectors (columns):
       1.000  0.000  0.000  0.000  0.000
       0.000  1.000  0.000  0.000  0.000
       0.000  0.000  1.000  0.000  0.000
       0.000  0.000  0.000  1.000  0.000
       0.000  0.000  0.000  0.000  1.000
     occupation matrix ns (before diag.):
       1.000  0.000  0.000  0.000  0.000
       0.000  1.000  0.000  0.000  0.000
       0.000  0.000  1.000  0.000  0.000
       0.000  0.000  0.000  1.000  0.000
       0.000  0.000  0.000  0.000  1.000
     SPIN  2
     eigenvalues:
       0.600  0.600  0.600  0.600  0.600
     eigenvectors (columns):
       1.000  0.000  0.000  0.000  0.000
       0.000  1.000  0.000  0.000  0.000
       0.000  0.000  1.000  0.000  0.000
       0.000  0.000  0.000  1.000  0.000
       0.000  0.000  0.000  0.000  1.000
     occupation matrix ns (before diag.):
       0.600  0.000  0.000  0.000  0.000
       0.000  0.600  0.000  0.000  0.000
       0.000  0.000  0.600  0.000  0.000
       0.000  0.000  0.000  0.600  0.000
       0.000  0.000  0.000  0.000  0.600
     ------------------------ ATOM    2 ------------------------
     Tr[ns(  2)] (up, down, total) =   5.00000  1.00000  6.00000
     Atomic magnetic moment for atom   2 =   4.00000
     SPIN  1
     eigenvalues:
       1.000  1.000  1.000  1.000  1.000
     eigenvectors (columns):
       1.000  0.000  0.000  0.000  0.000
       0.000  1.000  0.000  0.000  0.000
       0.000  0.000  1.000  0.000  0.000
       0.000  0.000  0.000  1.000  0.000
       0.000  0.000  0.000  0.000  1.000
     occupation matrix ns (before diag.):
       1.000  0.000  0.000  0.000  0.000
       0.000  1.000  0.000  0.000  0.000
       0.000  0.000  1.000  0.000  0.000
       0.000  0.000  0.000  1.000  0.000
       0.000  0.000  0.000  0.000  1.000
     SPIN  2
     eigenvalues:
       0.200  0.200  0.200  0.200  0.200
     eigenvectors (columns):
       1.000  0.000  0.000  0.000  0.000
       0.000  1.000  0.000  0.000  0.000
       0.000  0.000  1.000  0.000  0.000
       0.000  0.000  0.000  1.000  0.000
       0.000  0.000  0.000  0.000  1.000
     occupation matrix ns (before diag.):
       0.200  0.000  0.000  0.000  0.000
       0.000  0.200  0.000  0.000  0.000
       0.000  0.000  0.200  0.000  0.000
       0.000  0.000  0.000  0.200  0.000
       0.000  0.000  0.000  0.000  0.200

     Number of occupied Hubbard levels =   14.0000

     Atomic wfc used for Hubbard projectors are orthogonalized

     Starting wfcs are   72 randomized atomic wfcs

     total cpu time spent up to now is        5.6 secs

     per-process dynamical memory:   219.0 Mb

     Self-consistent Calculation

     iteration #  1     ecut=   120.00 Ry     beta= 0.70
     Davidson diagonalization with overlap

---- Real-time Memory Report at c_bands before calling an iterative solver
           246 MiB given to the printing process from OS
           213 MiB allocation reported by mallinfo(arena+hblkhd)
        659629 MiB available memory on the node where the printing process lives
------------------
     ethr =  1.00E-02,  avg # of iterations =  2.5

     =================== HUBBARD OCCUPATIONS ===================
     ------------------------ ATOM    1 ------------------------
     Tr[ns(  1)] (up, down, total) =   4.98487  4.12181  9.10668
     Atomic magnetic moment for atom   1 =   0.86305
     SPIN  1
     eigenvalues:
       0.994  0.995  0.998  0.999  0.999
     eigenvectors (columns):
      -0.000  0.584 -0.723 -0.000  0.369
      -0.000  0.759  0.647 -0.000  0.067
      -0.624 -0.000  0.000  0.781  0.000
      -0.000  0.288 -0.241  0.000 -0.927
       0.781  0.000  0.000  0.624  0.000
     occupation matrix ns (before diag.):
       0.997 -0.002  0.000 -0.001  0.000
      -0.002  0.996 -0.000 -0.001  0.000
       0.000 -0.000  0.997 -0.000  0.002
      -0.001 -0.001 -0.000  0.998 -0.000
       0.000  0.000  0.002 -0.000  0.996
     SPIN  2
     eigenvalues:
       0.553  0.606  0.987  0.987  0.989
     eigenvectors (columns):
       0.537  0.000  0.839  0.000  0.090
       0.802  0.000 -0.541 -0.000  0.255
       0.000 -0.573 -0.000  0.820  0.000
       0.262  0.000 -0.065 -0.000 -0.963
      -0.000  0.820 -0.000  0.573  0.000
     occupation matrix ns (before diag.):
       0.862 -0.187  0.000 -0.061  0.000
      -0.187  0.708 -0.000 -0.092  0.000
       0.000 -0.000  0.862 -0.000  0.179
      -0.061 -0.092 -0.000  0.959 -0.000
       0.000  0.000  0.179 -0.000  0.731
     ------------------------ ATOM    2 ------------------------
     Tr[ns(  2)] (up, down, total) =   4.96687  0.34020  5.30707
     Atomic magnetic moment for atom   2 =   4.62667
     SPIN  1
     eigenvalues:
       0.987  0.988  0.997  0.997  0.997
     eigenvectors (columns):
      -0.000 -0.585  0.725 -0.000  0.362
      -0.000 -0.756 -0.650 -0.000  0.081
      -0.621  0.000 -0.000  0.784  0.000
      -0.000 -0.294  0.226  0.000 -0.928
       0.784 -0.000 -0.000  0.621  0.000
     occupation matrix ns (before diag.):
       0.994 -0.004  0.000 -0.002  0.000
      -0.004  0.992 -0.000 -0.002  0.000
       0.000 -0.000  0.993 -0.000  0.005
      -0.002 -0.002 -0.000  0.997 -0.000
       0.000  0.000  0.005 -0.000  0.991
     SPIN  2
     eigenvalues:
       0.035  0.035  0.038  0.116  0.117
     eigenvectors (columns):
      -0.000  0.755 -0.369 -0.000  0.542
       0.000 -0.601 -0.059 -0.000  0.797
       0.823  0.000 -0.000 -0.569 -0.000
       0.000  0.262  0.928 -0.000  0.266
       0.569  0.000 -0.000  0.823  0.000
     occupation matrix ns (before diag.):
       0.059  0.035 -0.000  0.011  0.000
       0.035  0.087 -0.000  0.017  0.000
      -0.000 -0.000  0.061  0.000 -0.038
       0.011  0.017  0.000  0.044 -0.000
       0.000  0.000 -0.038 -0.000  0.089

     Number of occupied Hubbard levels =   14.4138

     HUBBARD ENERGY =    0.2580  (Ry)

     total cpu time spent up to now is       19.6 secs

     total energy              =   -1151.72620586 Ry
     estimated scf accuracy    <       5.42032720 Ry

     total magnetization       =     6.00 Bohr mag/cell
     absolute magnetization    =     6.05 Bohr mag/cell

     iteration #  2     ecut=   120.00 Ry     beta= 0.70
     Davidson diagonalization with overlap

---- Real-time Memory Report at c_bands before calling an iterative solver
           254 MiB given to the printing process from OS
           220 MiB allocation reported by mallinfo(arena+hblkhd)
        659505 MiB available memory on the node where the printing process lives
------------------
     ethr =  4.93E-03,  avg # of iterations =  2.0

     =================== HUBBARD OCCUPATIONS ===================
     ------------------------ ATOM    1 ------------------------
     Tr[ns(  1)] (up, down, total) =   4.92385  3.64869  8.57253
     Atomic magnetic moment for atom   1 =   1.27516
     SPIN  1
     eigenvalues:
       0.972  0.975  0.992  0.993  0.993
     eigenvectors (columns):
      -0.000  0.587 -0.785 -0.000  0.197
      -0.000  0.752  0.619 -0.000  0.227
      -0.589 -0.000  0.000  0.808  0.000
      -0.000  0.300 -0.015  0.000 -0.954
       0.808  0.000  0.000  0.589  0.000
     occupation matrix ns (before diag.):
       0.986 -0.007  0.000 -0.003  0.000
      -0.007  0.982 -0.000 -0.004  0.000
       0.000 -0.000  0.986 -0.000  0.010
      -0.003 -0.004 -0.000  0.991 -0.000
       0.000  0.000  0.010 -0.000  0.979
     SPIN  2
     eigenvalues:
       0.291  0.406  0.983  0.984  0.985
     eigenvectors (columns):
       0.536  0.000  0.837  0.000  0.110
       0.801  0.000 -0.464 -0.000 -0.378
       0.000 -0.574 -0.000  0.819 -0.000
       0.265  0.000 -0.290  0.000  0.919
      -0.000  0.819 -0.000  0.574 -0.000
     occupation matrix ns (before diag.):
       0.784 -0.297  0.000 -0.098  0.000
      -0.297  0.539 -0.000 -0.148  0.000
       0.000 -0.000  0.794 -0.000  0.272
      -0.098 -0.148 -0.000  0.936 -0.000
       0.000  0.000  0.272 -0.000  0.596
     ------------------------ ATOM    2 ------------------------
     Tr[ns(  2)] (up, down, total) =   4.96144  0.55483  5.51627
     Atomic magnetic moment for atom   2 =   4.40660
     SPIN  1
     eigenvalues:
       0.985  0.986  0.997  0.997  0.997
     eigenvectors (columns):
      -0.000  0.570 -0.788  0.233  0.000
      -0.000  0.770  0.611  0.183 -0.000
      -0.594 -0.000  0.000 -0.000  0.805
      -0.000  0.287 -0.075 -0.955 -0.000
       0.805  0.000  0.000 -0.000  0.594
     occupation matrix ns (before diag.):
       0.993 -0.005  0.000 -0.002  0.000
      -0.005  0.990 -0.000 -0.003  0.000
       0.000 -0.000  0.993 -0.000  0.006
      -0.002 -0.003 -0.000  0.996 -0.000
       0.000  0.000  0.006 -0.000  0.989
     SPIN  2
     eigenvalues:
       0.050  0.053  0.067  0.190  0.195
     eigenvectors (columns):
      -0.000  0.817  0.211 -0.000  0.536
       0.000 -0.573  0.198 -0.000  0.795
       0.834  0.000  0.000 -0.552 -0.000
       0.000  0.062 -0.957 -0.000  0.283
       0.552  0.000  0.000  0.834  0.000
     occupation matrix ns (before diag.):
       0.094  0.061 -0.000  0.019  0.000
       0.061  0.143 -0.000  0.029  0.000
      -0.000 -0.000  0.093  0.000 -0.065
       0.019  0.029  0.000  0.077 -0.000
       0.000  0.000 -0.065 -0.000  0.148

     Number of occupied Hubbard levels =   14.0888

     HUBBARD ENERGY =    0.3026  (Ry)

     total cpu time spent up to now is       32.7 secs

     total energy              =   -1152.61956509 Ry
     estimated scf accuracy    <       0.21882335 Ry

     total magnetization       =     6.00 Bohr mag/cell
     absolute magnetization    =     6.52 Bohr mag/cell

     iteration #  3     ecut=   120.00 Ry     beta= 0.70
     Davidson diagonalization with overlap

---- Real-time Memory Report at c_bands before calling an iterative solver
           255 MiB given to the printing process from OS
           220 MiB allocation reported by mallinfo(arena+hblkhd)
        659511 MiB available memory on the node where the printing process lives
------------------
     ethr =  1.99E-04,  avg # of iterations =  7.0

     =================== HUBBARD OCCUPATIONS ===================
     ------------------------ ATOM    1 ------------------------
     Tr[ns(  1)] (up, down, total) =   4.92946  3.36607  8.29553
     Atomic magnetic moment for atom   1 =   1.56339
     SPIN  1
     eigenvalues:
       0.975  0.978  0.992  0.993  0.993
     eigenvectors (columns):
      -0.000  0.599 -0.759 -0.000  0.257
      -0.000  0.742  0.646 -0.000  0.180
      -0.596 -0.000  0.000  0.803  0.000
      -0.000  0.303 -0.083  0.000 -0.950
       0.803  0.000  0.000  0.596  0.000
     occupation matrix ns (before diag.):
       0.987 -0.006  0.000 -0.003  0.000
      -0.006  0.984 -0.000 -0.003  0.000
       0.000 -0.000  0.986 -0.000  0.009
      -0.003 -0.003 -0.000  0.992 -0.000
       0.000  0.000  0.009 -0.000  0.981
     SPIN  2
     eigenvalues:
       0.172  0.236  0.985  0.986  0.987
     eigenvectors (columns):
      -0.536  0.000  0.842  0.000  0.066
      -0.801  0.000 -0.483 -0.000 -0.353
      -0.000 -0.575 -0.000  0.818 -0.000
      -0.265  0.000 -0.242  0.000  0.933
       0.000  0.818 -0.000  0.575 -0.000
     occupation matrix ns (before diag.):
       0.751 -0.349  0.000 -0.116  0.000
      -0.349  0.463 -0.000 -0.174  0.000
       0.000 -0.000  0.738 -0.000  0.353
      -0.116 -0.174 -0.000  0.929 -0.000
       0.000  0.000  0.353 -0.000  0.484
     ------------------------ ATOM    2 ------------------------
     Tr[ns(  2)] (up, down, total) =   4.96510  0.73568  5.70078
     Atomic magnetic moment for atom   2 =   4.22942
     SPIN  1
     eigenvalues:
       0.987  0.987  0.997  0.997  0.997
     eigenvectors (columns):
      -0.000 -0.571 -0.173 -0.803  0.000
      -0.000 -0.770  0.453  0.450 -0.000
      -0.596  0.000 -0.000  0.000  0.803
      -0.000 -0.286 -0.875  0.391 -0.000
       0.803 -0.000 -0.000  0.000  0.596
     occupation matrix ns (before diag.):
       0.994 -0.004  0.000 -0.002  0.000
      -0.004  0.991 -0.000 -0.002  0.000
       0.000 -0.000  0.993 -0.000  0.005
      -0.002 -0.002 -0.000  0.996 -0.000
       0.000  0.000  0.005 -0.000  0.991
     SPIN  2
     eigenvalues:
       0.064  0.075  0.087  0.255  0.256
     eigenvectors (columns):
      -0.000  0.813  0.242 -0.000  0.529
       0.000 -0.576  0.200 -0.000  0.793
       0.834  0.000  0.000 -0.552 -0.000
       0.000  0.086 -0.950 -0.000  0.302
       0.552  0.000  0.000  0.834  0.000
     occupation matrix ns (before diag.):
       0.126  0.077 -0.000  0.026  0.000
       0.077  0.189 -0.000  0.041  0.000
      -0.000 -0.000  0.122  0.000 -0.088
       0.026  0.041  0.000  0.102 -0.000
       0.000  0.000 -0.088 -0.000  0.196

     Number of occupied Hubbard levels =   13.9963

     HUBBARD ENERGY =    0.3071  (Ry)

     total cpu time spent up to now is       47.9 secs

     total energy              =   -1152.67933715 Ry
     estimated scf accuracy    <       0.10860716 Ry

     total magnetization       =     6.00 Bohr mag/cell
     absolute magnetization    =     6.76 Bohr mag/cell

     iteration #  4     ecut=   120.00 Ry     beta= 0.70
     Davidson diagonalization with overlap

---- Real-time Memory Report at c_bands before calling an iterative solver
           256 MiB given to the printing process from OS
           221 MiB allocation reported by mallinfo(arena+hblkhd)
        656162 MiB available memory on the node where the printing process lives
------------------
     ethr =  9.87E-05,  avg # of iterations =  2.0

     =================== HUBBARD OCCUPATIONS ===================
     ------------------------ ATOM    1 ------------------------
     Tr[ns(  1)] (up, down, total) =   4.94894  3.28136  8.23030
     Atomic magnetic moment for atom   1 =   1.66758
     SPIN  1
     eigenvalues:
       0.982  0.984  0.994  0.994  0.995
     eigenvectors (columns):
      -0.000  0.600 -0.754  0.000  0.268
      -0.000  0.743  0.649 -0.000  0.163
      -0.601 -0.000  0.000  0.799  0.000
      -0.000  0.297 -0.102  0.000 -0.949
       0.799  0.000  0.000  0.601  0.000
     occupation matrix ns (before diag.):
       0.990 -0.004  0.000 -0.002  0.000
      -0.004  0.988 -0.000 -0.002  0.000
       0.000 -0.000  0.990 -0.000  0.006
      -0.002 -0.002 -0.000  0.994 -0.000
       0.000  0.000  0.006 -0.000  0.987
     SPIN  2
     eigenvalues:
       0.143  0.169  0.989  0.990  0.991
     eigenvectors (columns):
      -0.536  0.000 -0.844  0.000 -0.005
      -0.802  0.000  0.506 -0.000  0.318
      -0.000 -0.575  0.000  0.818  0.000
      -0.266  0.000  0.174  0.000 -0.948
       0.000  0.818  0.000  0.575  0.000
     occupation matrix ns (before diag.):
       0.747 -0.363  0.000 -0.121  0.000
      -0.363  0.446 -0.000 -0.181  0.000
       0.000 -0.000  0.718 -0.000  0.386
      -0.121 -0.181 -0.000  0.931 -0.000
       0.000  0.000  0.386 -0.000  0.440
     ------------------------ ATOM    2 ------------------------
     Tr[ns(  2)] (up, down, total) =   4.96552  0.83684  5.80237
     Atomic magnetic moment for atom   2 =   4.12868
     SPIN  1
     eigenvalues:
       0.987  0.988  0.997  0.997  0.997
     eigenvectors (columns):
      -0.000 -0.571 -0.199 -0.796  0.000
      -0.000 -0.769  0.468  0.434 -0.000
      -0.597  0.000 -0.000  0.000  0.802
      -0.000 -0.286 -0.861  0.421 -0.000
       0.802 -0.000 -0.000  0.000  0.597
     occupation matrix ns (before diag.):
       0.994 -0.004  0.000 -0.002  0.000
      -0.004  0.991 -0.000 -0.002  0.000
       0.000 -0.000  0.994 -0.000  0.005
      -0.002 -0.002 -0.000  0.996 -0.000
       0.000  0.000  0.005 -0.000  0.991
     SPIN  2
     eigenvalues:
       0.066  0.081  0.090  0.297  0.303
     eigenvectors (columns):
      -0.000  0.787  0.332  0.520  0.000
       0.000 -0.589  0.158  0.792  0.000
       0.836  0.000  0.000  0.000 -0.549
       0.000  0.180 -0.930  0.320  0.000
       0.549  0.000  0.000 -0.000  0.836
     occupation matrix ns (before diag.):
       0.140  0.090 -0.000  0.033  0.000
       0.090  0.217 -0.000  0.054  0.000
      -0.000 -0.000  0.137  0.000 -0.109
       0.033  0.054  0.000  0.111 -0.000
       0.000  0.000 -0.109 -0.000  0.231

     Number of occupied Hubbard levels =   14.0327

     HUBBARD ENERGY =    0.2849  (Ry)

     total cpu time spent up to now is       59.6 secs

     total energy              =   -1152.69375293 Ry
     estimated scf accuracy    <       0.04794827 Ry

     total magnetization       =     6.00 Bohr mag/cell
     absolute magnetization    =     6.81 Bohr mag/cell

     iteration #  5     ecut=   120.00 Ry     beta= 0.70
     Davidson diagonalization with overlap

---- Real-time Memory Report at c_bands before calling an iterative solver
           256 MiB given to the printing process from OS
           222 MiB allocation reported by mallinfo(arena+hblkhd)
        659482 MiB available memory on the node where the printing process lives
------------------
     ethr =  4.36E-05,  avg # of iterations =  2.5

     =================== HUBBARD OCCUPATIONS ===================
     ------------------------ ATOM    1 ------------------------
     Tr[ns(  1)] (up, down, total) =   4.96051  3.25450  8.21501
     Atomic magnetic moment for atom   1 =   1.70601
     SPIN  1
     eigenvalues:
       0.986  0.987  0.995  0.996  0.996
     eigenvectors (columns):
      -0.000 -0.599  0.757  0.000  0.261
      -0.000 -0.746 -0.646 -0.000  0.160
      -0.603  0.000 -0.000  0.797  0.000
      -0.000 -0.289  0.099  0.000 -0.952
       0.797 -0.000 -0.000  0.603  0.000
     occupation matrix ns (before diag.):
       0.992 -0.004  0.000 -0.002  0.000
      -0.004  0.991 -0.000 -0.002  0.000
       0.000 -0.000  0.992 -0.000  0.005
      -0.002 -0.002 -0.000  0.995 -0.000
       0.000  0.000  0.005 -0.000  0.990
     SPIN  2
     eigenvalues:
       0.139  0.139  0.991  0.992  0.993
     eigenvectors (columns):
      -0.535  0.000  0.844  0.000  0.029
      -0.802  0.000 -0.518 -0.000  0.298
      -0.000 -0.575 -0.000  0.818  0.000
      -0.267  0.000 -0.136  0.000 -0.954
       0.000  0.818 -0.000  0.575  0.000
     occupation matrix ns (before diag.):
       0.748 -0.366  0.000 -0.122  0.000
      -0.366  0.444 -0.000 -0.183  0.000
       0.000 -0.000  0.710 -0.000  0.401
      -0.122 -0.183 -0.000  0.932 -0.000
       0.000  0.000  0.401 -0.000  0.421
     ------------------------ ATOM    2 ------------------------
     Tr[ns(  2)] (up, down, total) =   4.96372  0.85581  5.81953
     Atomic magnetic moment for atom   2 =   4.10791
     SPIN  1
     eigenvalues:
       0.986  0.987  0.997  0.997  0.997
     eigenvectors (columns):
      -0.000  0.570 -0.635  0.520  0.000
      -0.000  0.769  0.635 -0.067 -0.000
      -0.596 -0.000  0.000 -0.000  0.803
      -0.000  0.288 -0.439 -0.851 -0.000
       0.803  0.000  0.000 -0.000  0.596
     occupation matrix ns (before diag.):
       0.994 -0.005  0.000 -0.002  0.000
      -0.005  0.991 -0.000 -0.002  0.000
       0.000 -0.000  0.993 -0.000  0.005
      -0.002 -0.002 -0.000  0.996 -0.000
       0.000  0.000  0.005 -0.000  0.990
     SPIN  2
     eigenvalues:
       0.056  0.066  0.072  0.323  0.340
     eigenvectors (columns):
      -0.000  0.766  0.395  0.507  0.000
       0.000 -0.593  0.130  0.795  0.000
       0.838  0.000  0.000  0.000 -0.546
       0.000  0.248 -0.910  0.334  0.000
       0.546  0.000  0.000 -0.000  0.838
     occupation matrix ns (before diag.):
       0.133  0.104 -0.000  0.041  0.000
       0.104  0.228 -0.000  0.067  0.000
      -0.000 -0.000  0.141  0.000 -0.130
       0.041  0.067  0.000  0.099 -0.000
       0.000  0.000 -0.130 -0.000  0.255

     Number of occupied Hubbard levels =   14.0345

     HUBBARD ENERGY =    0.2633  (Ry)

     total cpu time spent up to now is       72.4 secs

     total energy              =   -1152.69838616 Ry
     estimated scf accuracy    <       0.01060025 Ry

     total magnetization       =     6.00 Bohr mag/cell
     absolute magnetization    =     6.84 Bohr mag/cell

     iteration #  6     ecut=   120.00 Ry     beta= 0.70
     Davidson diagonalization with overlap

---- Real-time Memory Report at c_bands before calling an iterative solver
           257 MiB given to the printing process from OS
           222 MiB allocation reported by mallinfo(arena+hblkhd)
        659461 MiB available memory on the node where the printing process lives
------------------
     c_bands:  1 eigenvalues not converged
     ethr =  9.64E-06,  avg # of iterations =  8.6

     =================== HUBBARD OCCUPATIONS ===================
     ------------------------ ATOM    1 ------------------------
     Tr[ns(  1)] (up, down, total) =   4.96600  3.25472  8.22073
     Atomic magnetic moment for atom   1 =   1.71128
     SPIN  1
     eigenvalues:
       0.988  0.989  0.996  0.996  0.997
     eigenvectors (columns):
      -0.000 -0.597  0.760  0.000  0.256
      -0.000 -0.749 -0.643 -0.000  0.160
      -0.605  0.000 -0.000  0.796  0.000
      -0.000 -0.286  0.096  0.000 -0.953
       0.796 -0.000 -0.000  0.605  0.000
     occupation matrix ns (before diag.):
       0.993 -0.003  0.000 -0.001  0.000
      -0.003  0.992 -0.000 -0.002  0.000
       0.000 -0.000  0.993 -0.000  0.004
      -0.001 -0.002 -0.000  0.996 -0.000
       0.000  0.000  0.004 -0.000  0.991
     SPIN  2
     eigenvalues:
       0.134  0.141  0.993  0.993  0.994
     eigenvectors (columns):
      -0.000  0.534 -0.845  0.000 -0.031
      -0.000  0.802  0.518 -0.000 -0.298
      -0.575 -0.000  0.000  0.818 -0.000
      -0.000  0.268  0.135  0.000  0.954
       0.818  0.000  0.000  0.575 -0.000
     occupation matrix ns (before diag.):
       0.750 -0.365  0.000 -0.122  0.000
      -0.365  0.445 -0.000 -0.183  0.000
       0.000 -0.000  0.709 -0.000  0.404
      -0.122 -0.183 -0.000  0.933 -0.000
       0.000  0.000  0.404 -0.000  0.417
     ------------------------ ATOM    2 ------------------------
     Tr[ns(  2)] (up, down, total) =   4.96289  0.86323  5.82611
     Atomic magnetic moment for atom   2 =   4.09966
     SPIN  1
     eigenvalues:
       0.986  0.986  0.997  0.997  0.997
     eigenvectors (columns):
      -0.000  0.571 -0.668  0.477  0.000
      -0.000  0.769  0.639 -0.025 -0.000
      -0.597 -0.000  0.000 -0.000  0.802
      -0.000  0.288 -0.381 -0.879 -0.000
       0.802  0.000  0.000 -0.000  0.597
     occupation matrix ns (before diag.):
       0.993 -0.005  0.000 -0.002  0.000
      -0.005  0.991 -0.000 -0.002  0.000
       0.000 -0.000  0.993 -0.000  0.006
      -0.002 -0.002 -0.000  0.996 -0.000
       0.000  0.000  0.006 -0.000  0.990
     SPIN  2
     eigenvalues:
       0.050  0.057  0.062  0.330  0.364
     eigenvectors (columns):
      -0.000 -0.801  0.326  0.502  0.000
       0.000  0.575  0.185  0.797  0.000
       0.838 -0.000  0.000  0.000 -0.545
       0.000 -0.168 -0.927  0.336  0.000
       0.545 -0.000  0.000 -0.000  0.838
     occupation matrix ns (before diag.):
       0.126  0.109 -0.000  0.044  0.000
       0.109  0.230 -0.000  0.072  0.000
      -0.000 -0.000  0.144  0.000 -0.143
       0.044  0.072  0.000  0.092 -0.000
       0.000  0.000 -0.143 -0.000  0.271

     Number of occupied Hubbard levels =   14.0468

     HUBBARD ENERGY =    0.2584  (Ry)

     total cpu time spent up to now is       89.7 secs

     total energy              =   -1152.70021006 Ry
     estimated scf accuracy    <       0.00108441 Ry

     total magnetization       =     6.00 Bohr mag/cell
     absolute magnetization    =     6.85 Bohr mag/cell

     iteration #  7     ecut=   120.00 Ry     beta= 0.70
     Davidson diagonalization with overlap

---- Real-time Memory Report at c_bands before calling an iterative solver
           257 MiB given to the printing process from OS
           223 MiB allocation reported by mallinfo(arena+hblkhd)
        661255 MiB available memory on the node where the printing process lives
------------------
     c_bands:  1 eigenvalues not converged
     ethr =  9.86E-07,  avg # of iterations =  4.2

     =================== HUBBARD OCCUPATIONS ===================
     ------------------------ ATOM    1 ------------------------
     Tr[ns(  1)] (up, down, total) =   4.96731  3.26523  8.23254
     Atomic magnetic moment for atom   1 =   1.70208
     SPIN  1
     eigenvalues:
       0.989  0.989  0.996  0.997  0.997
     eigenvectors (columns):
      -0.000 -0.597  0.760  0.000  0.257
      -0.000 -0.750 -0.643 -0.000  0.159
      -0.605  0.000 -0.000  0.796  0.000
      -0.000 -0.286  0.098  0.000 -0.953
       0.796 -0.000 -0.000  0.605  0.000
     occupation matrix ns (before diag.):
       0.994 -0.003  0.000 -0.001  0.000
      -0.003  0.992 -0.000 -0.002  0.000
       0.000 -0.000  0.994 -0.000  0.004
      -0.001 -0.002 -0.000  0.996 -0.000
       0.000  0.000  0.004 -0.000  0.992
     SPIN  2
     eigenvalues:
       0.139  0.145  0.993  0.993  0.995
     eigenvectors (columns):
      -0.000 -0.534  0.845  0.000  0.036
      -0.000 -0.802 -0.519 -0.000  0.296
      -0.574  0.000 -0.000  0.819  0.000
      -0.000 -0.269 -0.130  0.000 -0.954
       0.819 -0.000 -0.000  0.574  0.000
     occupation matrix ns (before diag.):
       0.751 -0.363  0.000 -0.122  0.000
      -0.363  0.448 -0.000 -0.183  0.000
       0.000 -0.000  0.712 -0.000  0.402
      -0.122 -0.183 -0.000  0.933 -0.000
       0.000  0.000  0.402 -0.000  0.421
     ------------------------ ATOM    2 ------------------------
     Tr[ns(  2)] (up, down, total) =   4.96280  0.86483  5.82764
     Atomic magnetic moment for atom   2 =   4.09797
     SPIN  1
     eigenvalues:
       0.986  0.986  0.997  0.997  0.997
     eigenvectors (columns):
      -0.000  0.571 -0.663  0.485  0.000
      -0.000  0.769  0.639 -0.032 -0.000
      -0.597 -0.000  0.000 -0.000  0.802
      -0.000  0.288 -0.391 -0.874 -0.000
       0.802  0.000  0.000 -0.000  0.597
     occupation matrix ns (before diag.):
       0.993 -0.005  0.000 -0.002  0.000
      -0.005  0.991 -0.000 -0.002  0.000
       0.000 -0.000  0.993 -0.000  0.006
      -0.002 -0.002 -0.000  0.996 -0.000
       0.000  0.000  0.006 -0.000  0.990
     SPIN  2
     eigenvalues:
       0.048  0.053  0.059  0.321  0.384
     eigenvectors (columns):
      -0.000 -0.818  0.284  0.500  0.000
       0.000  0.562  0.208  0.801  0.000
       0.839 -0.000  0.000  0.000 -0.544
       0.000 -0.123 -0.936  0.329  0.000
       0.544 -0.000  0.000 -0.000  0.839
     occupation matrix ns (before diag.):
       0.120  0.108 -0.000  0.043  0.000
       0.108  0.225 -0.000  0.070  0.000
      -0.000 -0.000  0.148  0.000 -0.153
       0.043  0.070  0.000  0.087 -0.000
       0.000  0.000 -0.153 -0.000  0.285

     Number of occupied Hubbard levels =   14.0602

     HUBBARD ENERGY =    0.2596  (Ry)

     total cpu time spent up to now is      104.6 secs

     total energy              =   -1152.70069836 Ry
     estimated scf accuracy    <       0.00020154 Ry

     total magnetization       =     6.00 Bohr mag/cell
     absolute magnetization    =     6.84 Bohr mag/cell

     iteration #  8     ecut=   120.00 Ry     beta= 0.70
     Davidson diagonalization with overlap

---- Real-time Memory Report at c_bands before calling an iterative solver
           258 MiB given to the printing process from OS
           223 MiB allocation reported by mallinfo(arena+hblkhd)
        656902 MiB available memory on the node where the printing process lives
------------------
     ethr =  1.83E-07,  avg # of iterations =  2.4

     =================== HUBBARD OCCUPATIONS ===================
     ------------------------ ATOM    1 ------------------------
     Tr[ns(  1)] (up, down, total) =   4.96708  3.26620  8.23328
     Atomic magnetic moment for atom   1 =   1.70088
     SPIN  1
     eigenvalues:
       0.989  0.989  0.996  0.997  0.997
     eigenvectors (columns):
      -0.000 -0.598  0.760  0.000  0.257
      -0.000 -0.749 -0.643 -0.000  0.159
      -0.605  0.000 -0.000  0.796  0.000
      -0.000 -0.286  0.098  0.000 -0.953
       0.796 -0.000 -0.000  0.605  0.000
     occupation matrix ns (before diag.):
       0.994 -0.003  0.000 -0.001  0.000
      -0.003  0.992 -0.000 -0.002  0.000
       0.000 -0.000  0.994 -0.000  0.004
      -0.001 -0.002 -0.000  0.996 -0.000
       0.000  0.000  0.004 -0.000  0.991
     SPIN  2
     eigenvalues:
       0.140  0.145  0.993  0.993  0.995
     eigenvectors (columns):
      -0.000 -0.534  0.845  0.000  0.036
      -0.000 -0.802 -0.519 -0.000  0.297
      -0.574  0.000 -0.000  0.819  0.000
      -0.000 -0.269 -0.130  0.000 -0.954
       0.819 -0.000 -0.000  0.574  0.000
     occupation matrix ns (before diag.):
       0.751 -0.363  0.000 -0.122  0.000
      -0.363  0.448 -0.000 -0.183  0.000
       0.000 -0.000  0.712 -0.000  0.401
      -0.122 -0.183 -0.000  0.933 -0.000
       0.000  0.000  0.401 -0.000  0.421
     ------------------------ ATOM    2 ------------------------
     Tr[ns(  2)] (up, down, total) =   4.96273  0.86776  5.83048
     Atomic magnetic moment for atom   2 =   4.09497
     SPIN  1
     eigenvalues:
       0.985  0.986  0.997  0.997  0.997
     eigenvectors (columns):
      -0.000  0.571 -0.669  0.476  0.000
      -0.000  0.769  0.639 -0.024 -0.000
      -0.597 -0.000  0.000 -0.000  0.802
      -0.000  0.288 -0.379 -0.879 -0.000
       0.802  0.000  0.000 -0.000  0.597
     occupation matrix ns (before diag.):
       0.993 -0.005  0.000 -0.002  0.000
      -0.005  0.991 -0.000 -0.002  0.000
       0.000 -0.000  0.993 -0.000  0.006
      -0.002 -0.002 -0.000  0.996 -0.000
       0.000  0.000  0.006 -0.000  0.990
     SPIN  2
     eigenvalues:
       0.048  0.053  0.058  0.312  0.397
     eigenvectors (columns):
      -0.000 -0.814  0.293  0.501  0.000
       0.000  0.564  0.196  0.802  0.000
       0.840 -0.000  0.000  0.000 -0.543
       0.000 -0.137 -0.936  0.324 -0.000
       0.543 -0.000  0.000 -0.000  0.840
     occupation matrix ns (before diag.):
       0.118  0.104 -0.000  0.041  0.000
       0.104  0.220 -0.000  0.066  0.000
      -0.000 -0.000  0.151  0.000 -0.159
       0.041  0.066  0.000  0.085 -0.000
       0.000  0.000 -0.159 -0.000  0.294

     Number of occupied Hubbard levels =   14.0638

     HUBBARD ENERGY =    0.2593  (Ry)

     total cpu time spent up to now is      116.3 secs

     total energy              =   -1152.70061828 Ry
     estimated scf accuracy    <       0.00021360 Ry

     total magnetization       =     6.00 Bohr mag/cell
     absolute magnetization    =     6.84 Bohr mag/cell

     iteration #  9     ecut=   120.00 Ry     beta= 0.70
     Davidson diagonalization with overlap

---- Real-time Memory Report at c_bands before calling an iterative solver
           258 MiB given to the printing process from OS
           224 MiB allocation reported by mallinfo(arena+hblkhd)
        656089 MiB available memory on the node where the printing process lives
------------------
     ethr =  1.83E-07,  avg # of iterations =  1.0

     =================== HUBBARD OCCUPATIONS ===================
     ------------------------ ATOM    1 ------------------------
     Tr[ns(  1)] (up, down, total) =   4.96717  3.26636  8.23352
     Atomic magnetic moment for atom   1 =   1.70081
     SPIN  1
     eigenvalues:
       0.989  0.989  0.996  0.997  0.997
     eigenvectors (columns):
      -0.000 -0.597  0.760  0.000  0.256
      -0.000 -0.749 -0.643 -0.000  0.160
      -0.605  0.000 -0.000  0.796  0.000
      -0.000 -0.286  0.096  0.000 -0.953
       0.796 -0.000 -0.000  0.605  0.000
     occupation matrix ns (before diag.):
       0.994 -0.003  0.000 -0.001  0.000
      -0.003  0.992 -0.000 -0.002  0.000
       0.000 -0.000  0.994 -0.000  0.004
      -0.001 -0.002 -0.000  0.996 -0.000
       0.000  0.000  0.004 -0.000  0.991
     SPIN  2
     eigenvalues:
       0.140  0.145  0.993  0.993  0.995
     eigenvectors (columns):
      -0.000 -0.534  0.845  0.000  0.034
      -0.000 -0.802 -0.518 -0.000  0.298
      -0.574  0.000 -0.000  0.819  0.000
      -0.000 -0.269 -0.132  0.000 -0.954
       0.819 -0.000 -0.000  0.574  0.000
     occupation matrix ns (before diag.):
       0.751 -0.363  0.000 -0.122  0.000
      -0.363  0.448 -0.000 -0.183  0.000
       0.000 -0.000  0.712 -0.000  0.401
      -0.122 -0.183 -0.000  0.933 -0.000
       0.000  0.000  0.401 -0.000  0.421
     ------------------------ ATOM    2 ------------------------
     Tr[ns(  2)] (up, down, total) =   4.96281  0.86575  5.82856
     Atomic magnetic moment for atom   2 =   4.09706
     SPIN  1
     eigenvalues:
       0.986  0.986  0.997  0.997  0.997
     eigenvectors (columns):
      -0.000  0.571 -0.665  0.482  0.000
      -0.000  0.769  0.639 -0.030 -0.000
      -0.597 -0.000  0.000 -0.000  0.802
      -0.000  0.288 -0.388 -0.876 -0.000
       0.802  0.000  0.000 -0.000  0.597
     occupation matrix ns (before diag.):
       0.993 -0.005  0.000 -0.002  0.000
      -0.005  0.991 -0.000 -0.002  0.000
       0.000 -0.000  0.993 -0.000  0.006
      -0.002 -0.002 -0.000  0.996 -0.000
       0.000  0.000  0.006 -0.000  0.990
     SPIN  2
     eigenvalues:
       0.049  0.053  0.059  0.320  0.386
     eigenvectors (columns):
      -0.000 -0.819  0.281  0.500  0.000
       0.000  0.561  0.209  0.801  0.000
       0.839 -0.000  0.000  0.000 -0.545
       0.000 -0.121 -0.937  0.328  0.000
       0.545 -0.000  0.000 -0.000  0.839
     occupation matrix ns (before diag.):
       0.120  0.107 -0.000  0.042  0.000
       0.107  0.225 -0.000  0.069  0.000
      -0.000 -0.000  0.149  0.000 -0.154
       0.042  0.069  0.000  0.087 -0.000
       0.000  0.000 -0.154 -0.000  0.286

     Number of occupied Hubbard levels =   14.0621

     HUBBARD ENERGY =    0.2604  (Ry)

     total cpu time spent up to now is      126.9 secs

     total energy              =   -1152.69986490 Ry
     estimated scf accuracy    <       0.00016657 Ry

     total magnetization       =     6.00 Bohr mag/cell
     absolute magnetization    =     6.84 Bohr mag/cell

     iteration # 10     ecut=   120.00 Ry     beta= 0.70
     Davidson diagonalization with overlap

---- Real-time Memory Report at c_bands before calling an iterative solver
           259 MiB given to the printing process from OS
           224 MiB allocation reported by mallinfo(arena+hblkhd)
        656889 MiB available memory on the node where the printing process lives
------------------
     ethr =  1.51E-07,  avg # of iterations =  2.4

     =================== HUBBARD OCCUPATIONS ===================
     ------------------------ ATOM    1 ------------------------
     Tr[ns(  1)] (up, down, total) =   4.96706  3.26681  8.23387
     Atomic magnetic moment for atom   1 =   1.70026
     SPIN  1
     eigenvalues:
       0.989  0.989  0.996  0.997  0.997
     eigenvectors (columns):
      -0.000 -0.597  0.762  0.000  0.252
      -0.000 -0.749 -0.642 -0.000  0.164
      -0.605  0.000 -0.000  0.796  0.000
      -0.000 -0.286  0.091  0.000 -0.954
       0.796 -0.000 -0.000  0.605  0.000
     occupation matrix ns (before diag.):
       0.994 -0.003  0.000 -0.001  0.000
      -0.003  0.992 -0.000 -0.002  0.000
       0.000 -0.000  0.994 -0.000  0.004
      -0.001 -0.002 -0.000  0.996 -0.000
       0.000  0.000  0.004 -0.000  0.991
     SPIN  2
     eigenvalues:
       0.140  0.145  0.993  0.993  0.995
     eigenvectors (columns):
      -0.000 -0.534  0.845  0.000  0.026
      -0.000 -0.802 -0.516 -0.000  0.302
      -0.574  0.000 -0.000  0.819  0.000
      -0.000 -0.269 -0.141  0.000 -0.953
       0.819 -0.000 -0.000  0.574  0.000
     occupation matrix ns (before diag.):
       0.752 -0.363  0.000 -0.122  0.000
      -0.363  0.448 -0.000 -0.183  0.000
       0.000 -0.000  0.712 -0.000  0.401
      -0.122 -0.183 -0.000  0.933 -0.000
       0.000  0.000  0.401 -0.000  0.422
     ------------------------ ATOM    2 ------------------------
     Tr[ns(  2)] (up, down, total) =   4.96317  0.86650  5.82967
     Atomic magnetic moment for atom   2 =   4.09667
     SPIN  1
     eigenvalues:
       0.986  0.986  0.997  0.997  0.997
     eigenvectors (columns):
      -0.000  0.571 -0.638  0.517  0.000
      -0.000  0.769  0.636 -0.064 -0.000
      -0.598 -0.000  0.000 -0.000  0.802
      -0.000  0.288 -0.434 -0.853 -0.000
       0.802  0.000  0.000 -0.000  0.598
     occupation matrix ns (before diag.):
       0.993 -0.005  0.000 -0.002  0.000
      -0.005  0.991 -0.000 -0.002  0.000
       0.000 -0.000  0.993 -0.000  0.005
      -0.002 -0.002 -0.000  0.996 -0.000
       0.000  0.000  0.005 -0.000  0.990
     SPIN  2
     eigenvalues:
       0.049  0.053  0.060  0.349  0.355
     eigenvectors (columns):
      -0.000 -0.835  0.238 -0.000  0.496
       0.000  0.546  0.252 -0.000  0.799
       0.834 -0.000  0.000 -0.552 -0.000
       0.000 -0.065 -0.938 -0.000  0.341
       0.552 -0.000  0.000  0.834  0.000
     occupation matrix ns (before diag.):
       0.128  0.120 -0.000  0.049  0.000
       0.120  0.246 -0.000  0.080  0.000
      -0.000 -0.000  0.140  0.000 -0.138
       0.049  0.080  0.000  0.095 -0.000
       0.000  0.000 -0.138 -0.000  0.257

     Number of occupied Hubbard levels =   14.0635

     HUBBARD ENERGY =    0.2600  (Ry)

     total cpu time spent up to now is      139.8 secs

     total energy              =   -1152.70041332 Ry
     estimated scf accuracy    <       0.00014467 Ry

     total magnetization       =     6.00 Bohr mag/cell
     absolute magnetization    =     6.85 Bohr mag/cell

     iteration # 11     ecut=   120.00 Ry     beta= 0.70
     Davidson diagonalization with overlap

---- Real-time Memory Report at c_bands before calling an iterative solver
           259 MiB given to the printing process from OS
           225 MiB allocation reported by mallinfo(arena+hblkhd)
        659389 MiB available memory on the node where the printing process lives
------------------
     ethr =  1.32E-07,  avg # of iterations =  1.2

     =================== HUBBARD OCCUPATIONS ===================
     ------------------------ ATOM    1 ------------------------
     Tr[ns(  1)] (up, down, total) =   4.96714  3.26686  8.23400
     Atomic magnetic moment for atom   1 =   1.70027
     SPIN  1
     eigenvalues:
       0.989  0.989  0.996  0.997  0.997
     eigenvectors (columns):
      -0.000 -0.597  0.762  0.000  0.251
      -0.000 -0.749 -0.641 -0.000  0.164
      -0.605  0.000 -0.000  0.796  0.000
      -0.000 -0.286  0.091  0.000 -0.954
       0.796 -0.000 -0.000  0.605  0.000
     occupation matrix ns (before diag.):
       0.994 -0.003  0.000 -0.001  0.000
      -0.003  0.992 -0.000 -0.002  0.000
       0.000 -0.000  0.994 -0.000  0.004
      -0.001 -0.002 -0.000  0.996 -0.000
       0.000  0.000  0.004 -0.000  0.991
     SPIN  2
     eigenvalues:
       0.140  0.146  0.993  0.993  0.995
     eigenvectors (columns):
      -0.000 -0.534  0.845  0.000  0.026
      -0.000 -0.802 -0.515 -0.000  0.303
      -0.574  0.000 -0.000  0.819  0.000
      -0.000 -0.269 -0.141  0.000 -0.953
       0.819 -0.000 -0.000  0.574  0.000
     occupation matrix ns (before diag.):
       0.752 -0.363  0.000 -0.122  0.000
      -0.363  0.448 -0.000 -0.183  0.000
       0.000 -0.000  0.712 -0.000  0.401
      -0.122 -0.183 -0.000  0.933 -0.000
       0.000  0.000  0.401 -0.000  0.422
     ------------------------ ATOM    2 ------------------------
     Tr[ns(  2)] (up, down, total) =   4.96304  0.86644  5.82948
     Atomic magnetic moment for atom   2 =   4.09660
     SPIN  1
     eigenvalues:
       0.986  0.986  0.997  0.997  0.997
     eigenvectors (columns):
      -0.000  0.571 -0.640  0.515  0.000
      -0.000  0.769  0.637 -0.061 -0.000
      -0.598 -0.000  0.000 -0.000  0.802
      -0.000  0.289 -0.431 -0.855 -0.000
       0.802  0.000  0.000 -0.000  0.598
     occupation matrix ns (before diag.):
       0.993 -0.005  0.000 -0.002  0.000
      -0.005  0.991 -0.000 -0.002  0.000
       0.000 -0.000  0.993 -0.000  0.005
      -0.002 -0.002 -0.000  0.996 -0.000
       0.000  0.000  0.005 -0.000  0.990
     SPIN  2
     eigenvalues:
       0.049  0.053  0.060  0.343  0.362
     eigenvectors (columns):
      -0.000  0.837  0.234 -0.000  0.494
       0.000 -0.544  0.257 -0.000  0.799
       0.833  0.000  0.000 -0.553 -0.000
       0.000  0.060 -0.937 -0.000  0.343
       0.553  0.000  0.000  0.833  0.000
     occupation matrix ns (before diag.):
       0.129  0.122 -0.000  0.051  0.000
       0.122  0.250 -0.000  0.083  0.000
      -0.000 -0.000  0.139  0.000 -0.136
       0.051  0.083  0.000  0.096 -0.000
       0.000  0.000 -0.136 -0.000  0.253

     Number of occupied Hubbard levels =   14.0635

     HUBBARD ENERGY =    0.2608  (Ry)

     total cpu time spent up to now is      150.5 secs

     total energy              =   -1152.70039310 Ry
     estimated scf accuracy    <       0.00009434 Ry

     total magnetization       =     6.00 Bohr mag/cell
     absolute magnetization    =     6.85 Bohr mag/cell

     iteration # 12     ecut=   120.00 Ry     beta= 0.70
     Davidson diagonalization with overlap

---- Real-time Memory Report at c_bands before calling an iterative solver
           259 MiB given to the printing process from OS
           225 MiB allocation reported by mallinfo(arena+hblkhd)
        656062 MiB available memory on the node where the printing process lives
------------------
     ethr =  8.58E-08,  avg # of iterations =  2.4

     =================== HUBBARD OCCUPATIONS ===================
     ------------------------ ATOM    1 ------------------------
     Tr[ns(  1)] (up, down, total) =   4.96697  3.26666  8.23362
     Atomic magnetic moment for atom   1 =   1.70031
     SPIN  1
     eigenvalues:
       0.989  0.989  0.996  0.996  0.997
     eigenvectors (columns):
      -0.000  0.597 -0.762  0.000  0.250
      -0.000  0.749  0.641 -0.000  0.164
      -0.605 -0.000  0.000  0.796  0.000
      -0.000  0.286 -0.089  0.000 -0.954
       0.796  0.000  0.000  0.605  0.000
     occupation matrix ns (before diag.):
       0.994 -0.003  0.000 -0.001  0.000
      -0.003  0.992 -0.000 -0.002  0.000
       0.000 -0.000  0.994 -0.000  0.004
      -0.001 -0.002 -0.000  0.996 -0.000
       0.000  0.000  0.004 -0.000  0.991
     SPIN  2
     eigenvalues:
       0.140  0.145  0.993  0.993  0.994
     eigenvectors (columns):
      -0.000 -0.533  0.846  0.000  0.025
      -0.000 -0.802 -0.515 -0.000  0.304
      -0.574  0.000 -0.000  0.819  0.000
      -0.000 -0.270 -0.142  0.000 -0.952
       0.819 -0.000 -0.000  0.574  0.000
     occupation matrix ns (before diag.):
       0.752 -0.362  0.000 -0.122  0.000
      -0.362  0.448 -0.000 -0.184  0.000
       0.000 -0.000  0.712 -0.000  0.401
      -0.122 -0.184 -0.000  0.933 -0.000
       0.000  0.000  0.401 -0.000  0.422
     ------------------------ ATOM    2 ------------------------
     Tr[ns(  2)] (up, down, total) =   4.96264  0.86196  5.82460
     Atomic magnetic moment for atom   2 =   4.10068
     SPIN  1
     eigenvalues:
       0.986  0.986  0.997  0.997  0.997
     eigenvectors (columns):
      -0.000  0.571 -0.658  0.491  0.000
      -0.000  0.769  0.638 -0.038 -0.000
      -0.597 -0.000  0.000 -0.000  0.802
      -0.000  0.289 -0.399 -0.870 -0.000
       0.802  0.000  0.000 -0.000  0.597
     occupation matrix ns (before diag.):
       0.993 -0.005  0.000 -0.002  0.000
      -0.005  0.990 -0.000 -0.002  0.000
       0.000 -0.000  0.993 -0.000  0.006
      -0.002 -0.002 -0.000  0.996 -0.000
       0.000  0.000  0.006 -0.000  0.990
     SPIN  2
     eigenvalues:
       0.048  0.052  0.059  0.338  0.365
     eigenvectors (columns):
      -0.000 -0.838  0.235 -0.000  0.492
       0.000  0.542  0.258 -0.000  0.800
       0.832 -0.000  0.000 -0.555 -0.000
       0.000 -0.061 -0.937 -0.000  0.344
       0.555 -0.000  0.000  0.832  0.000
     occupation matrix ns (before diag.):
       0.128  0.123 -0.000  0.051  0.000
       0.123  0.253 -0.000  0.084  0.000
      -0.000 -0.000  0.137  0.000 -0.134
       0.051  0.084  0.000  0.095 -0.000
       0.000  0.000 -0.134 -0.000  0.249

     Number of occupied Hubbard levels =   14.0582

     HUBBARD ENERGY =    0.2609  (Ry)

     total cpu time spent up to now is      163.3 secs

     total energy              =   -1152.70041434 Ry
     estimated scf accuracy    <       0.00001585 Ry

     total magnetization       =     6.00 Bohr mag/cell
     absolute magnetization    =     6.85 Bohr mag/cell

     iteration # 13     ecut=   120.00 Ry     beta= 0.70
     Davidson diagonalization with overlap

---- Real-time Memory Report at c_bands before calling an iterative solver
           259 MiB given to the printing process from OS
           225 MiB allocation reported by mallinfo(arena+hblkhd)
        656866 MiB available memory on the node where the printing process lives
------------------
     ethr =  1.44E-08,  avg # of iterations =  3.2

     =================== HUBBARD OCCUPATIONS ===================
     ------------------------ ATOM    1 ------------------------
     Tr[ns(  1)] (up, down, total) =   4.96690  3.26627  8.23317
     Atomic magnetic moment for atom   1 =   1.70063
     SPIN  1
     eigenvalues:
       0.988  0.989  0.996  0.996  0.997
     eigenvectors (columns):
      -0.000 -0.597  0.762  0.000  0.250
      -0.000 -0.749 -0.642 -0.000  0.164
      -0.605  0.000 -0.000  0.796  0.000
      -0.000 -0.286  0.090  0.000 -0.954
       0.796 -0.000 -0.000  0.605  0.000
     occupation matrix ns (before diag.):
       0.994 -0.003  0.000 -0.001  0.000
      -0.003  0.992 -0.000 -0.002  0.000
       0.000 -0.000  0.994 -0.000  0.004
      -0.001 -0.002 -0.000  0.996 -0.000
       0.000  0.000  0.004 -0.000  0.991
     SPIN  2
     eigenvalues:
       0.140  0.145  0.993  0.993  0.994
     eigenvectors (columns):
      -0.000 -0.533  0.846  0.000  0.024
      -0.000 -0.802 -0.514 -0.000  0.304
      -0.574  0.000 -0.000  0.819  0.000
      -0.000 -0.270 -0.143  0.000 -0.952
       0.819 -0.000 -0.000  0.574  0.000
     occupation matrix ns (before diag.):
       0.752 -0.362  0.000 -0.122  0.000
      -0.362  0.448 -0.000 -0.184  0.000
       0.000 -0.000  0.712 -0.000  0.401
      -0.122 -0.184 -0.000  0.933 -0.000
       0.000  0.000  0.401 -0.000  0.422
     ------------------------ ATOM    2 ------------------------
     Tr[ns(  2)] (up, down, total) =   4.96275  0.86391  5.82666
     Atomic magnetic moment for atom   2 =   4.09884
     SPIN  1
     eigenvalues:
       0.986  0.986  0.997  0.997  0.997
     eigenvectors (columns):
      -0.000  0.571 -0.653  0.498  0.000
      -0.000  0.769  0.638 -0.044 -0.000
      -0.598 -0.000  0.000 -0.000  0.802
      -0.000  0.289 -0.408 -0.866 -0.000
       0.802  0.000  0.000 -0.000  0.598
     occupation matrix ns (before diag.):
       0.993 -0.005  0.000 -0.002  0.000
      -0.005  0.990 -0.000 -0.002  0.000
       0.000 -0.000  0.993 -0.000  0.006
      -0.002 -0.002 -0.000  0.996 -0.000
       0.000  0.000  0.006 -0.000  0.990
     SPIN  2
     eigenvalues:
       0.048  0.052  0.060  0.335  0.369
     eigenvectors (columns):
      -0.000 -0.840 -0.232 -0.000  0.490
       0.000  0.539 -0.261 -0.000  0.801
       0.831 -0.000 -0.000 -0.556 -0.000
       0.000 -0.058  0.937 -0.000  0.344
       0.556 -0.000 -0.000  0.831  0.000
     occupation matrix ns (before diag.):
       0.129  0.125 -0.000  0.052  0.000
       0.125  0.256 -0.000  0.085  0.000
      -0.000 -0.000  0.137  0.000 -0.133
       0.052  0.085  0.000  0.096 -0.000
       0.000  0.000 -0.133 -0.000  0.246

     Number of occupied Hubbard levels =   14.0598

     HUBBARD ENERGY =    0.2606  (Ry)

     total cpu time spent up to now is      176.2 secs

     total energy              =   -1152.70042186 Ry
     estimated scf accuracy    <       0.00000107 Ry

     total magnetization       =     6.00 Bohr mag/cell
     absolute magnetization    =     6.85 Bohr mag/cell

     iteration # 14     ecut=   120.00 Ry     beta= 0.70
     Davidson diagonalization with overlap

---- Real-time Memory Report at c_bands before calling an iterative solver
           259 MiB given to the printing process from OS
           225 MiB allocation reported by mallinfo(arena+hblkhd)
        659199 MiB available memory on the node where the printing process lives
------------------
     ethr =  9.76E-10,  avg # of iterations =  3.6

     =================== HUBBARD OCCUPATIONS ===================
     ------------------------ ATOM    1 ------------------------
     Tr[ns(  1)] (up, down, total) =   4.96694  3.26614  8.23308
     Atomic magnetic moment for atom   1 =   1.70080
     SPIN  1
     eigenvalues:
       0.989  0.989  0.996  0.996  0.997
     eigenvectors (columns):
      -0.000 -0.597  0.762  0.000  0.251
      -0.000 -0.749 -0.642 -0.000  0.164
      -0.606  0.000 -0.000  0.796  0.000
      -0.000 -0.286  0.090  0.000 -0.954
       0.796 -0.000 -0.000  0.606  0.000
     occupation matrix ns (before diag.):
       0.994 -0.003  0.000 -0.001  0.000
      -0.003  0.992 -0.000 -0.002  0.000
       0.000 -0.000  0.994 -0.000  0.004
      -0.001 -0.002 -0.000  0.996 -0.000
       0.000  0.000  0.004 -0.000  0.991
     SPIN  2
     eigenvalues:
       0.140  0.145  0.993  0.993  0.994
     eigenvectors (columns):
      -0.000 -0.533  0.846  0.000  0.025
      -0.000 -0.802 -0.514 -0.000  0.305
      -0.574  0.000 -0.000  0.819  0.000
      -0.000 -0.270 -0.143  0.000 -0.952
       0.819 -0.000 -0.000  0.574  0.000
     occupation matrix ns (before diag.):
       0.752 -0.362  0.000 -0.122  0.000
      -0.362  0.448 -0.000 -0.184  0.000
       0.000 -0.000  0.712 -0.000  0.401
      -0.122 -0.184 -0.000  0.932 -0.000
       0.000  0.000  0.401 -0.000  0.422
     ------------------------ ATOM    2 ------------------------
     Tr[ns(  2)] (up, down, total) =   4.96275  0.86431  5.82706
     Atomic magnetic moment for atom   2 =   4.09844
     SPIN  1
     eigenvalues:
       0.986  0.986  0.997  0.997  0.997
     eigenvectors (columns):
      -0.000  0.570 -0.653  0.498  0.000
      -0.000  0.769  0.638 -0.045 -0.000
      -0.598 -0.000  0.000 -0.000  0.802
      -0.000  0.289 -0.408 -0.866 -0.000
       0.802  0.000  0.000 -0.000  0.598
     occupation matrix ns (before diag.):
       0.993 -0.005  0.000 -0.002  0.000
      -0.005  0.990 -0.000 -0.002  0.000
       0.000 -0.000  0.993 -0.000  0.006
      -0.002 -0.002 -0.000  0.996 -0.000
       0.000  0.000  0.006 -0.000  0.990
     SPIN  2
     eigenvalues:
       0.048  0.052  0.060  0.336  0.369
     eigenvectors (columns):
      -0.000 -0.840 -0.234 -0.000  0.489
       0.000  0.539 -0.259 -0.000  0.802
       0.831 -0.000 -0.000 -0.557 -0.000
       0.000 -0.060  0.937 -0.000  0.344
       0.557 -0.000 -0.000  0.831  0.000
     occupation matrix ns (before diag.):
       0.128  0.125 -0.000  0.052  0.000
       0.125  0.256 -0.000  0.085  0.000
      -0.000 -0.000  0.137  0.000 -0.133
       0.052  0.085  0.000  0.096 -0.000
       0.000  0.000 -0.133 -0.000  0.246

     Number of occupied Hubbard levels =   14.0601

     HUBBARD ENERGY =    0.2607  (Ry)

     total cpu time spent up to now is      190.9 secs

     total energy              =   -1152.70042245 Ry
     estimated scf accuracy    <       0.00000068 Ry

     total magnetization       =     6.00 Bohr mag/cell
     absolute magnetization    =     6.85 Bohr mag/cell

     iteration # 15     ecut=   120.00 Ry     beta= 0.70
     Davidson diagonalization with overlap

---- Real-time Memory Report at c_bands before calling an iterative solver
           259 MiB given to the printing process from OS
           225 MiB allocation reported by mallinfo(arena+hblkhd)
        659379 MiB available memory on the node where the printing process lives
------------------
     ethr =  6.21E-10,  avg # of iterations =  2.0

     =================== HUBBARD OCCUPATIONS ===================
     ------------------------ ATOM    1 ------------------------
     Tr[ns(  1)] (up, down, total) =   4.96693  3.26613  8.23306
     Atomic magnetic moment for atom   1 =   1.70081
     SPIN  1
     eigenvalues:
       0.988  0.989  0.996  0.996  0.997
     eigenvectors (columns):
      -0.000 -0.597  0.762  0.000  0.250
      -0.000 -0.749 -0.642 -0.000  0.164
      -0.606  0.000 -0.000  0.796  0.000
      -0.000 -0.285  0.090  0.000 -0.954
       0.796 -0.000 -0.000  0.606  0.000
     occupation matrix ns (before diag.):
       0.994 -0.003  0.000 -0.001  0.000
      -0.003  0.992 -0.000 -0.002  0.000
       0.000 -0.000  0.994 -0.000  0.004
      -0.001 -0.002 -0.000  0.996 -0.000
       0.000  0.000  0.004 -0.000  0.991
     SPIN  2
     eigenvalues:
       0.140  0.145  0.993  0.993  0.994
     eigenvectors (columns):
      -0.000 -0.533  0.846  0.000  0.025
      -0.000 -0.802 -0.514 -0.000  0.305
      -0.574  0.000 -0.000  0.819  0.000
      -0.000 -0.271 -0.143  0.000 -0.952
       0.819 -0.000 -0.000  0.574  0.000
     occupation matrix ns (before diag.):
       0.752 -0.362  0.000 -0.122  0.000
      -0.362  0.448 -0.000 -0.184  0.000
       0.000 -0.000  0.712 -0.000  0.401
      -0.122 -0.184 -0.000  0.932 -0.000
       0.000  0.000  0.401 -0.000  0.422
     ------------------------ ATOM    2 ------------------------
     Tr[ns(  2)] (up, down, total) =   4.96272  0.86394  5.82666
     Atomic magnetic moment for atom   2 =   4.09878
     SPIN  1
     eigenvalues:
       0.986  0.986  0.997  0.997  0.997
     eigenvectors (columns):
      -0.000  0.570 -0.655  0.496  0.000
      -0.000  0.769  0.638 -0.043 -0.000
      -0.598 -0.000  0.000 -0.000  0.802
      -0.000  0.288 -0.406 -0.867 -0.000
       0.802  0.000  0.000 -0.000  0.598
     occupation matrix ns (before diag.):
       0.993 -0.005  0.000 -0.002  0.000
      -0.005  0.990 -0.000 -0.002  0.000
       0.000 -0.000  0.993 -0.000  0.006
      -0.002 -0.002 -0.000  0.996 -0.000
       0.000  0.000  0.006 -0.000  0.990
     SPIN  2
     eigenvalues:
       0.048  0.052  0.060  0.335  0.369
     eigenvectors (columns):
      -0.000 -0.840  0.235 -0.000  0.488
       0.000  0.538  0.258 -0.000  0.802
       0.830 -0.000  0.000 -0.557 -0.000
       0.000 -0.063 -0.937 -0.000  0.343
       0.557 -0.000  0.000  0.830  0.000
     occupation matrix ns (before diag.):
       0.128  0.124 -0.000  0.051  0.000
       0.124  0.257 -0.000  0.085  0.000
      -0.000 -0.000  0.137  0.000 -0.133
       0.051  0.085  0.000  0.096 -0.000
       0.000  0.000 -0.133 -0.000  0.246

     Number of occupied Hubbard levels =   14.0597

     HUBBARD ENERGY =    0.2607  (Ry)

     total cpu time spent up to now is      203.3 secs

     total energy              =   -1152.70042288 Ry
     estimated scf accuracy    <       0.00000023 Ry

     total magnetization       =     6.00 Bohr mag/cell
     absolute magnetization    =     6.85 Bohr mag/cell

     iteration # 16     ecut=   120.00 Ry     beta= 0.70
     Davidson diagonalization with overlap

---- Real-time Memory Report at c_bands before calling an iterative solver
           259 MiB given to the printing process from OS
           225 MiB allocation reported by mallinfo(arena+hblkhd)
        656043 MiB available memory on the node where the printing process lives
------------------
     ethr =  2.07E-10,  avg # of iterations =  3.0

     =================== HUBBARD OCCUPATIONS ===================
     ------------------------ ATOM    1 ------------------------
     Tr[ns(  1)] (up, down, total) =   4.96693  3.26613  8.23306
     Atomic magnetic moment for atom   1 =   1.70080
     SPIN  1
     eigenvalues:
       0.988  0.989  0.996  0.996  0.997
     eigenvectors (columns):
      -0.000 -0.598  0.762  0.000  0.250
      -0.000 -0.749 -0.642 -0.000  0.164
      -0.606  0.000 -0.000  0.796  0.000
      -0.000 -0.285  0.090  0.000 -0.954
       0.796 -0.000 -0.000  0.606  0.000
     occupation matrix ns (before diag.):
       0.994 -0.003  0.000 -0.001  0.000
      -0.003  0.992 -0.000 -0.002  0.000
       0.000 -0.000  0.994 -0.000  0.004
      -0.001 -0.002 -0.000  0.996 -0.000
       0.000  0.000  0.004 -0.000  0.991
     SPIN  2
     eigenvalues:
       0.140  0.145  0.993  0.993  0.994
     eigenvectors (columns):
      -0.000 -0.533  0.846  0.000  0.025
      -0.000 -0.802 -0.514 -0.000  0.305
      -0.574  0.000 -0.000  0.819  0.000
      -0.000 -0.271 -0.143  0.000 -0.952
       0.819 -0.000 -0.000  0.574  0.000
     occupation matrix ns (before diag.):
       0.753 -0.362  0.000 -0.122  0.000
      -0.362  0.448 -0.000 -0.185  0.000
       0.000 -0.000  0.712 -0.000  0.401
      -0.122 -0.185 -0.000  0.932 -0.000
       0.000  0.000  0.401 -0.000  0.422
     ------------------------ ATOM    2 ------------------------
     Tr[ns(  2)] (up, down, total) =   4.96272  0.86391  5.82664
     Atomic magnetic moment for atom   2 =   4.09881
     SPIN  1
     eigenvalues:
       0.986  0.986  0.997  0.997  0.997
     eigenvectors (columns):
      -0.000  0.570 -0.655  0.496  0.000
      -0.000  0.769  0.638 -0.043 -0.000
      -0.598 -0.000  0.000 -0.000  0.802
      -0.000  0.288 -0.406 -0.867 -0.000
       0.802  0.000  0.000 -0.000  0.598
     occupation matrix ns (before diag.):
       0.993 -0.005  0.000 -0.002  0.000
      -0.005  0.990 -0.000 -0.002  0.000
       0.000 -0.000  0.993 -0.000  0.006
      -0.002 -0.002 -0.000  0.996 -0.000
       0.000  0.000  0.006 -0.000  0.990
     SPIN  2
     eigenvalues:
       0.048  0.052  0.060  0.335  0.369
     eigenvectors (columns):
      -0.000 -0.841 -0.238 -0.000  0.487
       0.000  0.538 -0.256 -0.000  0.803
       0.830 -0.000 -0.000 -0.558 -0.000
       0.000 -0.066  0.937 -0.000  0.343
       0.558 -0.000 -0.000  0.830  0.000
     occupation matrix ns (before diag.):
       0.128  0.124 -0.000  0.051  0.000
       0.124  0.257 -0.000  0.085  0.000
      -0.000 -0.000  0.137  0.000 -0.133
       0.051  0.085  0.000  0.096 -0.000
       0.000  0.000 -0.133 -0.000  0.246

     Number of occupied Hubbard levels =   14.0597

     HUBBARD ENERGY =    0.2606  (Ry)

     total cpu time spent up to now is      216.1 secs

     total energy              =   -1152.70042289 Ry
     estimated scf accuracy    <       0.00000012 Ry

     total magnetization       =     6.00 Bohr mag/cell
     absolute magnetization    =     6.85 Bohr mag/cell

     iteration # 17     ecut=   120.00 Ry     beta= 0.70
     Davidson diagonalization with overlap

---- Real-time Memory Report at c_bands before calling an iterative solver
           259 MiB given to the printing process from OS
           225 MiB allocation reported by mallinfo(arena+hblkhd)
        656037 MiB available memory on the node where the printing process lives
------------------
     ethr =  1.05E-10,  avg # of iterations =  3.8

     =================== HUBBARD OCCUPATIONS ===================
     ------------------------ ATOM    1 ------------------------
     Tr[ns(  1)] (up, down, total) =   4.96694  3.26613  8.23307
     Atomic magnetic moment for atom   1 =   1.70080
     SPIN  1
     eigenvalues:
       0.989  0.989  0.996  0.996  0.997
     eigenvectors (columns):
      -0.000 -0.598  0.762  0.000  0.250
      -0.000 -0.749 -0.642 -0.000  0.164
      -0.606  0.000 -0.000  0.796  0.000
      -0.000 -0.285  0.089  0.000 -0.954
       0.796 -0.000 -0.000  0.606  0.000
     occupation matrix ns (before diag.):
       0.994 -0.003  0.000 -0.001  0.000
      -0.003  0.992 -0.000 -0.002  0.000
       0.000 -0.000  0.994 -0.000  0.004
      -0.001 -0.002 -0.000  0.996 -0.000
       0.000  0.000  0.004 -0.000  0.991
     SPIN  2
     eigenvalues:
       0.140  0.145  0.993  0.993  0.994
     eigenvectors (columns):
      -0.000 -0.532  0.846  0.000  0.025
      -0.000 -0.802 -0.513 -0.000  0.306
      -0.574  0.000 -0.000  0.819  0.000
      -0.000 -0.271 -0.143  0.000 -0.952
       0.819 -0.000 -0.000  0.574  0.000
     occupation matrix ns (before diag.):
       0.753 -0.362  0.000 -0.122  0.000
      -0.362  0.448 -0.000 -0.185  0.000
       0.000 -0.000  0.712 -0.000  0.401
      -0.122 -0.185 -0.000  0.932 -0.000
       0.000  0.000  0.401 -0.000  0.422
     ------------------------ ATOM    2 ------------------------
     Tr[ns(  2)] (up, down, total) =   4.96273  0.86409  5.82683
     Atomic magnetic moment for atom   2 =   4.09864
     SPIN  1
     eigenvalues:
       0.986  0.986  0.997  0.997  0.997
     eigenvectors (columns):
      -0.000  0.570 -0.654  0.497  0.000
      -0.000  0.769  0.638 -0.043 -0.000
      -0.598 -0.000  0.000 -0.000  0.802
      -0.000  0.288 -0.407 -0.867 -0.000
       0.802  0.000  0.000 -0.000  0.598
     occupation matrix ns (before diag.):
       0.993 -0.005  0.000 -0.002  0.000
      -0.005  0.990 -0.000 -0.002  0.000
       0.000 -0.000  0.993 -0.000  0.006
      -0.002 -0.002 -0.000  0.996 -0.000
       0.000  0.000  0.006 -0.000  0.990
     SPIN  2
     eigenvalues:
       0.048  0.052  0.060  0.335  0.369
     eigenvectors (columns):
      -0.000 -0.841  0.241 -0.000  0.485
       0.000  0.537  0.254 -0.000  0.805
       0.829 -0.000  0.000 -0.559 -0.000
       0.000 -0.071 -0.937 -0.000  0.343
       0.559 -0.000  0.000  0.829  0.000
     occupation matrix ns (before diag.):
       0.127  0.124 -0.000  0.051  0.000
       0.124  0.258 -0.000  0.086  0.000
      -0.000 -0.000  0.138  0.000 -0.133
       0.051  0.086  0.000  0.096 -0.000
       0.000  0.000 -0.133 -0.000  0.246

     Number of occupied Hubbard levels =   14.0599

     HUBBARD ENERGY =    0.2607  (Ry)

     total cpu time spent up to now is      231.0 secs

     total energy              =   -1152.70042345 Ry
     estimated scf accuracy    <       0.00000008 Ry

     total magnetization       =     6.00 Bohr mag/cell
     absolute magnetization    =     6.85 Bohr mag/cell

     iteration # 18     ecut=   120.00 Ry     beta= 0.70
     Davidson diagonalization with overlap

---- Real-time Memory Report at c_bands before calling an iterative solver
           259 MiB given to the printing process from OS
           225 MiB allocation reported by mallinfo(arena+hblkhd)
        656845 MiB available memory on the node where the printing process lives
------------------
     ethr =  7.71E-11,  avg # of iterations =  2.1

     =================== HUBBARD OCCUPATIONS ===================
     ------------------------ ATOM    1 ------------------------
     Tr[ns(  1)] (up, down, total) =   4.96694  3.26613  8.23307
     Atomic magnetic moment for atom   1 =   1.70080
     SPIN  1
     eigenvalues:
       0.989  0.989  0.996  0.996  0.997
     eigenvectors (columns):
      -0.000 -0.598  0.762  0.000  0.250
      -0.000 -0.749 -0.642 -0.000  0.164
      -0.606  0.000 -0.000  0.796  0.000
      -0.000 -0.285  0.089  0.000 -0.954
       0.796 -0.000 -0.000  0.606  0.000
     occupation matrix ns (before diag.):
       0.994 -0.003  0.000 -0.001  0.000
      -0.003  0.992 -0.000 -0.002  0.000
       0.000 -0.000  0.994 -0.000  0.004
      -0.001 -0.002 -0.000  0.996 -0.000
       0.000  0.000  0.004 -0.000  0.991
     SPIN  2
     eigenvalues:
       0.140  0.145  0.993  0.993  0.994
     eigenvectors (columns):
      -0.000 -0.532 -0.846  0.000  0.025
      -0.000 -0.802  0.513 -0.000  0.306
      -0.575  0.000  0.000  0.818  0.000
      -0.000 -0.271  0.143  0.000 -0.952
       0.818 -0.000  0.000  0.575  0.000
     occupation matrix ns (before diag.):
       0.753 -0.362  0.000 -0.123  0.000
      -0.362  0.448 -0.000 -0.185  0.000
       0.000 -0.000  0.712 -0.000  0.401
      -0.123 -0.185 -0.000  0.932 -0.000
       0.000  0.000  0.401 -0.000  0.422
     ------------------------ ATOM    2 ------------------------
     Tr[ns(  2)] (up, down, total) =   4.96272  0.86402  5.82674
     Atomic magnetic moment for atom   2 =   4.09871
     SPIN  1
     eigenvalues:
       0.986  0.986  0.997  0.997  0.997
     eigenvectors (columns):
      -0.000  0.570 -0.655  0.496  0.000
      -0.000  0.769  0.638 -0.043 -0.000
      -0.598 -0.000  0.000 -0.000  0.802
      -0.000  0.288 -0.406 -0.867 -0.000
       0.802  0.000  0.000 -0.000  0.598
     occupation matrix ns (before diag.):
       0.993 -0.005  0.000 -0.002  0.000
      -0.005  0.990 -0.000 -0.002  0.000
       0.000 -0.000  0.993 -0.000  0.006
      -0.002 -0.002 -0.000  0.996 -0.000
       0.000  0.000  0.006 -0.000  0.990
     SPIN  2
     eigenvalues:
       0.048  0.052  0.060  0.336  0.369
     eigenvectors (columns):
      -0.000 -0.841  0.244 -0.000  0.484
       0.000  0.537  0.252 -0.000  0.805
       0.829 -0.000  0.000 -0.559 -0.000
       0.000 -0.074 -0.936 -0.000  0.343
       0.559 -0.000  0.000  0.829  0.000
     occupation matrix ns (before diag.):
       0.127  0.124 -0.000  0.051  0.000
       0.124  0.258 -0.000  0.086  0.000
      -0.000 -0.000  0.138  0.000 -0.133
       0.051  0.086  0.000  0.096 -0.000
       0.000  0.000 -0.133 -0.000  0.246

     Number of occupied Hubbard levels =   14.0598

     HUBBARD ENERGY =    0.2607  (Ry)

     total cpu time spent up to now is      243.8 secs

     total energy              =   -1152.70042358 Ry
     estimated scf accuracy    <       0.00000002 Ry

     total magnetization       =     6.00 Bohr mag/cell
     absolute magnetization    =     6.85 Bohr mag/cell

     iteration # 19     ecut=   120.00 Ry     beta= 0.70
     Davidson diagonalization with overlap

---- Real-time Memory Report at c_bands before calling an iterative solver
           259 MiB given to the printing process from OS
           225 MiB allocation reported by mallinfo(arena+hblkhd)
        656836 MiB available memory on the node where the printing process lives
------------------
     ethr =  1.49E-11,  avg # of iterations =  3.9

     =================== HUBBARD OCCUPATIONS ===================
     ------------------------ ATOM    1 ------------------------
     Tr[ns(  1)] (up, down, total) =   4.96694  3.26613  8.23307
     Atomic magnetic moment for atom   1 =   1.70081
     SPIN  1
     eigenvalues:
       0.989  0.989  0.996  0.996  0.997
     eigenvectors (columns):
      -0.000 -0.598  0.762  0.000  0.250
      -0.000 -0.749 -0.642 -0.000  0.164
      -0.606  0.000 -0.000  0.796  0.000
      -0.000 -0.285  0.089  0.000 -0.954
       0.796 -0.000 -0.000  0.606  0.000
     occupation matrix ns (before diag.):
       0.994 -0.003  0.000 -0.001  0.000
      -0.003  0.992 -0.000 -0.002  0.000
       0.000 -0.000  0.994 -0.000  0.004
      -0.001 -0.002 -0.000  0.996 -0.000
       0.000  0.000  0.004 -0.000  0.991
     SPIN  2
     eigenvalues:
       0.140  0.145  0.993  0.993  0.994
     eigenvectors (columns):
      -0.000 -0.532  0.846  0.000  0.025
      -0.000 -0.802 -0.513 -0.000  0.306
      -0.575  0.000 -0.000  0.818  0.000
      -0.000 -0.272 -0.142  0.000 -0.952
       0.818 -0.000 -0.000  0.575  0.000
     occupation matrix ns (before diag.):
       0.753 -0.362  0.000 -0.123  0.000
      -0.362  0.448 -0.000 -0.185  0.000
       0.000 -0.000  0.712 -0.000  0.401
      -0.123 -0.185 -0.000  0.932 -0.000
       0.000  0.000  0.401 -0.000  0.422
     ------------------------ ATOM    2 ------------------------
     Tr[ns(  2)] (up, down, total) =   4.96272  0.86406  5.82678
     Atomic magnetic moment for atom   2 =   4.09866
     SPIN  1
     eigenvalues:
       0.986  0.986  0.997  0.997  0.997
     eigenvectors (columns):
      -0.000  0.570 -0.655  0.496  0.000
      -0.000  0.769  0.638 -0.043 -0.000
      -0.598 -0.000  0.000 -0.000  0.802
      -0.000  0.288 -0.406 -0.867 -0.000
       0.802  0.000  0.000 -0.000  0.598
     occupation matrix ns (before diag.):
       0.993 -0.005  0.000 -0.002  0.000
      -0.005  0.990 -0.000 -0.002  0.000
       0.000 -0.000  0.993 -0.000  0.006
      -0.002 -0.002 -0.000  0.996 -0.000
       0.000  0.000  0.006 -0.000  0.990
     SPIN  2
     eigenvalues:
       0.048  0.052  0.060  0.336  0.369
     eigenvectors (columns):
      -0.000 -0.840  0.246 -0.000  0.483
       0.000  0.537  0.251 -0.000  0.805
       0.829 -0.000  0.000 -0.559 -0.000
       0.000 -0.076 -0.936 -0.000  0.343
       0.559 -0.000  0.000  0.829  0.000
     occupation matrix ns (before diag.):
       0.127  0.124 -0.000  0.051  0.000
       0.124  0.258 -0.000  0.086  0.000
      -0.000 -0.000  0.138  0.000 -0.133
       0.051  0.086  0.000  0.096 -0.000
       0.000  0.000 -0.133 -0.000  0.246

     Number of occupied Hubbard levels =   14.0599

     HUBBARD ENERGY =    0.2607  (Ry)

     total cpu time spent up to now is      258.3 secs

     total energy              =   -1152.70042358 Ry
     estimated scf accuracy    <          8.4E-09 Ry

     total magnetization       =     6.00 Bohr mag/cell
     absolute magnetization    =     6.85 Bohr mag/cell

     iteration # 20     ecut=   120.00 Ry     beta= 0.70
     Davidson diagonalization with overlap

---- Real-time Memory Report at c_bands before calling an iterative solver
           259 MiB given to the printing process from OS
           225 MiB allocation reported by mallinfo(arena+hblkhd)
        659360 MiB available memory on the node where the printing process lives
------------------
     ethr =  7.65E-12,  avg # of iterations =  3.4

     =================== HUBBARD OCCUPATIONS ===================
     ------------------------ ATOM    1 ------------------------
     Tr[ns(  1)] (up, down, total) =   4.96694  3.26612  8.23306
     Atomic magnetic moment for atom   1 =   1.70081
     SPIN  1
     eigenvalues:
       0.989  0.989  0.996  0.996  0.997
     eigenvectors (columns):
      -0.000 -0.598  0.762  0.000  0.250
      -0.000 -0.749 -0.642 -0.000  0.164
      -0.606  0.000 -0.000  0.796  0.000
      -0.000 -0.285  0.089  0.000 -0.954
       0.796 -0.000 -0.000  0.606  0.000
     occupation matrix ns (before diag.):
       0.994 -0.003  0.000 -0.001  0.000
      -0.003  0.992 -0.000 -0.002  0.000
       0.000 -0.000  0.994 -0.000  0.004
      -0.001 -0.002 -0.000  0.996 -0.000
       0.000  0.000  0.004 -0.000  0.991
     SPIN  2
     eigenvalues:
       0.140  0.145  0.993  0.993  0.994
     eigenvectors (columns):
      -0.000 -0.532  0.846  0.000  0.025
      -0.000 -0.802 -0.513 -0.000  0.306
      -0.575  0.000 -0.000  0.818  0.000
      -0.000 -0.272 -0.142  0.000 -0.952
       0.818 -0.000 -0.000  0.575  0.000
     occupation matrix ns (before diag.):
       0.753 -0.362  0.000 -0.123  0.000
      -0.362  0.448 -0.000 -0.185  0.000
       0.000 -0.000  0.712 -0.000  0.401
      -0.123 -0.185 -0.000  0.932 -0.000
       0.000  0.000  0.401 -0.000  0.422
     ------------------------ ATOM    2 ------------------------
     Tr[ns(  2)] (up, down, total) =   4.96272  0.86409  5.82681
     Atomic magnetic moment for atom   2 =   4.09864
     SPIN  1
     eigenvalues:
       0.986  0.986  0.997  0.997  0.997
     eigenvectors (columns):
      -0.000  0.570 -0.655  0.496  0.000
      -0.000  0.769  0.637 -0.043 -0.000
      -0.598 -0.000  0.000 -0.000  0.802
      -0.000  0.288 -0.406 -0.867 -0.000
       0.802  0.000  0.000 -0.000  0.598
     occupation matrix ns (before diag.):
       0.993 -0.005  0.000 -0.002  0.000
      -0.005  0.990 -0.000 -0.002  0.000
       0.000 -0.000  0.993 -0.000  0.006
      -0.002 -0.002 -0.000  0.996 -0.000
       0.000  0.000  0.006 -0.000  0.990
     SPIN  2
     eigenvalues:
       0.048  0.052  0.060  0.336  0.368
     eigenvectors (columns):
      -0.000  0.840  0.248 -0.000  0.482
       0.000 -0.537  0.250 -0.000  0.806
       0.829  0.000  0.000 -0.559 -0.000
       0.000  0.079 -0.936 -0.000  0.344
       0.559  0.000  0.000  0.829  0.000
     occupation matrix ns (before diag.):
       0.126  0.123 -0.000  0.051  0.000
       0.123  0.258 -0.000  0.086  0.000
      -0.000 -0.000  0.138  0.000 -0.133
       0.051  0.086  0.000  0.096 -0.000
       0.000  0.000 -0.133 -0.000  0.246

     Number of occupied Hubbard levels =   14.0599

     HUBBARD ENERGY =    0.2607  (Ry)

     total cpu time spent up to now is      273.3 secs

     total energy              =   -1152.70042368 Ry
     estimated scf accuracy    <          2.6E-09 Ry

     total magnetization       =     6.00 Bohr mag/cell
     absolute magnetization    =     6.85 Bohr mag/cell

     iteration # 21     ecut=   120.00 Ry     beta= 0.70
     Davidson diagonalization with overlap

---- Real-time Memory Report at c_bands before calling an iterative solver
           259 MiB given to the printing process from OS
           225 MiB allocation reported by mallinfo(arena+hblkhd)
        661538 MiB available memory on the node where the printing process lives
------------------
     ethr =  2.41E-12,  avg # of iterations =  3.5

     =================== HUBBARD OCCUPATIONS ===================
     ------------------------ ATOM    1 ------------------------
     Tr[ns(  1)] (up, down, total) =   4.96694  3.26612  8.23306
     Atomic magnetic moment for atom   1 =   1.70081
     SPIN  1
     eigenvalues:
       0.989  0.989  0.996  0.996  0.997
     eigenvectors (columns):
      -0.000 -0.598  0.762  0.000  0.250
      -0.000 -0.749 -0.642 -0.000  0.164
      -0.605  0.000 -0.000  0.796  0.000
      -0.000 -0.285  0.089  0.000 -0.954
       0.796 -0.000 -0.000  0.605  0.000
     occupation matrix ns (before diag.):
       0.994 -0.003  0.000 -0.001  0.000
      -0.003  0.992 -0.000 -0.002  0.000
       0.000 -0.000  0.994 -0.000  0.004
      -0.001 -0.002 -0.000  0.996 -0.000
       0.000  0.000  0.004 -0.000  0.991
     SPIN  2
     eigenvalues:
       0.140  0.145  0.993  0.993  0.994
     eigenvectors (columns):
      -0.000 -0.532  0.847  0.000  0.025
      -0.000 -0.802 -0.513 -0.000  0.306
      -0.575  0.000 -0.000  0.818  0.000
      -0.000 -0.272 -0.142  0.000 -0.952
       0.818 -0.000 -0.000  0.575  0.000
     occupation matrix ns (before diag.):
       0.753 -0.362  0.000 -0.123  0.000
      -0.362  0.448 -0.000 -0.185  0.000
       0.000 -0.000  0.711 -0.000  0.401
      -0.123 -0.185 -0.000  0.932 -0.000
       0.000  0.000  0.401 -0.000  0.422
     ------------------------ ATOM    2 ------------------------
     Tr[ns(  2)] (up, down, total) =   4.96272  0.86408  5.82681
     Atomic magnetic moment for atom   2 =   4.09864
     SPIN  1
     eigenvalues:
       0.986  0.986  0.997  0.997  0.997
     eigenvectors (columns):
      -0.000  0.570 -0.654  0.497  0.000
      -0.000  0.769  0.637 -0.043 -0.000
      -0.598 -0.000  0.000 -0.000  0.802
      -0.000  0.288 -0.407 -0.867 -0.000
       0.802  0.000  0.000 -0.000  0.598
     occupation matrix ns (before diag.):
       0.993 -0.005  0.000 -0.002  0.000
      -0.005  0.990 -0.000 -0.002  0.000
       0.000 -0.000  0.993 -0.000  0.006
      -0.002 -0.002 -0.000  0.996 -0.000
       0.000  0.000  0.006 -0.000  0.990
     SPIN  2
     eigenvalues:
       0.048  0.052  0.060  0.336  0.368
     eigenvectors (columns):
      -0.000  0.840  0.249 -0.000  0.482
       0.000 -0.537  0.250 -0.000  0.806
       0.829  0.000  0.000 -0.559 -0.000
       0.000  0.081 -0.936 -0.000  0.344
       0.559  0.000  0.000  0.829  0.000
     occupation matrix ns (before diag.):
       0.126  0.123 -0.000  0.051  0.000
       0.123  0.258 -0.000  0.086  0.000
      -0.000 -0.000  0.138  0.000 -0.133
       0.051  0.086  0.000  0.096 -0.000
       0.000  0.000 -0.133 -0.000  0.246

     Number of occupied Hubbard levels =   14.0599

     HUBBARD ENERGY =    0.2607  (Ry)
 
     Magnetic moment per site  (integrated on atomic sphere of radius R)
     atom   1 (R=0.183)  charge= 15.3315  magn=  1.6723
     atom   2 (R=0.183)  charge= 12.9484  magn=  3.7807
     atom   3 (R=0.170)  charge=  7.8632  magn= -0.0760
     atom   4 (R=0.170)  charge=  7.8695  magn= -0.1103
     atom   5 (R=0.170)  charge=  5.1245  magn=  0.0726
     atom   6 (R=0.170)  charge=  5.1245  magn=  0.0726
     atom   7 (R=0.170)  charge=  5.1264  magn=  0.0722
     atom   8 (R=0.170)  charge=  5.1264  magn=  0.0722
     atom   9 (R=0.170)  charge=  5.1168  magn=  0.0546
     atom  10 (R=0.170)  charge=  5.1168  magn=  0.0546
     atom  11 (R=0.170)  charge=  5.0985  magn=  0.0272
     atom  12 (R=0.170)  charge=  5.0985  magn=  0.0272

     total cpu time spent up to now is      287.7 secs

     End of self-consistent calculation

 ------ SPIN UP ------------


          k = 0.0832 0.0668 0.0754 ( 17752 PWs)   bands (ev):

   -91.3801 -78.2331 -62.5486 -62.4430 -52.0290 -51.9876 -51.9471 -44.5552
   -44.4958 -44.4632 -26.9461 -26.9250 -26.8923 -26.8057 -26.7214 -26.6762
    -7.5303  -6.2882  -5.9821  -5.9112  -5.7662  -5.6739  -5.3201  -4.9899
     3.2947   3.3462   3.5779   3.7171   3.8005   4.2037   4.2389   4.5859
     5.2729   5.3510   5.7644   6.1938   6.4268   6.8235   6.9524   7.0162
     7.3475   7.6740   8.0407   8.2368   8.5223   8.5809   8.8387   9.2330
     9.3965   9.5207   9.9598  10.0324  10.1412  10.4883  10.6826  10.8682
    11.1005  11.3016  14.7836  15.0774  15.2658  15.5660  15.9425  16.0673
    18.6109  19.5124

     occupation numbers 
     1.0000   1.0000   1.0000   1.0000   1.0000   1.0000   1.0000   1.0000
     1.0000   1.0000   1.0000   1.0000   1.0000   1.0000   1.0000   1.0000
     1.0000   1.0000   1.0000   1.0000   1.0000   1.0000   1.0000   1.0000
     1.0000   1.0000   1.0000   1.0000   1.0000   1.0000   1.0000   1.0000
     1.0000   1.0000   1.0000   1.0000   1.0000   1.0000   1.0000   1.0000
     1.0000   1.0000   1.0000   1.0000   1.0000   1.0000   1.0000   1.0000
     1.0000   1.0000   1.0000   1.0000   1.0000   1.0000   1.0000   1.0000
     1.0000   1.0000   0.0005   0.0000   0.0000   0.0000   0.0000   0.0000
     0.0000   0.0000

          k = 0.0828 0.0668 0.2263 ( 17773 PWs)   bands (ev):

   -91.3801 -78.2332 -62.5484 -62.4432 -52.0289 -51.9875 -51.9471 -44.5552
   -44.4957 -44.4632 -26.9645 -26.9121 -26.8875 -26.8143 -26.7167 -26.6729
    -7.3219  -6.3058  -6.1486  -5.9821  -5.6921  -5.6121  -5.3666  -5.0792
     3.3405   3.4616   3.5561   3.6571   3.8111   4.1355   4.1739   4.6460
     5.2304   5.4576   5.7988   6.1550   6.3703   6.7719   6.9868   7.1944
     7.5511   7.7229   7.9707   8.2128   8.4095   8.6422   8.8702   9.1339
     9.2123   9.4973   9.7803   9.9342  10.0921  10.4702  10.7272  10.9924
    11.1290  11.4609  14.9098  14.9942  15.2390  15.4723  15.6521  15.9964
    19.1566  19.6325

     occupation numbers 
     1.0000   1.0000   1.0000   1.0000   1.0000   1.0000   1.0000   1.0000
     1.0000   1.0000   1.0000   1.0000   1.0000   1.0000   1.0000   1.0000
     1.0000   1.0000   1.0000   1.0000   1.0000   1.0000   1.0000   1.0000
     1.0000   1.0000   1.0000   1.0000   1.0000   1.0000   1.0000   1.0000
     1.0000   1.0000   1.0000   1.0000   1.0000   1.0000   1.0000   1.0000
     1.0000   1.0000   1.0000   1.0000   1.0000   1.0000   1.0000   1.0000
     1.0000   1.0000   1.0000   1.0000   1.0000   1.0000   1.0000   1.0000
     1.0000   1.0000   0.0000   0.0000   0.0000   0.0000   0.0000   0.0000
     0.0000   0.0000

          k = 0.0825 0.0668 0.3772 ( 17774 PWs)   bands (ev):

   -91.3802 -78.2332 -62.5482 -62.4434 -52.0289 -51.9875 -51.9471 -44.5552
   -44.4957 -44.4632 -26.9754 -26.9066 -26.8824 -26.8231 -26.7114 -26.6703
    -6.9508  -6.4937  -6.2983  -6.0941  -5.6709  -5.5293  -5.3635  -5.1416
     3.3616   3.4897   3.5606   3.6320   3.7606   4.1462   4.1660   4.6587
     5.2841   5.5256   5.7194   6.2220   6.3489   6.9104   7.0823   7.3094
     7.4151   7.6399   7.9449   8.0530   8.3246   8.5715   8.7606   8.9683
     9.3288   9.5969   9.6550  10.0290  10.2841  10.4365  10.7245  10.9200
    11.3702  11.5028  14.8514  14.9067  15.2463  15.4509  15.5923  15.8068
    19.3898  19.5557

     occupation numbers 
     1.0000   1.0000   1.0000   1.0000   1.0000   1.0000   1.0000   1.0000
     1.0000   1.0000   1.0000   1.0000   1.0000   1.0000   1.0000   1.0000
     1.0000   1.0000   1.0000   1.0000   1.0000   1.0000   1.0000   1.0000
     1.0000   1.0000   1.0000   1.0000   1.0000   1.0000   1.0000   1.0000
     1.0000   1.0000   1.0000   1.0000   1.0000   1.0000   1.0000   1.0000
     1.0000   1.0000   1.0000   1.0000   1.0000   1.0000   1.0000   1.0000
     1.0000   1.0000   1.0000   1.0000   1.0000   1.0000   1.0000   1.0000
     1.0000   1.0000   0.0001   0.0000   0.0000   0.0000   0.0000   0.0000
     0.0000   0.0000

          k = 0.0842 0.0668-0.3773 ( 17781 PWs)   bands (ev):

   -91.3802 -78.2332 -62.5482 -62.4433 -52.0289 -51.9875 -51.9471 -44.5552
   -44.4957 -44.4632 -26.9754 -26.9066 -26.8824 -26.8232 -26.7114 -26.6703
    -6.9285  -6.5238  -6.3098  -6.1169  -5.6055  -5.5453  -5.3803  -5.1240
     3.3354   3.5262   3.5371   3.6468   3.7389   4.1384   4.2487   4.6075
     5.3044   5.5350   5.6457   6.2023   6.5542   6.6414   7.0361   7.2218
     7.4192   7.7083   7.8089   8.0891   8.3993   8.5157   8.9404   9.0543
     9.3392   9.5307   9.8195   9.9408  10.3085  10.4629  10.7176  10.8738
    11.3507  11.5790  14.7978  14.9670  15.2162  15.4240  15.7013  15.8115
    19.2824  19.4657

     occupation numbers 
     1.0000   1.0000   1.0000   1.0000   1.0000   1.0000   1.0000   1.0000
     1.0000   1.0000   1.0000   1.0000   1.0000   1.0000   1.0000   1.0000
     1.0000   1.0000   1.0000   1.0000   1.0000   1.0000   1.0000   1.0000
     1.0000   1.0000   1.0000   1.0000   1.0000   1.0000   1.0000   1.0000
     1.0000   1.0000   1.0000   1.0000   1.0000   1.0000   1.0000   1.0000
     1.0000   1.0000   1.0000   1.0000   1.0000   1.0000   1.0000   1.0000
     1.0000   1.0000   1.0000   1.0000   1.0000   1.0000   1.0000   1.0000
     1.0000   1.0000   0.0004   0.0000   0.0000   0.0000   0.0000   0.0000
     0.0000   0.0000

          k = 0.0839 0.0668-0.2264 ( 17775 PWs)   bands (ev):

   -91.3801 -78.2332 -62.5484 -62.4431 -52.0289 -51.9875 -51.9471 -44.5552
   -44.4957 -44.4632 -26.9645 -26.9121 -26.8875 -26.8144 -26.7167 -26.6728
    -7.3071  -6.3236  -6.1943  -6.0467  -5.6244  -5.5333  -5.3826  -5.0804
     3.3148   3.4640   3.6096   3.6564   3.7321   4.1595   4.3031   4.5664
     5.2548   5.3948   5.7760   6.1185   6.5225   6.6616   6.8363   7.0324
     7.2570   7.8006   8.0759   8.2661   8.4955   8.7920   8.8707   9.0381
     9.3906   9.4395   9.7895  10.1855  10.3167  10.4420  10.5161  10.8790
    11.1599  11.5998  14.9193  14.9512  15.1504  15.4804  15.8954  15.9910
    19.1492  19.2825

     occupation numbers 
     1.0000   1.0000   1.0000   1.0000   1.0000   1.0000   1.0000   1.0000
     1.0000   1.0000   1.0000   1.0000   1.0000   1.0000   1.0000   1.0000
     1.0000   1.0000   1.0000   1.0000   1.0000   1.0000   1.0000   1.0000
     1.0000   1.0000   1.0000   1.0000   1.0000   1.0000   1.0000   1.0000
     1.0000   1.0000   1.0000   1.0000   1.0000   1.0000   1.0000   1.0000
     1.0000   1.0000   1.0000   1.0000   1.0000   1.0000   1.0000   1.0000
     1.0000   1.0000   1.0000   1.0000   1.0000   1.0000   1.0000   1.0000
     1.0000   1.0000   0.0000   0.0000   0.0000   0.0000   0.0000   0.0000
     0.0000   0.0000

          k = 0.0835 0.0668-0.0755 ( 17763 PWs)   bands (ev):

   -91.3801 -78.2331 -62.5486 -62.4429 -52.0290 -51.9876 -51.9471 -44.5552
   -44.4958 -44.4632 -26.9462 -26.9250 -26.8923 -26.8057 -26.7214 -26.6762
    -7.5251  -6.2876  -6.0586  -5.9362  -5.7364  -5.5863  -5.3264  -4.9975
     3.2913   3.3468   3.5989   3.7273   3.7514   4.1959   4.3200   4.5549
     5.2583   5.3270   5.7998   6.1662   6.4354   6.7005   6.8346   7.0712
     7.3047   7.7752   7.9863   8.2391   8.3898   8.7664   8.9497   9.0209
     9.3969   9.7551  10.0238  10.1263  10.1955  10.3439  10.6643  10.8505
    11.0308  11.4174  14.7517  15.1180  15.2042  15.5746  16.0495  16.0696
    18.5778  19.2918

     occupation numbers 
     1.0000   1.0000   1.0000   1.0000   1.0000   1.0000   1.0000   1.0000
     1.0000   1.0000   1.0000   1.0000   1.0000   1.0000   1.0000   1.0000
     1.0000   1.0000   1.0000   1.0000   1.0000   1.0000   1.0000   1.0000
     1.0000   1.0000   1.0000   1.0000   1.0000   1.0000   1.0000   1.0000
     1.0000   1.0000   1.0000   1.0000   1.0000   1.0000   1.0000   1.0000
     1.0000   1.0000   1.0000   1.0000   1.0000   1.0000   1.0000   1.0000
     1.0000   1.0000   1.0000   1.0000   1.0000   1.0000   1.0000   1.0000
     1.0000   1.0000   0.0009   0.0000   0.0000   0.0000   0.0000   0.0000
     0.0000   0.0000

          k = 0.0832 0.2004 0.0754 ( 17751 PWs)   bands (ev):

   -91.3801 -78.2331 -62.5486 -62.4429 -52.0290 -51.9876 -51.9471 -44.5552
   -44.4957 -44.4632 -26.9457 -26.9241 -26.8923 -26.8060 -26.7226 -26.6767
    -7.3823  -6.3822  -6.0760  -5.8982  -5.7746  -5.6689  -5.3412  -5.0045
     3.3519   3.4796   3.6233   3.7196   3.8175   4.2590   4.3426   4.7744
     5.2054   5.4813   5.8306   6.0063   6.3081   6.5654   6.6604   6.9270
     7.4377   7.7418   8.0399   8.1880   8.3696   8.4624   8.7957   9.0812
     9.4147   9.8895  10.0553  10.1005  10.2555  10.3405  10.6153  10.9032
    11.0572  11.4065  14.8965  14.9843  15.1618  15.6476  15.8394  16.1393
    19.1365  19.5246

     occupation numbers 
     1.0000   1.0000   1.0000   1.0000   1.0000   1.0000   1.0000   1.0000
     1.0000   1.0000   1.0000   1.0000   1.0000   1.0000   1.0000   1.0000
     1.0000   1.0000   1.0000   1.0000   1.0000   1.0000   1.0000   1.0000
     1.0000   1.0000   1.0000   1.0000   1.0000   1.0000   1.0000   1.0000
     1.0000   1.0000   1.0000   1.0000   1.0000   1.0000   1.0000   1.0000
     1.0000   1.0000   1.0000   1.0000   1.0000   1.0000   1.0000   1.0000
     1.0000   1.0000   1.0000   1.0000   1.0000   1.0000   1.0000   1.0000
     1.0000   1.0000   0.0000   0.0000   0.0000   0.0000   0.0000   0.0000
     0.0000   0.0000

          k = 0.0828 0.2004 0.2263 ( 17779 PWs)   bands (ev):

   -91.3801 -78.2332 -62.5484 -62.4432 -52.0289 -51.9875 -51.9471 -44.5552
   -44.4957 -44.4632 -26.9652 -26.9119 -26.8875 -26.8146 -26.7170 -26.6723
    -7.1869  -6.3880  -6.1172  -5.9514  -5.7875  -5.6419  -5.4057  -5.0982
     3.4075   3.5172   3.6325   3.6751   3.8135   4.2251   4.3315   4.8126
     5.1782   5.5381   5.8481   6.0692   6.2871   6.5388   6.8080   7.0556
     7.4270   7.5819   7.8853   8.0205   8.3875   8.6884   8.9512   9.0946
     9.4653   9.6453   9.8237   9.9231  10.3117  10.3665  10.7289  10.9442
    11.0013  11.5291  14.9011  15.0784  15.1234  15.4821  15.6390  16.0203
    19.4234  19.6608

     occupation numbers 
     1.0000   1.0000   1.0000   1.0000   1.0000   1.0000   1.0000   1.0000
     1.0000   1.0000   1.0000   1.0000   1.0000   1.0000   1.0000   1.0000
     1.0000   1.0000   1.0000   1.0000   1.0000   1.0000   1.0000   1.0000
     1.0000   1.0000   1.0000   1.0000   1.0000   1.0000   1.0000   1.0000
     1.0000   1.0000   1.0000   1.0000   1.0000   1.0000   1.0000   1.0000
     1.0000   1.0000   1.0000   1.0000   1.0000   1.0000   1.0000   1.0000
     1.0000   1.0000   1.0000   1.0000   1.0000   1.0000   1.0000   1.0000
     1.0000   1.0000   0.0000   0.0000   0.0000   0.0000   0.0000   0.0000
     0.0000   0.0000

          k = 0.0825 0.2004 0.3772 ( 17778 PWs)   bands (ev):

   -91.3802 -78.2332 -62.5482 -62.4433 -52.0289 -51.9875 -51.9471 -44.5552
   -44.4957 -44.4632 -26.9767 -26.9078 -26.8826 -26.8231 -26.7105 -26.6690
    -6.8446  -6.5071  -6.2170  -6.0642  -5.7929  -5.5710  -5.4216  -5.1972
     3.4294   3.5383   3.6197   3.6902   3.7781   4.2255   4.3176   4.8150
     5.2901   5.5229   5.7426   6.0452   6.3315   6.7264   6.8457   7.1902
     7.3828   7.5019   7.8215   8.0852   8.3223   8.6188   8.8294   9.1355
     9.2806   9.5194   9.5572  10.2176  10.3125  10.4949  10.6609  10.9353
    11.3144  11.5239  14.8491  14.9560  15.3218  15.4342  15.5367  15.7869
    19.3694  19.6565

     occupation numbers 
     1.0000   1.0000   1.0000   1.0000   1.0000   1.0000   1.0000   1.0000
     1.0000   1.0000   1.0000   1.0000   1.0000   1.0000   1.0000   1.0000
     1.0000   1.0000   1.0000   1.0000   1.0000   1.0000   1.0000   1.0000
     1.0000   1.0000   1.0000   1.0000   1.0000   1.0000   1.0000   1.0000
     1.0000   1.0000   1.0000   1.0000   1.0000   1.0000   1.0000   1.0000
     1.0000   1.0000   1.0000   1.0000   1.0000   1.0000   1.0000   1.0000
     1.0000   1.0000   1.0000   1.0000   1.0000   1.0000   1.0000   1.0000
     1.0000   1.0000   0.0001   0.0000   0.0000   0.0000   0.0000   0.0000
     0.0000   0.0000

          k = 0.0842 0.2004-0.3773 ( 17768 PWs)   bands (ev):

   -91.3802 -78.2332 -62.5481 -62.4433 -52.0289 -51.9875 -51.9471 -44.5552
   -44.4957 -44.4632 -26.9767 -26.9078 -26.8826 -26.8232 -26.7105 -26.6690
    -6.8394  -6.4928  -6.2720  -6.0793  -5.6986  -5.6164  -5.4265  -5.1832
     3.4254   3.5627   3.5789   3.7066   3.7872   4.1648   4.3855   4.7690
     5.3360   5.5323   5.6962   6.0279   6.3240   6.7323   6.8273   7.0671
     7.3472   7.6775   7.7746   8.1710   8.3321   8.5220   8.8140   9.0889
     9.3229   9.3971   9.7452  10.2106  10.4387  10.5190  10.5971  10.8751
    11.3662  11.5496  14.8699  14.9657  15.2913  15.5338  15.5755  15.7437
    19.3575  19.4722

     occupation numbers 
     1.0000   1.0000   1.0000   1.0000   1.0000   1.0000   1.0000   1.0000
     1.0000   1.0000   1.0000   1.0000   1.0000   1.0000   1.0000   1.0000
     1.0000   1.0000   1.0000   1.0000   1.0000   1.0000   1.0000   1.0000
     1.0000   1.0000   1.0000   1.0000   1.0000   1.0000   1.0000   1.0000
     1.0000   1.0000   1.0000   1.0000   1.0000   1.0000   1.0000   1.0000
     1.0000   1.0000   1.0000   1.0000   1.0000   1.0000   1.0000   1.0000
     1.0000   1.0000   1.0000   1.0000   1.0000   1.0000   1.0000   1.0000
     1.0000   1.0000   0.0001   0.0000   0.0000   0.0000   0.0000   0.0000
     0.0000   0.0000

          k = 0.0839 0.2004-0.2264 ( 17773 PWs)   bands (ev):

   -91.3801 -78.2332 -62.5483 -62.4431 -52.0289 -51.9875 -51.9471 -44.5552
   -44.4957 -44.4632 -26.9652 -26.9119 -26.8876 -26.8147 -26.7171 -26.6722
    -7.1783  -6.3954  -6.1874  -5.9996  -5.6755  -5.5745  -5.4557  -5.0960
     3.4056   3.5184   3.6173   3.7090   3.7932   4.1415   4.4399   4.7617
     5.2416   5.4944   5.7938   6.0163   6.2962   6.5439   6.7856   6.9586
     7.2549   7.7255   7.8987   8.1561   8.4097   8.6377   8.8688   9.2159
     9.3231   9.6411   9.8339  10.1219  10.2425  10.5143  10.6409  10.8498
    11.2044  11.5724  14.9595  15.0216  15.0742  15.6568  15.7595  15.9558
    19.2090  19.5206

     occupation numbers 
     1.0000   1.0000   1.0000   1.0000   1.0000   1.0000   1.0000   1.0000
     1.0000   1.0000   1.0000   1.0000   1.0000   1.0000   1.0000   1.0000
     1.0000   1.0000   1.0000   1.0000   1.0000   1.0000   1.0000   1.0000
     1.0000   1.0000   1.0000   1.0000   1.0000   1.0000   1.0000   1.0000
     1.0000   1.0000   1.0000   1.0000   1.0000   1.0000   1.0000   1.0000
     1.0000   1.0000   1.0000   1.0000   1.0000   1.0000   1.0000   1.0000
     1.0000   1.0000   1.0000   1.0000   1.0000   1.0000   1.0000   1.0000
     1.0000   1.0000   0.0000   0.0000   0.0000   0.0000   0.0000   0.0000
     0.0000   0.0000

          k = 0.0835 0.2004-0.0755 ( 17767 PWs)   bands (ev):

   -91.3801 -78.2331 -62.5486 -62.4429 -52.0290 -51.9876 -51.9471 -44.5552
   -44.4957 -44.4632 -26.9457 -26.9241 -26.8923 -26.8060 -26.7226 -26.6767
    -7.3787  -6.3857  -6.1300  -5.9117  -5.7448  -5.5999  -5.3599  -5.0102
     3.3534   3.4753   3.6230   3.7588   3.7781   4.1958   4.4290   4.7571
     5.2265   5.4443   5.8475   5.9276   6.3126   6.5647   6.6612   6.9388
     7.3476   7.7978   8.0599   8.1000   8.1914   8.6904   8.8562   9.2365
     9.4798   9.7109   9.9157  10.0029  10.2143  10.4562  10.7955  10.9193
    11.1012  11.4034  14.8787  14.9384  15.2156  15.6828  15.9340  16.1095
    19.0034  19.3515

     occupation numbers 
     1.0000   1.0000   1.0000   1.0000   1.0000   1.0000   1.0000   1.0000
     1.0000   1.0000   1.0000   1.0000   1.0000   1.0000   1.0000   1.0000
     1.0000   1.0000   1.0000   1.0000   1.0000   1.0000   1.0000   1.0000
     1.0000   1.0000   1.0000   1.0000   1.0000   1.0000   1.0000   1.0000
     1.0000   1.0000   1.0000   1.0000   1.0000   1.0000   1.0000   1.0000
     1.0000   1.0000   1.0000   1.0000   1.0000   1.0000   1.0000   1.0000
     1.0000   1.0000   1.0000   1.0000   1.0000   1.0000   1.0000   1.0000
     1.0000   1.0000   0.0001   0.0000   0.0000   0.0000   0.0000   0.0000
     0.0000   0.0000

          k = 0.0832 0.3340 0.0754 ( 17768 PWs)   bands (ev):

   -91.3801 -78.2331 -62.5485 -62.4429 -52.0290 -51.9876 -51.9471 -44.5553
   -44.4957 -44.4632 -26.9453 -26.9232 -26.8923 -26.8063 -26.7238 -26.6772
    -7.1272  -6.6845  -6.0217  -5.8874  -5.7831  -5.6929  -5.3782  -5.0183
     3.4439   3.5658   3.6798   3.7653   3.8243   4.3202   4.4753   4.9927
     5.1298   5.5775   5.7316   5.8671   6.1919   6.3537   6.5570   7.0216
     7.2699   7.6357   7.9297   8.1638   8.3332   8.5186   8.8529   9.0452
     9.2336   9.8648   9.9876  10.1532  10.3578  10.5379  10.6681  10.8668
    11.1663  11.4197  14.7814  15.1169  15.3170  15.5133  15.6512  16.2538
    19.2611  19.5667

     occupation numbers 
     1.0000   1.0000   1.0000   1.0000   1.0000   1.0000   1.0000   1.0000
     1.0000   1.0000   1.0000   1.0000   1.0000   1.0000   1.0000   1.0000
     1.0000   1.0000   1.0000   1.0000   1.0000   1.0000   1.0000   1.0000
     1.0000   1.0000   1.0000   1.0000   1.0000   1.0000   1.0000   1.0000
     1.0000   1.0000   1.0000   1.0000   1.0000   1.0000   1.0000   1.0000
     1.0000   1.0000   1.0000   1.0000   1.0000   1.0000   1.0000   1.0000
     1.0000   1.0000   1.0000   1.0000   1.0000   1.0000   1.0000   1.0000
     1.0000   1.0000   0.0005   0.0000   0.0000   0.0000   0.0000   0.0000
     0.0000   0.0000

          k = 0.0828 0.3340 0.2263 ( 17769 PWs)   bands (ev):

   -91.3801 -78.2332 -62.5484 -62.4431 -52.0289 -51.9875 -51.9471 -44.5552
   -44.4957 -44.4632 -26.9658 -26.9118 -26.8876 -26.8148 -26.7173 -26.6717
    -6.9581  -6.5981  -6.0600  -5.9658  -5.8034  -5.6462  -5.4958  -5.1172
     3.4869   3.5757   3.6911   3.7276   3.7969   4.3087   4.5318   4.9652
     5.2718   5.5240   5.7816   5.9653   6.0176   6.5391   6.8274   6.9901
     7.1480   7.4596   7.7670   8.0047   8.1773   8.5954   9.0366   9.2827
     9.4632   9.6469   9.7453  10.1993  10.3292  10.5089  10.7588  10.9054
    11.0423  11.4093  14.8942  15.0917  15.2400  15.3196  15.5861  16.1020
    19.1535  19.8158

     occupation numbers 
     1.0000   1.0000   1.0000   1.0000   1.0000   1.0000   1.0000   1.0000
     1.0000   1.0000   1.0000   1.0000   1.0000   1.0000   1.0000   1.0000
     1.0000   1.0000   1.0000   1.0000   1.0000   1.0000   1.0000   1.0000
     1.0000   1.0000   1.0000   1.0000   1.0000   1.0000   1.0000   1.0000
     1.0000   1.0000   1.0000   1.0000   1.0000   1.0000   1.0000   1.0000
     1.0000   1.0000   1.0000   1.0000   1.0000   1.0000   1.0000   1.0000
     1.0000   1.0000   1.0000   1.0000   1.0000   1.0000   1.0000   1.0000
     1.0000   1.0000   0.0000   0.0000   0.0000   0.0000   0.0000   0.0000
     0.0000   0.0000

          k = 0.0825 0.3340 0.3772 ( 17776 PWs)   bands (ev):

   -91.3802 -78.2332 -62.5481 -62.4433 -52.0289 -51.9875 -51.9471 -44.5552
   -44.4957 -44.4632 -26.9781 -26.9090 -26.8827 -26.8231 -26.7095 -26.6678
    -6.6924  -6.5282  -6.1512  -6.0422  -5.8680  -5.6856  -5.4794  -5.2409
     3.5207   3.5874   3.6651   3.7483   3.7858   4.3149   4.4638   5.0518
     5.2669   5.5850   5.7161   5.9716   6.1197   6.3942   6.7455   7.2617
     7.3673   7.6043   7.7490   7.8471   8.2112   8.4283   8.9121   9.0742
     9.1984   9.4329  10.0369  10.1506  10.3801  10.5566  10.8399  10.9373
    11.2236  11.4044  14.8770  14.9886  15.3237  15.3998  15.4816  15.8476
    19.1417  19.7843

     occupation numbers 
     1.0000   1.0000   1.0000   1.0000   1.0000   1.0000   1.0000   1.0000
     1.0000   1.0000   1.0000   1.0000   1.0000   1.0000   1.0000   1.0000
     1.0000   1.0000   1.0000   1.0000   1.0000   1.0000   1.0000   1.0000
     1.0000   1.0000   1.0000   1.0000   1.0000   1.0000   1.0000   1.0000
     1.0000   1.0000   1.0000   1.0000   1.0000   1.0000   1.0000   1.0000
     1.0000   1.0000   1.0000   1.0000   1.0000   1.0000   1.0000   1.0000
     1.0000   1.0000   1.0000   1.0000   1.0000   1.0000   1.0000   1.0000
     1.0000   1.0000   0.0001   0.0000   0.0000   0.0000   0.0000   0.0000
     0.0000   0.0000

          k = 0.0842 0.3340-0.3773 ( 17774 PWs)   bands (ev):

   -91.3802 -78.2332 -62.5481 -62.4433 -52.0289 -51.9875 -51.9471 -44.5552
   -44.4957 -44.4632 -26.9780 -26.9090 -26.8828 -26.8232 -26.7095 -26.6677
    -6.7008  -6.5442  -6.1315  -5.9950  -5.8740  -5.7583  -5.4382  -5.2394
     3.5347   3.5913   3.6420   3.7596   3.7981   4.2830   4.4305   5.0160
     5.2638   5.5597   5.6967   5.9316   6.1948   6.6253   6.9328   6.9619
     7.3262   7.5282   7.6908   7.9350   8.1341   8.4958   8.8386   9.0771
     9.2732   9.4418  10.0053  10.2601  10.3890  10.4503  10.7795  11.0479
    11.1943  11.4863  14.9596  15.0480  15.2807  15.3642  15.6545  15.7329
    19.2530  19.5178

     occupation numbers 
     1.0000   1.0000   1.0000   1.0000   1.0000   1.0000   1.0000   1.0000
     1.0000   1.0000   1.0000   1.0000   1.0000   1.0000   1.0000   1.0000
     1.0000   1.0000   1.0000   1.0000   1.0000   1.0000   1.0000   1.0000
     1.0000   1.0000   1.0000   1.0000   1.0000   1.0000   1.0000   1.0000
     1.0000   1.0000   1.0000   1.0000   1.0000   1.0000   1.0000   1.0000
     1.0000   1.0000   1.0000   1.0000   1.0000   1.0000   1.0000   1.0000
     1.0000   1.0000   1.0000   1.0000   1.0000   1.0000   1.0000   1.0000
     1.0000   1.0000   0.0000   0.0000   0.0000   0.0000   0.0000   0.0000
     0.0000   0.0000

          k = 0.0839 0.3340-0.2264 ( 17773 PWs)   bands (ev):

   -91.3801 -78.2332 -62.5483 -62.4431 -52.0289 -51.9875 -51.9471 -44.5552
   -44.4957 -44.4632 -26.9658 -26.9118 -26.8878 -26.8149 -26.7174 -26.6717
    -6.9558  -6.6301  -6.0653  -5.9453  -5.7933  -5.6036  -5.5218  -5.1165
     3.5161   3.5605   3.6655   3.7487   3.8164   4.2287   4.4936   4.9767
     5.1731   5.5423   5.7470   5.9765   6.2545   6.4020   6.8979   6.9849
     7.3237   7.4250   7.5602   8.0369   8.2036   8.3541   8.8917   9.4548
     9.5240   9.7201  10.0098  10.1106  10.1551  10.4255  10.7187  10.9064
    11.2468  11.4930  14.8737  15.2023  15.2213  15.4798  15.6792  16.0155
    19.2723  19.4888

     occupation numbers 
     1.0000   1.0000   1.0000   1.0000   1.0000   1.0000   1.0000   1.0000
     1.0000   1.0000   1.0000   1.0000   1.0000   1.0000   1.0000   1.0000
     1.0000   1.0000   1.0000   1.0000   1.0000   1.0000   1.0000   1.0000
     1.0000   1.0000   1.0000   1.0000   1.0000   1.0000   1.0000   1.0000
     1.0000   1.0000   1.0000   1.0000   1.0000   1.0000   1.0000   1.0000
     1.0000   1.0000   1.0000   1.0000   1.0000   1.0000   1.0000   1.0000
     1.0000   1.0000   1.0000   1.0000   1.0000   1.0000   1.0000   1.0000
     1.0000   1.0000   0.0001   0.0000   0.0000   0.0000   0.0000   0.0000
     0.0000   0.0000

          k = 0.0835 0.3340-0.0755 ( 17783 PWs)   bands (ev):

   -91.3801 -78.2331 -62.5485 -62.4428 -52.0290 -51.9876 -51.9471 -44.5553
   -44.4957 -44.4632 -26.9453 -26.9233 -26.8923 -26.8063 -26.7238 -26.6772
    -7.1250  -6.6960  -6.0570  -5.8843  -5.7501  -5.6549  -5.3964  -5.0232
     3.4520   3.5579   3.6704   3.7804   3.8379   4.2440   4.4971   5.0024
     5.1273   5.5442   5.6839   5.9269   6.1801   6.3390   6.6391   7.0076
     7.2642   7.7171   7.9002   8.0442   8.2163   8.5714   8.8483   9.0182
     9.4449   9.8866  10.0044  10.0600  10.2057  10.5106  10.7804  10.9701
    11.0981  11.5142  14.7404  15.0931  15.4118  15.5819  15.7008  16.2225
    19.2566  19.4872

     occupation numbers 
     1.0000   1.0000   1.0000   1.0000   1.0000   1.0000   1.0000   1.0000
     1.0000   1.0000   1.0000   1.0000   1.0000   1.0000   1.0000   1.0000
     1.0000   1.0000   1.0000   1.0000   1.0000   1.0000   1.0000   1.0000
     1.0000   1.0000   1.0000   1.0000   1.0000   1.0000   1.0000   1.0000
     1.0000   1.0000   1.0000   1.0000   1.0000   1.0000   1.0000   1.0000
     1.0000   1.0000   1.0000   1.0000   1.0000   1.0000   1.0000   1.0000
     1.0000   1.0000   1.0000   1.0000   1.0000   1.0000   1.0000   1.0000
     1.0000   1.0000   0.0011   0.0000   0.0000   0.0000   0.0000   0.0000
     0.0000   0.0000

          k = 0.2498 0.0668 0.0753 ( 17763 PWs)   bands (ev):

   -91.3801 -78.2331 -62.5486 -62.4430 -52.0290 -51.9876 -51.9472 -44.5553
   -44.4957 -44.4632 -26.9461 -26.9251 -26.8945 -26.8075 -26.7212 -26.6760
    -7.3239  -6.2930  -6.0436  -5.8915  -5.8568  -5.6621  -5.3861  -5.1069
     3.3421   3.4592   3.6116   3.7422   3.8856   4.2096   4.3125   4.7871
     5.1440   5.4772   5.7653   6.0449   6.2426   6.6595   6.9335   7.1779
     7.4364   7.5210   7.7787   7.9527   8.4713   8.6475   8.9929   9.3095
     9.4784   9.5286   9.9382  10.1420  10.2569  10.4906  10.7994  10.8641
    11.1386  11.2843  14.8796  15.0005  15.2427  15.5157  15.7062  16.1046
    19.3166  19.5768

     occupation numbers 
     1.0000   1.0000   1.0000   1.0000   1.0000   1.0000   1.0000   1.0000
     1.0000   1.0000   1.0000   1.0000   1.0000   1.0000   1.0000   1.0000
     1.0000   1.0000   1.0000   1.0000   1.0000   1.0000   1.0000   1.0000
     1.0000   1.0000   1.0000   1.0000   1.0000   1.0000   1.0000   1.0000
     1.0000   1.0000   1.0000   1.0000   1.0000   1.0000   1.0000   1.0000
     1.0000   1.0000   1.0000   1.0000   1.0000   1.0000   1.0000   1.0000
     1.0000   1.0000   1.0000   1.0000   1.0000   1.0000   1.0000   1.0000
     1.0000   1.0000   0.0001   0.0000   0.0000   0.0000   0.0000   0.0000
     0.0000   0.0000

          k = 0.2495 0.0668 0.2262 ( 17769 PWs)   bands (ev):

   -91.3801 -78.2332 -62.5485 -62.4433 -52.0289 -51.9875 -51.9472 -44.5552
   -44.4957 -44.4632 -26.9645 -26.9121 -26.8895 -26.8160 -26.7167 -26.6727
    -7.1438  -6.2887  -6.0770  -5.9113  -5.8482  -5.7528  -5.4159  -5.1624
     3.4144   3.5402   3.6013   3.7336   3.8431   4.1347   4.2724   4.8495
     5.1503   5.4620   5.7638   6.0200   6.4839   6.6844   6.9091   7.0574
     7.2172   7.5515   7.8200   7.9747   8.3456   8.8767   8.9978   9.3143
     9.4437   9.7078   9.9355  10.0186  10.1861  10.3662  10.6880  10.7935
    11.2809  11.3882  14.9359  15.0991  15.2078  15.4161  15.5186  16.0184
    19.4815  19.7918

     occupation numbers 
     1.0000   1.0000   1.0000   1.0000   1.0000   1.0000   1.0000   1.0000
     1.0000   1.0000   1.0000   1.0000   1.0000   1.0000   1.0000   1.0000
     1.0000   1.0000   1.0000   1.0000   1.0000   1.0000   1.0000   1.0000
     1.0000   1.0000   1.0000   1.0000   1.0000   1.0000   1.0000   1.0000
     1.0000   1.0000   1.0000   1.0000   1.0000   1.0000   1.0000   1.0000
     1.0000   1.0000   1.0000   1.0000   1.0000   1.0000   1.0000   1.0000
     1.0000   1.0000   1.0000   1.0000   1.0000   1.0000   1.0000   1.0000
     1.0000   1.0000   0.0000   0.0000   0.0000   0.0000   0.0000   0.0000
     0.0000   0.0000

          k = 0.2491 0.0668 0.3771 ( 17767 PWs)   bands (ev):

   -91.3802 -78.2332 -62.5483 -62.4436 -52.0289 -51.9875 -51.9472 -44.5552
   -44.4957 -44.4632 -26.9755 -26.9066 -26.8843 -26.8247 -26.7113 -26.6702
    -6.8174  -6.3885  -6.2410  -6.0435  -5.8508  -5.6640  -5.4271  -5.1854
     3.4514   3.5592   3.6325   3.7308   3.7994   4.1319   4.3242   4.7711
     5.2319   5.4572   5.6800   6.0298   6.1794   6.7525   6.9199   7.0437
     7.4168   7.5438   7.8731   8.1064   8.3460   8.5131   8.6888   9.2762
     9.4762   9.8733  10.0590  10.1999  10.2426  10.3759  10.7523  10.8219
    11.3024  11.4634  14.8742  14.9929  15.1867  15.5273  15.6123  15.8402
    19.2401  19.5194

     occupation numbers 
     1.0000   1.0000   1.0000   1.0000   1.0000   1.0000   1.0000   1.0000
     1.0000   1.0000   1.0000   1.0000   1.0000   1.0000   1.0000   1.0000
     1.0000   1.0000   1.0000   1.0000   1.0000   1.0000   1.0000   1.0000
     1.0000   1.0000   1.0000   1.0000   1.0000   1.0000   1.0000   1.0000
     1.0000   1.0000   1.0000   1.0000   1.0000   1.0000   1.0000   1.0000
     1.0000   1.0000   1.0000   1.0000   1.0000   1.0000   1.0000   1.0000
     1.0000   1.0000   1.0000   1.0000   1.0000   1.0000   1.0000   1.0000
     1.0000   1.0000   0.0001   0.0000   0.0000   0.0000   0.0000   0.0000
     0.0000   0.0000

          k = 0.2509 0.0668-0.3773 ( 17759 PWs)   bands (ev):

   -91.3802 -78.2332 -62.5482 -62.4435 -52.0289 -51.9875 -51.9472 -44.5552
   -44.4957 -44.4632 -26.9755 -26.9066 -26.8843 -26.8250 -26.7113 -26.6701
    -6.7587  -6.4554  -6.2824  -6.1038  -5.7798  -5.6261  -5.4441  -5.1512
     3.3901   3.5608   3.6641   3.7462   3.7921   4.1808   4.4271   4.6677
     5.2828   5.4209   5.6346   6.0236   6.0915   6.5364   6.8883   7.0593
     7.2467   7.6004   7.9201   8.0867   8.4548   8.5540   8.9814   9.2226
     9.4509   9.8868   9.9491  10.1741  10.3120  10.5543  10.7401  10.8812
    11.2333  11.5602  14.8328  15.0059  15.2304  15.4479  15.8028  15.8529
    18.9674  19.2868

     occupation numbers 
     1.0000   1.0000   1.0000   1.0000   1.0000   1.0000   1.0000   1.0000
     1.0000   1.0000   1.0000   1.0000   1.0000   1.0000   1.0000   1.0000
     1.0000   1.0000   1.0000   1.0000   1.0000   1.0000   1.0000   1.0000
     1.0000   1.0000   1.0000   1.0000   1.0000   1.0000   1.0000   1.0000
     1.0000   1.0000   1.0000   1.0000   1.0000   1.0000   1.0000   1.0000
     1.0000   1.0000   1.0000   1.0000   1.0000   1.0000   1.0000   1.0000
     1.0000   1.0000   1.0000   1.0000   1.0000   1.0000   1.0000   1.0000
     1.0000   1.0000   0.0002   0.0000   0.0000   0.0000   0.0000   0.0000
     0.0000   0.0000

          k = 0.2505 0.0668-0.2265 ( 17769 PWs)   bands (ev):

   -91.3801 -78.2331 -62.5484 -62.4431 -52.0289 -51.9875 -51.9472 -44.5553
   -44.4957 -44.4632 -26.9646 -26.9122 -26.8896 -26.8163 -26.7167 -26.6726
    -7.1016  -6.3267  -6.2240  -6.0676  -5.6868  -5.5588  -5.4633  -5.1391
     3.3352   3.5452   3.6726   3.7090   3.8392   4.2240   4.4174   4.6622
     5.3069   5.3852   5.7754   6.0013   6.2451   6.3346   6.6797   6.8605
     7.1287   7.4108   8.2779   8.3861   8.6167   8.8114   8.9788   9.1971
     9.3328   9.6900   9.9987  10.1245  10.3317  10.4556  10.8092  10.8895
    11.1617  11.5515  14.9283  15.0086  15.0608  15.4608  15.9758  16.0256
    18.9134  19.3334

     occupation numbers 
     1.0000   1.0000   1.0000   1.0000   1.0000   1.0000   1.0000   1.0000
     1.0000   1.0000   1.0000   1.0000   1.0000   1.0000   1.0000   1.0000
     1.0000   1.0000   1.0000   1.0000   1.0000   1.0000   1.0000   1.0000
     1.0000   1.0000   1.0000   1.0000   1.0000   1.0000   1.0000   1.0000
     1.0000   1.0000   1.0000   1.0000   1.0000   1.0000   1.0000   1.0000
     1.0000   1.0000   1.0000   1.0000   1.0000   1.0000   1.0000   1.0000
     1.0000   1.0000   1.0000   1.0000   1.0000   1.0000   1.0000   1.0000
     1.0000   1.0000   0.0000   0.0000   0.0000   0.0000   0.0000   0.0000
     0.0000   0.0000

          k = 0.2502 0.0668-0.0756 ( 17754 PWs)   bands (ev):

   -91.3801 -78.2331 -62.5486 -62.4429 -52.0290 -51.9876 -51.9472 -44.5553
   -44.4957 -44.4632 -26.9463 -26.9251 -26.8945 -26.8076 -26.7212 -26.6760
    -7.3086  -6.2941  -6.1559  -6.0060  -5.7114  -5.5337  -5.4243  -5.1141
     3.3130   3.4737   3.6375   3.7131   3.8967   4.2517   4.3729   4.6923
     5.2035   5.4632   5.8034   5.9689   6.2971   6.4191   6.7592   6.9036
     7.3147   7.6067   8.0218   8.2088   8.5335   8.8477   8.9667   9.1440
     9.3635   9.4906  10.0527  10.2393  10.3566  10.5694  10.6630  10.9726
    11.1016  11.3723  14.8101  15.0337  15.1351  15.5146  15.9812  16.1044
    19.1359  19.2922

     occupation numbers 
     1.0000   1.0000   1.0000   1.0000   1.0000   1.0000   1.0000   1.0000
     1.0000   1.0000   1.0000   1.0000   1.0000   1.0000   1.0000   1.0000
     1.0000   1.0000   1.0000   1.0000   1.0000   1.0000   1.0000   1.0000
     1.0000   1.0000   1.0000   1.0000   1.0000   1.0000   1.0000   1.0000
     1.0000   1.0000   1.0000   1.0000   1.0000   1.0000   1.0000   1.0000
     1.0000   1.0000   1.0000   1.0000   1.0000   1.0000   1.0000   1.0000
     1.0000   1.0000   1.0000   1.0000   1.0000   1.0000   1.0000   1.0000
     1.0000   1.0000   0.0003   0.0000   0.0000   0.0000   0.0000   0.0000
     0.0000   0.0000

          k = 0.2498 0.2004 0.0753 ( 17761 PWs)   bands (ev):

   -91.3801 -78.2331 -62.5487 -62.4430 -52.0290 -51.9876 -51.9472 -44.5553
   -44.4957 -44.4632 -26.9455 -26.9240 -26.8943 -26.8078 -26.7224 -26.6766
    -7.2076  -6.4156  -6.1123  -5.9153  -5.8619  -5.6309  -5.3566  -5.0766
     3.3025   3.5301   3.6224   3.7128   3.8606   4.1959   4.3911   4.9258
     5.1065   5.5245   5.7618   6.0415   6.2901   6.5968   6.8655   7.0913
     7.4222   7.6025   7.8054   8.1153   8.3288   8.7761   8.8619   9.1432
     9.4617   9.5156   9.8673  10.2014  10.2932  10.5055  10.7072  10.8396
    11.0427  11.2699  14.9487  15.0355  15.1443  15.5697  15.7435  16.1242
    19.5343  19.5725

     occupation numbers 
     1.0000   1.0000   1.0000   1.0000   1.0000   1.0000   1.0000   1.0000
     1.0000   1.0000   1.0000   1.0000   1.0000   1.0000   1.0000   1.0000
     1.0000   1.0000   1.0000   1.0000   1.0000   1.0000   1.0000   1.0000
     1.0000   1.0000   1.0000   1.0000   1.0000   1.0000   1.0000   1.0000
     1.0000   1.0000   1.0000   1.0000   1.0000   1.0000   1.0000   1.0000
     1.0000   1.0000   1.0000   1.0000   1.0000   1.0000   1.0000   1.0000
     1.0000   1.0000   1.0000   1.0000   1.0000   1.0000   1.0000   1.0000
     1.0000   1.0000   0.0000   0.0000   0.0000   0.0000   0.0000   0.0000
     0.0000   0.0000

          k = 0.2495 0.2004 0.2262 ( 17772 PWs)   bands (ev):

   -91.3801 -78.2332 -62.5486 -62.4433 -52.0289 -51.9875 -51.9472 -44.5552
   -44.4957 -44.4632 -26.9650 -26.9117 -26.8894 -26.8163 -26.7170 -26.6721
    -7.0400  -6.4023  -6.0616  -5.9891  -5.8730  -5.7216  -5.3818  -5.1420
     3.3520   3.5628   3.6252   3.7323   3.8212   4.1552   4.4264   4.9042
     5.1726   5.4716   5.7816   5.9813   6.3621   6.7403   6.8072   6.9777
     7.1749   7.5346   7.9516   8.1283   8.6627   8.7649   8.8995   9.1288
     9.4816   9.5500   9.7719   9.9820  10.3105  10.4015  10.7055  10.8595
    11.1350  11.2785  14.8960  15.1088  15.2057  15.3680  15.6428  16.0286
    19.4934  19.6830

     occupation numbers 
     1.0000   1.0000   1.0000   1.0000   1.0000   1.0000   1.0000   1.0000
     1.0000   1.0000   1.0000   1.0000   1.0000   1.0000   1.0000   1.0000
     1.0000   1.0000   1.0000   1.0000   1.0000   1.0000   1.0000   1.0000
     1.0000   1.0000   1.0000   1.0000   1.0000   1.0000   1.0000   1.0000
     1.0000   1.0000   1.0000   1.0000   1.0000   1.0000   1.0000   1.0000
     1.0000   1.0000   1.0000   1.0000   1.0000   1.0000   1.0000   1.0000
     1.0000   1.0000   1.0000   1.0000   1.0000   1.0000   1.0000   1.0000
     1.0000   1.0000   0.0000   0.0000   0.0000   0.0000   0.0000   0.0000
     0.0000   0.0000

          k = 0.2491 0.2004 0.3771 ( 17779 PWs)   bands (ev):

   -91.3802 -78.2332 -62.5484 -62.4436 -52.0289 -51.9875 -51.9472 -44.5552
   -44.4957 -44.4632 -26.9766 -26.9077 -26.8843 -26.8247 -26.7104 -26.6689
    -6.7419  -6.4609  -6.2270  -6.0420  -5.8897  -5.6383  -5.4205  -5.2099
     3.3945   3.5433   3.6429   3.7609   3.7980   4.1378   4.4948   4.8670
     5.1846   5.4675   5.6694   5.9446   6.1782   6.5525   6.9018   7.0391
     7.6111   7.7661   7.8845   7.9703   8.5365   8.6506   8.9514   8.9926
     9.2046   9.6157   9.7697  10.1502  10.3036  10.5256  10.8025  10.9184
    11.1826  11.3488  14.8663  14.9358  15.3443  15.4921  15.6145  15.8419
    19.2195  19.6268

     occupation numbers 
     1.0000   1.0000   1.0000   1.0000   1.0000   1.0000   1.0000   1.0000
     1.0000   1.0000   1.0000   1.0000   1.0000   1.0000   1.0000   1.0000
     1.0000   1.0000   1.0000   1.0000   1.0000   1.0000   1.0000   1.0000
     1.0000   1.0000   1.0000   1.0000   1.0000   1.0000   1.0000   1.0000
     1.0000   1.0000   1.0000   1.0000   1.0000   1.0000   1.0000   1.0000
     1.0000   1.0000   1.0000   1.0000   1.0000   1.0000   1.0000   1.0000
     1.0000   1.0000   1.0000   1.0000   1.0000   1.0000   1.0000   1.0000
     1.0000   1.0000   0.0001   0.0000   0.0000   0.0000   0.0000   0.0000
     0.0000   0.0000

          k = 0.2509 0.2004-0.3773 ( 17774 PWs)   bands (ev):

   -91.3802 -78.2332 -62.5483 -62.4435 -52.0289 -51.9875 -51.9472 -44.5552
   -44.4957 -44.4632 -26.9766 -26.9076 -26.8844 -26.8249 -26.7105 -26.6688
    -6.7305  -6.4126  -6.3518  -6.0336  -5.8645  -5.5960  -5.4441  -5.1826
     3.3846   3.5569   3.6215   3.7761   3.8093   4.1258   4.4932   4.8175
     5.2045   5.4901   5.6213   5.8978   6.1975   6.4667   6.9939   7.0834
     7.3674   7.6199   8.0805   8.1127   8.4822   8.5764   8.9386   9.0525
     9.2738   9.5493   9.8435  10.2311  10.2991  10.3994  10.8226  11.0163
    11.1498  11.5159  14.9093  14.9525  15.3829  15.4945  15.7000  15.8450
    19.0282  19.4513

     occupation numbers 
     1.0000   1.0000   1.0000   1.0000   1.0000   1.0000   1.0000   1.0000
     1.0000   1.0000   1.0000   1.0000   1.0000   1.0000   1.0000   1.0000
     1.0000   1.0000   1.0000   1.0000   1.0000   1.0000   1.0000   1.0000
     1.0000   1.0000   1.0000   1.0000   1.0000   1.0000   1.0000   1.0000
     1.0000   1.0000   1.0000   1.0000   1.0000   1.0000   1.0000   1.0000
     1.0000   1.0000   1.0000   1.0000   1.0000   1.0000   1.0000   1.0000
     1.0000   1.0000   1.0000   1.0000   1.0000   1.0000   1.0000   1.0000
     1.0000   1.0000   0.0000   0.0000   0.0000   0.0000   0.0000   0.0000
     0.0000   0.0000

          k = 0.2505 0.2004-0.2265 ( 17770 PWs)   bands (ev):

   -91.3801 -78.2332 -62.5484 -62.4432 -52.0289 -51.9875 -51.9472 -44.5553
   -44.4957 -44.4632 -26.9650 -26.9118 -26.8896 -26.8165 -26.7171 -26.6720
    -7.0160  -6.4319  -6.2248  -6.0255  -5.7449  -5.5633  -5.4453  -5.1311
     3.3363   3.5655   3.6378   3.7540   3.7990   4.1491   4.4456   4.8143
     5.2156   5.4526   5.7239   6.0036   6.3383   6.4649   6.7382   6.8554
     7.1819   7.8589   7.9978   8.1177   8.5036   8.7457   9.0080   9.1429
     9.4088   9.5942   9.7648  10.1034  10.1794  10.5159  10.7268  11.0513
    11.1571  11.4789  14.8753  15.1040  15.1516  15.6437  15.8585  15.9883
    19.0367  19.4236

     occupation numbers 
     1.0000   1.0000   1.0000   1.0000   1.0000   1.0000   1.0000   1.0000
     1.0000   1.0000   1.0000   1.0000   1.0000   1.0000   1.0000   1.0000
     1.0000   1.0000   1.0000   1.0000   1.0000   1.0000   1.0000   1.0000
     1.0000   1.0000   1.0000   1.0000   1.0000   1.0000   1.0000   1.0000
     1.0000   1.0000   1.0000   1.0000   1.0000   1.0000   1.0000   1.0000
     1.0000   1.0000   1.0000   1.0000   1.0000   1.0000   1.0000   1.0000
     1.0000   1.0000   1.0000   1.0000   1.0000   1.0000   1.0000   1.0000
     1.0000   1.0000   0.0001   0.0000   0.0000   0.0000   0.0000   0.0000
     0.0000   0.0000

          k = 0.2502 0.2004-0.0756 ( 17762 PWs)   bands (ev):

   -91.3801 -78.2331 -62.5486 -62.4429 -52.0290 -51.9876 -51.9472 -44.5553
   -44.4957 -44.4632 -26.9456 -26.9241 -26.8944 -26.8078 -26.7224 -26.6767
    -7.1971  -6.4273  -6.1966  -5.9888  -5.7162  -5.5631  -5.3839  -5.0900
     3.2957   3.5147   3.6662   3.7031   3.8503   4.1836   4.4246   4.8789
     5.1338   5.4711   5.7032   6.1316   6.2867   6.4716   6.8597   7.0385
     7.2677   7.4863   8.0542   8.2197   8.5580   8.6326   8.8127   9.0646
     9.3679   9.7020   9.8965  10.0603  10.2592  10.5651  10.7302  10.9896
    11.1091  11.3184  14.8900  14.9365  15.2389  15.7108  15.8721  16.0992
    19.2123  19.4776

     occupation numbers 
     1.0000   1.0000   1.0000   1.0000   1.0000   1.0000   1.0000   1.0000
     1.0000   1.0000   1.0000   1.0000   1.0000   1.0000   1.0000   1.0000
     1.0000   1.0000   1.0000   1.0000   1.0000   1.0000   1.0000   1.0000
     1.0000   1.0000   1.0000   1.0000   1.0000   1.0000   1.0000   1.0000
     1.0000   1.0000   1.0000   1.0000   1.0000   1.0000   1.0000   1.0000
     1.0000   1.0000   1.0000   1.0000   1.0000   1.0000   1.0000   1.0000
     1.0000   1.0000   1.0000   1.0000   1.0000   1.0000   1.0000   1.0000
     1.0000   1.0000   0.0001   0.0000   0.0000   0.0000   0.0000   0.0000
     0.0000   0.0000

          k = 0.2498 0.3340 0.0753 ( 17755 PWs)   bands (ev):

   -91.3801 -78.2331 -62.5488 -62.4430 -52.0290 -51.9876 -51.9472 -44.5553
   -44.4957 -44.4632 -26.9449 -26.9229 -26.8941 -26.8081 -26.7235 -26.6772
    -7.0108  -6.6549  -6.0998  -5.9770  -5.8622  -5.5946  -5.3412  -5.0496
     3.3297   3.5332   3.6370   3.7042   3.8329   4.2511   4.3893   4.8315
     5.2356   5.6004   5.7739   6.2134   6.3129   6.5546   6.6333   6.9763
     7.4783   7.7428   7.9261   8.1650   8.2873   8.5640   8.8901   9.0696
     9.2315   9.4893   9.9203  10.1920  10.3705  10.5259  10.7165  10.7979
    10.9489  11.2192  14.9117  15.1519  15.2429  15.4176  15.8020  16.1467
    19.4969  19.6187

     occupation numbers 
     1.0000   1.0000   1.0000   1.0000   1.0000   1.0000   1.0000   1.0000
     1.0000   1.0000   1.0000   1.0000   1.0000   1.0000   1.0000   1.0000
     1.0000   1.0000   1.0000   1.0000   1.0000   1.0000   1.0000   1.0000
     1.0000   1.0000   1.0000   1.0000   1.0000   1.0000   1.0000   1.0000
     1.0000   1.0000   1.0000   1.0000   1.0000   1.0000   1.0000   1.0000
     1.0000   1.0000   1.0000   1.0000   1.0000   1.0000   1.0000   1.0000
     1.0000   1.0000   1.0000   1.0000   1.0000   1.0000   1.0000   1.0000
     1.0000   1.0000   0.0000   0.0000   0.0000   0.0000   0.0000   0.0000
     0.0000   0.0000

          k = 0.2495 0.3340 0.2262 ( 17772 PWs)   bands (ev):

   -91.3801 -78.2332 -62.5486 -62.4433 -52.0289 -51.9875 -51.9472 -44.5552
   -44.4957 -44.4632 -26.9654 -26.9115 -26.8893 -26.8165 -26.7173 -26.6715
    -6.8698  -6.5694  -6.1208  -6.0288  -5.8757  -5.6575  -5.3750  -5.1259
     3.3463   3.5694   3.6312   3.7117   3.8286   4.2554   4.4294   4.8510
     5.3958   5.4491   5.7275   5.9156   6.4291   6.5783   6.8407   6.9967
     7.1624   7.5944   8.0538   8.2360   8.4386   8.7079   8.9576   9.1105
     9.3028   9.5313   9.8090  10.0268  10.2804  10.5414  10.5955  10.8305
    11.0112  11.2328  14.9119  15.0192  15.2825  15.3373  15.6838  16.0612
    19.2654  19.6725

     occupation numbers 
     1.0000   1.0000   1.0000   1.0000   1.0000   1.0000   1.0000   1.0000
     1.0000   1.0000   1.0000   1.0000   1.0000   1.0000   1.0000   1.0000
     1.0000   1.0000   1.0000   1.0000   1.0000   1.0000   1.0000   1.0000
     1.0000   1.0000   1.0000   1.0000   1.0000   1.0000   1.0000   1.0000
     1.0000   1.0000   1.0000   1.0000   1.0000   1.0000   1.0000   1.0000
     1.0000   1.0000   1.0000   1.0000   1.0000   1.0000   1.0000   1.0000
     1.0000   1.0000   1.0000   1.0000   1.0000   1.0000   1.0000   1.0000
     1.0000   1.0000   0.0000   0.0000   0.0000   0.0000   0.0000   0.0000
     0.0000   0.0000

          k = 0.2491 0.3340 0.3771 ( 17782 PWs)   bands (ev):

   -91.3802 -78.2332 -62.5484 -62.4436 -52.0289 -51.9875 -51.9472 -44.5552
   -44.4957 -44.4632 -26.9777 -26.9087 -26.8843 -26.8247 -26.7095 -26.6676
    -6.6522  -6.4596  -6.2821  -6.1739  -5.7727  -5.6061  -5.4638  -5.2328
     3.3921   3.5477   3.6313   3.7448   3.8254   4.2326   4.4623   4.8882
     5.2430   5.4567   5.6454   5.8266   6.4401   6.5698   6.8343   6.9493
     7.6630   7.7351   7.8552   8.1579   8.3589   8.7570   8.9859   9.1028
     9.2414   9.4201   9.6844   9.9890  10.2596  10.4029  10.6648  11.0273
    11.1961  11.3268  14.8297  14.9721  15.4039  15.4335  15.6036  15.9077
    19.0049  19.6177

     occupation numbers 
     1.0000   1.0000   1.0000   1.0000   1.0000   1.0000   1.0000   1.0000
     1.0000   1.0000   1.0000   1.0000   1.0000   1.0000   1.0000   1.0000
     1.0000   1.0000   1.0000   1.0000   1.0000   1.0000   1.0000   1.0000
     1.0000   1.0000   1.0000   1.0000   1.0000   1.0000   1.0000   1.0000
     1.0000   1.0000   1.0000   1.0000   1.0000   1.0000   1.0000   1.0000
     1.0000   1.0000   1.0000   1.0000   1.0000   1.0000   1.0000   1.0000
     1.0000   1.0000   1.0000   1.0000   1.0000   1.0000   1.0000   1.0000
     1.0000   1.0000   0.0002   0.0000   0.0000   0.0000   0.0000   0.0000
     0.0000   0.0000

          k = 0.2509 0.3340-0.3773 ( 17781 PWs)   bands (ev):

   -91.3802 -78.2332 -62.5484 -62.4436 -52.0289 -51.9875 -51.9472 -44.5552
   -44.4957 -44.4632 -26.9776 -26.9087 -26.8845 -26.8248 -26.7096 -26.6676
    -6.6755  -6.4952  -6.2573  -6.1072  -5.8180  -5.6127  -5.4467  -5.2177
     3.4348   3.5447   3.5928   3.7652   3.8308   4.1877   4.3883   4.8511
     5.0942   5.5076   5.7138   5.9188   6.4753   6.6627   7.0067   7.0976
     7.2474   7.4471   7.9870   8.0832   8.5634   8.6816   8.8358   9.2174
     9.3678   9.4293   9.6471   9.9928  10.2419  10.3284  10.5131  11.0493
    11.3003  11.5807  14.9507  15.1147  15.3348  15.4261  15.6834  15.8813
    18.8650  19.5369

     occupation numbers 
     1.0000   1.0000   1.0000   1.0000   1.0000   1.0000   1.0000   1.0000
     1.0000   1.0000   1.0000   1.0000   1.0000   1.0000   1.0000   1.0000
     1.0000   1.0000   1.0000   1.0000   1.0000   1.0000   1.0000   1.0000
     1.0000   1.0000   1.0000   1.0000   1.0000   1.0000   1.0000   1.0000
     1.0000   1.0000   1.0000   1.0000   1.0000   1.0000   1.0000   1.0000
     1.0000   1.0000   1.0000   1.0000   1.0000   1.0000   1.0000   1.0000
     1.0000   1.0000   1.0000   1.0000   1.0000   1.0000   1.0000   1.0000
     1.0000   1.0000   0.0000   0.0000   0.0000   0.0000   0.0000   0.0000
     0.0000   0.0000

          k = 0.2505 0.3340-0.2265 ( 17766 PWs)   bands (ev):

   -91.3801 -78.2332 -62.5485 -62.4432 -52.0289 -51.9875 -51.9472 -44.5553
   -44.4957 -44.4632 -26.9653 -26.9115 -26.8896 -26.8166 -26.7174 -26.6715
    -6.8665  -6.6224  -6.1675  -6.0217  -5.7917  -5.5506  -5.4524  -5.1253
     3.4077   3.5317   3.6247   3.7260   3.8155   4.1808   4.3633   4.8379
     5.0486   5.6124   5.8133   5.9851   6.4155   6.7653   6.8891   7.0057
     7.2517   7.6540   7.8011   7.9386   8.3679   8.5484   8.9667   9.2641
     9.4846   9.6739   9.7683  10.0184  10.1237  10.3312  10.5083  10.9793
    11.3400  11.4820  14.8766  15.1778  15.3742  15.6299  15.7951  15.9278
    18.9255  19.5189

     occupation numbers 
     1.0000   1.0000   1.0000   1.0000   1.0000   1.0000   1.0000   1.0000
     1.0000   1.0000   1.0000   1.0000   1.0000   1.0000   1.0000   1.0000
     1.0000   1.0000   1.0000   1.0000   1.0000   1.0000   1.0000   1.0000
     1.0000   1.0000   1.0000   1.0000   1.0000   1.0000   1.0000   1.0000
     1.0000   1.0000   1.0000   1.0000   1.0000   1.0000   1.0000   1.0000
     1.0000   1.0000   1.0000   1.0000   1.0000   1.0000   1.0000   1.0000
     1.0000   1.0000   1.0000   1.0000   1.0000   1.0000   1.0000   1.0000
     1.0000   1.0000   0.0001   0.0000   0.0000   0.0000   0.0000   0.0000
     0.0000   0.0000

          k = 0.2502 0.3340-0.0756 ( 17766 PWs)   bands (ev):

   -91.3801 -78.2331 -62.5487 -62.4429 -52.0290 -51.9876 -51.9472 -44.5553
   -44.4957 -44.4632 -26.9448 -26.9230 -26.8942 -26.8081 -26.7235 -26.6773
    -7.0052  -6.6738  -6.1651  -6.0126  -5.6987  -5.5934  -5.3607  -5.0686
     3.3574   3.4854   3.6631   3.7230   3.8171   4.1974   4.3966   4.8761
     5.0767   5.6190   5.7462   6.1686   6.3107   6.6773   6.8162   7.1041
     7.3269   7.4495   8.0066   8.1266   8.3664   8.5386   8.8282   9.0469
     9.2680   9.5292   9.9910  10.1209  10.2421  10.4811  10.7112  10.9556
    11.1308  11.2717  14.8159  15.0774  15.4417  15.6741  15.8460  16.0600
    19.1994  19.6100

     occupation numbers 
     1.0000   1.0000   1.0000   1.0000   1.0000   1.0000   1.0000   1.0000
     1.0000   1.0000   1.0000   1.0000   1.0000   1.0000   1.0000   1.0000
     1.0000   1.0000   1.0000   1.0000   1.0000   1.0000   1.0000   1.0000
     1.0000   1.0000   1.0000   1.0000   1.0000   1.0000   1.0000   1.0000
     1.0000   1.0000   1.0000   1.0000   1.0000   1.0000   1.0000   1.0000
     1.0000   1.0000   1.0000   1.0000   1.0000   1.0000   1.0000   1.0000
     1.0000   1.0000   1.0000   1.0000   1.0000   1.0000   1.0000   1.0000
     1.0000   1.0000   0.0003   0.0000   0.0000   0.0000   0.0000   0.0000
     0.0000   0.0000

          k = 0.4165 0.0668 0.0752 ( 17743 PWs)   bands (ev):

   -91.3801 -78.2331 -62.5486 -62.4429 -52.0290 -51.9876 -51.9472 -44.5553
   -44.4957 -44.4633 -26.9462 -26.9253 -26.8967 -26.8094 -26.7211 -26.6759
    -6.9893  -6.3973  -6.1963  -5.9990  -5.8040  -5.5821  -5.5304  -5.1556
     3.4437   3.5167   3.6574   3.7903   3.9276   4.3022   4.4181   5.0276
     5.0852   5.2610   5.5433   5.8942   6.1916   6.7788   6.9776   7.2309
     7.4239   7.5370   7.6583   7.8600   8.3693   8.5227   8.8525   9.0847
     9.5299   9.6535   9.7709  10.2943  10.5935  10.6535  10.7748  10.9637
    11.2943  11.3906  14.9190  14.9671  15.1645  15.4766  15.5491  16.1322
    19.5136  19.8133

     occupation numbers 
     1.0000   1.0000   1.0000   1.0000   1.0000   1.0000   1.0000   1.0000
     1.0000   1.0000   1.0000   1.0000   1.0000   1.0000   1.0000   1.0000
     1.0000   1.0000   1.0000   1.0000   1.0000   1.0000   1.0000   1.0000
     1.0000   1.0000   1.0000   1.0000   1.0000   1.0000   1.0000   1.0000
     1.0000   1.0000   1.0000   1.0000   1.0000   1.0000   1.0000   1.0000
     1.0000   1.0000   1.0000   1.0000   1.0000   1.0000   1.0000   1.0000
     1.0000   1.0000   1.0000   1.0000   1.0000   1.0000   1.0000   1.0000
     1.0000   1.0000   0.0000   0.0000   0.0000   0.0000   0.0000   0.0000
     0.0000   0.0000

          k = 0.4161 0.0668 0.2261 ( 17748 PWs)   bands (ev):

   -91.3801 -78.2332 -62.5485 -62.4434 -52.0289 -51.9875 -51.9472 -44.5553
   -44.4957 -44.4633 -26.9646 -26.9121 -26.8916 -26.8179 -26.7167 -26.6724
    -6.8467  -6.3363  -6.1183  -5.9932  -5.9285  -5.7566  -5.5029  -5.1907
     3.4931   3.5954   3.6440   3.8112   3.8841   4.2313   4.4481   5.0169
     5.1581   5.2002   5.6849   5.9626   6.1632   6.5731   6.7849   7.0360
     7.2453   7.3446   7.5943   7.8976   8.4699   9.0821   9.2287   9.3379
     9.5157   9.6582   9.8727  10.0451  10.3253  10.6336  10.7894  10.8536
    11.2792  11.4119  14.9757  15.1396  15.1627  15.3213  15.5975  16.0375
    19.4206  19.6807

     occupation numbers 
     1.0000   1.0000   1.0000   1.0000   1.0000   1.0000   1.0000   1.0000
     1.0000   1.0000   1.0000   1.0000   1.0000   1.0000   1.0000   1.0000
     1.0000   1.0000   1.0000   1.0000   1.0000   1.0000   1.0000   1.0000
     1.0000   1.0000   1.0000   1.0000   1.0000   1.0000   1.0000   1.0000
     1.0000   1.0000   1.0000   1.0000   1.0000   1.0000   1.0000   1.0000
     1.0000   1.0000   1.0000   1.0000   1.0000   1.0000   1.0000   1.0000
     1.0000   1.0000   1.0000   1.0000   1.0000   1.0000   1.0000   1.0000
     1.0000   1.0000   0.0000   0.0000   0.0000   0.0000   0.0000   0.0000
     0.0000   0.0000

          k = 0.4158 0.0668 0.3770 ( 17764 PWs)   bands (ev):

   -91.3802 -78.2332 -62.5484 -62.4438 -52.0289 -51.9875 -51.9472 -44.5553
   -44.4957 -44.4633 -26.9756 -26.9065 -26.8862 -26.8265 -26.7112 -26.6701
    -6.5816  -6.3088  -6.1732  -6.0608  -5.9773  -5.8577  -5.5089  -5.2155
     3.5199   3.5727   3.7407   3.8011   3.8743   4.2824   4.5822   4.9474
     5.0407   5.2234   5.6455   5.8153   6.0202   6.3487   6.6267   6.8954
     7.3829   7.7212   7.9060   8.0406   8.5640   8.6895   8.7459   9.1586
     9.7570   9.9156  10.0757  10.1794  10.3915  10.5671  10.7769  11.0458
    11.2034  11.3459  14.9555  15.0836  15.2735  15.3907  15.7057  15.8814
    19.1797  19.2653

     occupation numbers 
     1.0000   1.0000   1.0000   1.0000   1.0000   1.0000   1.0000   1.0000
     1.0000   1.0000   1.0000   1.0000   1.0000   1.0000   1.0000   1.0000
     1.0000   1.0000   1.0000   1.0000   1.0000   1.0000   1.0000   1.0000
     1.0000   1.0000   1.0000   1.0000   1.0000   1.0000   1.0000   1.0000
     1.0000   1.0000   1.0000   1.0000   1.0000   1.0000   1.0000   1.0000
     1.0000   1.0000   1.0000   1.0000   1.0000   1.0000   1.0000   1.0000
     1.0000   1.0000   1.0000   1.0000   1.0000   1.0000   1.0000   1.0000
     1.0000   1.0000   0.0000   0.0000   0.0000   0.0000   0.0000   0.0000
     0.0000   0.0000

          k = 0.4175 0.0668-0.3774 ( 17759 PWs)   bands (ev):

   -91.3802 -78.2332 -62.5483 -62.4437 -52.0289 -51.9875 -51.9472 -44.5553
   -44.4957 -44.4633 -26.9756 -26.9065 -26.8862 -26.8266 -26.7112 -26.6700
    -6.5288  -6.3142  -6.2557  -6.1110  -5.9805  -5.7742  -5.5133  -5.1979
     3.4830   3.5612   3.7658   3.8170   3.8777   4.3480   4.6050   4.8672
     5.0839   5.3098   5.4624   5.7774   6.0352   6.2290   6.6412   6.9437
     7.3285   7.6293   7.9612   8.3277   8.4907   8.5800   8.7978   9.1761
     9.7598   9.8184  10.0893  10.2526  10.4311  10.5404  10.9581  11.0192
    11.1766  11.3297  14.9844  15.0743  15.2529  15.3836  15.7938  15.8815
    18.9519  19.2234

     occupation numbers 
     1.0000   1.0000   1.0000   1.0000   1.0000   1.0000   1.0000   1.0000
     1.0000   1.0000   1.0000   1.0000   1.0000   1.0000   1.0000   1.0000
     1.0000   1.0000   1.0000   1.0000   1.0000   1.0000   1.0000   1.0000
     1.0000   1.0000   1.0000   1.0000   1.0000   1.0000   1.0000   1.0000
     1.0000   1.0000   1.0000   1.0000   1.0000   1.0000   1.0000   1.0000
     1.0000   1.0000   1.0000   1.0000   1.0000   1.0000   1.0000   1.0000
     1.0000   1.0000   1.0000   1.0000   1.0000   1.0000   1.0000   1.0000
     1.0000   1.0000   0.0000   0.0000   0.0000   0.0000   0.0000   0.0000
     0.0000   0.0000

          k = 0.4172 0.0668-0.2265 ( 17754 PWs)   bands (ev):

   -91.3801 -78.2331 -62.5484 -62.4433 -52.0289 -51.9875 -51.9472 -44.5553
   -44.4957 -44.4633 -26.9647 -26.9122 -26.8916 -26.8181 -26.7167 -26.6724
    -6.7958  -6.3919  -6.2252  -6.0312  -5.8696  -5.6541  -5.5175  -5.1719
     3.4274   3.5671   3.7006   3.8160   3.9348   4.2997   4.5023   4.8223
     5.1519   5.4189   5.5721   5.9268   6.2103   6.3351   6.4641   6.9823
     7.1433   7.2717   7.9373   8.3206   8.6272   8.8954   9.1479   9.2758
     9.4811   9.7028   9.8184   9.9112  10.5798  10.6744  10.9211  11.0080
    11.1742  11.4042  14.9723  15.0927  15.1252  15.3002  15.8482  16.0402
    19.0200  19.4606

     occupation numbers 
     1.0000   1.0000   1.0000   1.0000   1.0000   1.0000   1.0000   1.0000
     1.0000   1.0000   1.0000   1.0000   1.0000   1.0000   1.0000   1.0000
     1.0000   1.0000   1.0000   1.0000   1.0000   1.0000   1.0000   1.0000
     1.0000   1.0000   1.0000   1.0000   1.0000   1.0000   1.0000   1.0000
     1.0000   1.0000   1.0000   1.0000   1.0000   1.0000   1.0000   1.0000
     1.0000   1.0000   1.0000   1.0000   1.0000   1.0000   1.0000   1.0000
     1.0000   1.0000   1.0000   1.0000   1.0000   1.0000   1.0000   1.0000
     1.0000   1.0000   0.0000   0.0000   0.0000   0.0000   0.0000   0.0000
     0.0000   0.0000

          k = 0.4168 0.0668-0.0757 ( 17741 PWs)   bands (ev):

   -91.3801 -78.2331 -62.5485 -62.4429 -52.0290 -51.9876 -51.9472 -44.5553
   -44.4957 -44.4633 -26.9463 -26.9253 -26.8967 -26.8094 -26.7211 -26.6759
    -6.9694  -6.4343  -6.2013  -6.0555  -5.7220  -5.5931  -5.5131  -5.1573
     3.4073   3.5268   3.6709   3.7865   3.9648   4.3309   4.4328   4.9203
     5.0828   5.2926   5.5954   5.8570   6.3880   6.4839   6.8221   7.0416
     7.2157   7.6054   7.8857   8.2533   8.3910   8.5730   8.8973   9.1207
     9.3179   9.5655   9.7110  10.3336  10.6116  10.7628  10.8717  10.9633
    11.2647  11.4099  14.8896  14.9603  15.1090  15.4240  15.7556  16.1350
    19.2973  19.6941

     occupation numbers 
     1.0000   1.0000   1.0000   1.0000   1.0000   1.0000   1.0000   1.0000
     1.0000   1.0000   1.0000   1.0000   1.0000   1.0000   1.0000   1.0000
     1.0000   1.0000   1.0000   1.0000   1.0000   1.0000   1.0000   1.0000
     1.0000   1.0000   1.0000   1.0000   1.0000   1.0000   1.0000   1.0000
     1.0000   1.0000   1.0000   1.0000   1.0000   1.0000   1.0000   1.0000
     1.0000   1.0000   1.0000   1.0000   1.0000   1.0000   1.0000   1.0000
     1.0000   1.0000   1.0000   1.0000   1.0000   1.0000   1.0000   1.0000
     1.0000   1.0000   0.0001   0.0000   0.0000   0.0000   0.0000   0.0000
     0.0000   0.0000

          k = 0.4165 0.2004 0.0752 ( 17742 PWs)   bands (ev):

   -91.3801 -78.2331 -62.5488 -62.4430 -52.0290 -51.9876 -51.9472 -44.5553
   -44.4957 -44.4633 -26.9454 -26.9239 -26.8963 -26.8097 -26.7222 -26.6766
    -6.9371  -6.5228  -6.1970  -6.0334  -5.8048  -5.5722  -5.4605  -5.0895
     3.3264   3.4703   3.6412   3.7253   3.8947   4.2250   4.3897   4.8501
     5.1306   5.4893   5.8416   5.9096   6.3597   6.8072   7.0034   7.2752
     7.4030   7.6198   7.7722   7.9813   8.3681   8.4687   8.7780   9.0550
     9.4190   9.4784   9.7333  10.2716  10.5601  10.5918  10.8307  10.9282
    11.0126  11.1538  14.9757  15.0666  15.1930  15.4324  15.6749  16.1653
    19.3873  19.7477

     occupation numbers 
     1.0000   1.0000   1.0000   1.0000   1.0000   1.0000   1.0000   1.0000
     1.0000   1.0000   1.0000   1.0000   1.0000   1.0000   1.0000   1.0000
     1.0000   1.0000   1.0000   1.0000   1.0000   1.0000   1.0000   1.0000
     1.0000   1.0000   1.0000   1.0000   1.0000   1.0000   1.0000   1.0000
     1.0000   1.0000   1.0000   1.0000   1.0000   1.0000   1.0000   1.0000
     1.0000   1.0000   1.0000   1.0000   1.0000   1.0000   1.0000   1.0000
     1.0000   1.0000   1.0000   1.0000   1.0000   1.0000   1.0000   1.0000
     1.0000   1.0000   0.0000   0.0000   0.0000   0.0000   0.0000   0.0000
     0.0000   0.0000

          k = 0.4161 0.2004 0.2261 ( 17754 PWs)   bands (ev):

   -91.3801 -78.2332 -62.5487 -62.4434 -52.0289 -51.9875 -51.9472 -44.5553
   -44.4957 -44.4633 -26.9648 -26.9116 -26.8913 -26.8181 -26.7170 -26.6718
    -6.8120  -6.4786  -6.1330  -6.0234  -5.9154  -5.7048  -5.4232  -5.1404
     3.3650   3.5486   3.6235   3.7451   3.8852   4.1506   4.3983   4.8756
     5.2233   5.3891   5.7980   6.0670   6.2060   6.5379   6.8883   7.0646
     7.2578   7.6798   7.7153   8.0535   8.5969   8.9210   9.0137   9.3816
     9.4793   9.5806   9.6934   9.9712  10.0961  10.6170  10.7311  10.9862
    11.0160  11.2413  14.9573  15.1010  15.2490  15.4283  15.6425  16.0474
    19.2581  19.5730

     occupation numbers 
     1.0000   1.0000   1.0000   1.0000   1.0000   1.0000   1.0000   1.0000
     1.0000   1.0000   1.0000   1.0000   1.0000   1.0000   1.0000   1.0000
     1.0000   1.0000   1.0000   1.0000   1.0000   1.0000   1.0000   1.0000
     1.0000   1.0000   1.0000   1.0000   1.0000   1.0000   1.0000   1.0000
     1.0000   1.0000   1.0000   1.0000   1.0000   1.0000   1.0000   1.0000
     1.0000   1.0000   1.0000   1.0000   1.0000   1.0000   1.0000   1.0000
     1.0000   1.0000   1.0000   1.0000   1.0000   1.0000   1.0000   1.0000
     1.0000   1.0000   0.0000   0.0000   0.0000   0.0000   0.0000   0.0000
     0.0000   0.0000

          k = 0.4158 0.2004 0.3770 ( 17763 PWs)   bands (ev):

   -91.3802 -78.2332 -62.5485 -62.4438 -52.0289 -51.9875 -51.9472 -44.5553
   -44.4957 -44.4633 -26.9765 -26.9075 -26.8861 -26.8264 -26.7104 -26.6688
    -6.5926  -6.4121  -6.2572  -6.1574  -5.8486  -5.6965  -5.4651  -5.2083
     3.4161   3.5314   3.6674   3.7796   3.8692   4.1466   4.4400   4.8858
     5.0803   5.4446   5.7489   5.9523   6.1173   6.3044   6.6878   6.9650
     7.5593   7.7768   8.0219   8.2632   8.5599   8.7743   8.9365   9.0451
     9.5185   9.7053   9.9696  10.0915  10.2320  10.5045  10.6201  10.8995
    11.1227  11.2738  14.9515  15.0398  15.4184  15.5110  15.6571  15.8556
    19.0992  19.1978

     occupation numbers 
     1.0000   1.0000   1.0000   1.0000   1.0000   1.0000   1.0000   1.0000
     1.0000   1.0000   1.0000   1.0000   1.0000   1.0000   1.0000   1.0000
     1.0000   1.0000   1.0000   1.0000   1.0000   1.0000   1.0000   1.0000
     1.0000   1.0000   1.0000   1.0000   1.0000   1.0000   1.0000   1.0000
     1.0000   1.0000   1.0000   1.0000   1.0000   1.0000   1.0000   1.0000
     1.0000   1.0000   1.0000   1.0000   1.0000   1.0000   1.0000   1.0000
     1.0000   1.0000   1.0000   1.0000   1.0000   1.0000   1.0000   1.0000
     1.0000   1.0000   0.0000   0.0000   0.0000   0.0000   0.0000   0.0000
     0.0000   0.0000

          k = 0.4175 0.2004-0.3774 ( 17765 PWs)   bands (ev):

   -91.3802 -78.2332 -62.5485 -62.4438 -52.0289 -51.9875 -51.9472 -44.5553
   -44.4957 -44.4633 -26.9764 -26.9075 -26.8861 -26.8265 -26.7104 -26.6687
    -6.5881  -6.3915  -6.3038  -6.1530  -5.8636  -5.6626  -5.4744  -5.1935
     3.4101   3.5225   3.6791   3.7868   3.8771   4.1686   4.3977   4.8347
     5.1145   5.4361   5.7505   5.9179   6.1098   6.2957   6.7948   6.9689
     7.3239   7.8397   8.0301   8.4404   8.5036   8.7458   8.8095   9.1651
     9.5269   9.6427   9.9727  10.1373  10.2845  10.4536  10.6956  10.7825
    11.1529  11.3945  14.9809  15.0762  15.4018  15.4899  15.7028  15.8830
    18.8989  19.2516

     occupation numbers 
     1.0000   1.0000   1.0000   1.0000   1.0000   1.0000   1.0000   1.0000
     1.0000   1.0000   1.0000   1.0000   1.0000   1.0000   1.0000   1.0000
     1.0000   1.0000   1.0000   1.0000   1.0000   1.0000   1.0000   1.0000
     1.0000   1.0000   1.0000   1.0000   1.0000   1.0000   1.0000   1.0000
     1.0000   1.0000   1.0000   1.0000   1.0000   1.0000   1.0000   1.0000
     1.0000   1.0000   1.0000   1.0000   1.0000   1.0000   1.0000   1.0000
     1.0000   1.0000   1.0000   1.0000   1.0000   1.0000   1.0000   1.0000
     1.0000   1.0000   0.0000   0.0000   0.0000   0.0000   0.0000   0.0000
     0.0000   0.0000

          k = 0.4172 0.2004-0.2265 ( 17752 PWs)   bands (ev):

   -91.3801 -78.2332 -62.5486 -62.4434 -52.0289 -51.9875 -51.9472 -44.5553
   -44.4957 -44.4633 -26.9648 -26.9117 -26.8914 -26.8182 -26.7171 -26.6718
    -6.7830  -6.5169  -6.1950  -6.0572  -5.8466  -5.6486  -5.4358  -5.1338
     3.3480   3.5275   3.6769   3.7513   3.8752   4.1799   4.3826   4.8029
     5.1419   5.4341   5.8061   6.1379   6.2160   6.4577   6.7425   7.0426
     7.2454   7.6194   7.7791   8.1931   8.7339   8.8224   8.9978   9.2289
     9.3817   9.6227   9.7903  10.0582  10.2977  10.4228  10.7684  10.8761
    11.1058  11.4482  14.9154  15.1854  15.2426  15.4244  15.7845  16.0661
    18.9798  19.5619

     occupation numbers 
     1.0000   1.0000   1.0000   1.0000   1.0000   1.0000   1.0000   1.0000
     1.0000   1.0000   1.0000   1.0000   1.0000   1.0000   1.0000   1.0000
     1.0000   1.0000   1.0000   1.0000   1.0000   1.0000   1.0000   1.0000
     1.0000   1.0000   1.0000   1.0000   1.0000   1.0000   1.0000   1.0000
     1.0000   1.0000   1.0000   1.0000   1.0000   1.0000   1.0000   1.0000
     1.0000   1.0000   1.0000   1.0000   1.0000   1.0000   1.0000   1.0000
     1.0000   1.0000   1.0000   1.0000   1.0000   1.0000   1.0000   1.0000
     1.0000   1.0000   0.0000   0.0000   0.0000   0.0000   0.0000   0.0000
     0.0000   0.0000

          k = 0.4168 0.2004-0.0757 ( 17739 PWs)   bands (ev):

   -91.3801 -78.2331 -62.5487 -62.4430 -52.0290 -51.9876 -51.9472 -44.5553
   -44.4957 -44.4633 -26.9454 -26.9240 -26.8964 -26.8097 -26.7222 -26.6766
    -6.9230  -6.5445  -6.2167  -6.0656  -5.7301  -5.5826  -5.4501  -5.0979
     3.3156   3.4667   3.6561   3.7404   3.8856   4.2397   4.3955   4.8337
     5.0464   5.5229   5.7879   5.9815   6.5251   6.6236   6.8273   7.2780
     7.4316   7.6830   7.7527   8.0800   8.2778   8.4915   8.8874   9.0084
     9.3822   9.5095   9.7883  10.2906  10.4056  10.6821  10.7599  10.8819
    11.1065  11.2847  14.9392  15.0026  15.2244  15.5458  15.7135  16.1727
    19.2539  19.6778

     occupation numbers 
     1.0000   1.0000   1.0000   1.0000   1.0000   1.0000   1.0000   1.0000
     1.0000   1.0000   1.0000   1.0000   1.0000   1.0000   1.0000   1.0000
     1.0000   1.0000   1.0000   1.0000   1.0000   1.0000   1.0000   1.0000
     1.0000   1.0000   1.0000   1.0000   1.0000   1.0000   1.0000   1.0000
     1.0000   1.0000   1.0000   1.0000   1.0000   1.0000   1.0000   1.0000
     1.0000   1.0000   1.0000   1.0000   1.0000   1.0000   1.0000   1.0000
     1.0000   1.0000   1.0000   1.0000   1.0000   1.0000   1.0000   1.0000
     1.0000   1.0000   0.0000   0.0000   0.0000   0.0000   0.0000   0.0000
     0.0000   0.0000

          k = 0.4165 0.3340 0.0752 ( 17764 PWs)   bands (ev):

   -91.3801 -78.2331 -62.5490 -62.4431 -52.0290 -51.9876 -51.9472 -44.5553
   -44.4957 -44.4633 -26.9445 -26.9227 -26.8960 -26.8099 -26.7232 -26.6773
    -6.8599  -6.6448  -6.2084  -6.0782  -5.8122  -5.5504  -5.3936  -5.0325
     3.2326   3.4198   3.5615   3.7354   3.8413   4.2034   4.3258   4.7486
     5.1663   5.6664   5.8992   6.2880   6.5811   6.7515   6.9734   7.0561
     7.4838   7.6804   7.8706   8.2183   8.4073   8.5196   8.6871   9.0586
     9.1256   9.5503   9.6728  10.0657  10.3717  10.5787  10.6925  10.8367
    10.9684  11.0406  15.0512  15.1540  15.2146  15.4013  15.8645  16.1001
    19.0962  19.8748

     occupation numbers 
     1.0000   1.0000   1.0000   1.0000   1.0000   1.0000   1.0000   1.0000
     1.0000   1.0000   1.0000   1.0000   1.0000   1.0000   1.0000   1.0000
     1.0000   1.0000   1.0000   1.0000   1.0000   1.0000   1.0000   1.0000
     1.0000   1.0000   1.0000   1.0000   1.0000   1.0000   1.0000   1.0000
     1.0000   1.0000   1.0000   1.0000   1.0000   1.0000   1.0000   1.0000
     1.0000   1.0000   1.0000   1.0000   1.0000   1.0000   1.0000   1.0000
     1.0000   1.0000   1.0000   1.0000   1.0000   1.0000   1.0000   1.0000
     1.0000   1.0000   0.0000   0.0000   0.0000   0.0000   0.0000   0.0000
     0.0000   0.0000

          k = 0.4161 0.3340 0.2261 ( 17755 PWs)   bands (ev):

   -91.3801 -78.2332 -62.5489 -62.4435 -52.0289 -51.9875 -51.9472 -44.5553
   -44.4957 -44.4633 -26.9650 -26.9112 -26.8911 -26.8182 -26.7173 -26.6713
    -6.7644  -6.5847  -6.1933  -6.0605  -5.8708  -5.6724  -5.3500  -5.0918
     3.2510   3.5023   3.5962   3.6876   3.8803   4.1457   4.2892   4.7972
     5.2348   5.5534   5.8528   6.1218   6.3828   6.5173   7.0034   7.0780
     7.4237   7.7036   8.0966   8.3640   8.5264   8.8032   8.8681   9.0162
     9.2811   9.4773   9.8040  10.0780  10.1961  10.2784  10.5654  10.8606
    10.9751  11.1297  14.9731  15.0620  15.3398  15.4310  15.8030  15.9869
    19.1110  19.5072

     occupation numbers 
     1.0000   1.0000   1.0000   1.0000   1.0000   1.0000   1.0000   1.0000
     1.0000   1.0000   1.0000   1.0000   1.0000   1.0000   1.0000   1.0000
     1.0000   1.0000   1.0000   1.0000   1.0000   1.0000   1.0000   1.0000
     1.0000   1.0000   1.0000   1.0000   1.0000   1.0000   1.0000   1.0000
     1.0000   1.0000   1.0000   1.0000   1.0000   1.0000   1.0000   1.0000
     1.0000   1.0000   1.0000   1.0000   1.0000   1.0000   1.0000   1.0000
     1.0000   1.0000   1.0000   1.0000   1.0000   1.0000   1.0000   1.0000
     1.0000   1.0000   0.0000   0.0000   0.0000   0.0000   0.0000   0.0000
     0.0000   0.0000

          k = 0.4158 0.3340 0.3770 ( 17766 PWs)   bands (ev):

   -91.3802 -78.2332 -62.5487 -62.4439 -52.0289 -51.9875 -51.9472 -44.5553
   -44.4957 -44.4633 -26.9773 -26.9084 -26.8859 -26.8262 -26.7095 -26.6675
    -6.6237  -6.4451  -6.3336  -6.2147  -5.7528  -5.5937  -5.4277  -5.1995
     3.3161   3.4821   3.5965   3.7511   3.8929   4.1065   4.2625   4.8268
     5.1577   5.4910   5.8254   5.9664   6.2127   6.4737   6.9222   7.0877
     7.6112   7.8034   8.1790   8.3772   8.5948   8.8146   9.0047   9.0667
     9.2950   9.4767   9.8600  10.0575  10.1626  10.3908  10.4891  10.6843
    10.9823  11.2134  14.9666  15.0259  15.5177  15.5475  15.6901  15.8106
    19.0391  19.1258

     occupation numbers 
     1.0000   1.0000   1.0000   1.0000   1.0000   1.0000   1.0000   1.0000
     1.0000   1.0000   1.0000   1.0000   1.0000   1.0000   1.0000   1.0000
     1.0000   1.0000   1.0000   1.0000   1.0000   1.0000   1.0000   1.0000
     1.0000   1.0000   1.0000   1.0000   1.0000   1.0000   1.0000   1.0000
     1.0000   1.0000   1.0000   1.0000   1.0000   1.0000   1.0000   1.0000
     1.0000   1.0000   1.0000   1.0000   1.0000   1.0000   1.0000   1.0000
     1.0000   1.0000   1.0000   1.0000   1.0000   1.0000   1.0000   1.0000
     1.0000   1.0000   0.0000   0.0000   0.0000   0.0000   0.0000   0.0000
     0.0000   0.0000

          k = 0.4175 0.3340-0.3774 ( 17765 PWs)   bands (ev):

   -91.3802 -78.2332 -62.5487 -62.4439 -52.0289 -51.9875 -51.9472 -44.5553
   -44.4957 -44.4633 -26.9772 -26.9084 -26.8860 -26.8263 -26.7096 -26.6674
    -6.6414  -6.4556  -6.3104  -6.2124  -5.7433  -5.5913  -5.4418  -5.1885
     3.3518   3.4644   3.5717   3.7677   3.8948   4.0825   4.2454   4.7755
     5.1717   5.3813   5.9815   6.0614   6.1516   6.5309   6.9371   7.1006
     7.3336   7.9043   8.2782   8.4445   8.5399   8.6132   9.0623   9.1838
     9.2657   9.5126   9.8735   9.9612  10.0799  10.2566  10.4695  10.8384
    11.0709  11.3130  14.9802  15.1842  15.4542  15.5362  15.6534  15.8802
    18.7900  19.2473

     occupation numbers 
     1.0000   1.0000   1.0000   1.0000   1.0000   1.0000   1.0000   1.0000
     1.0000   1.0000   1.0000   1.0000   1.0000   1.0000   1.0000   1.0000
     1.0000   1.0000   1.0000   1.0000   1.0000   1.0000   1.0000   1.0000
     1.0000   1.0000   1.0000   1.0000   1.0000   1.0000   1.0000   1.0000
     1.0000   1.0000   1.0000   1.0000   1.0000   1.0000   1.0000   1.0000
     1.0000   1.0000   1.0000   1.0000   1.0000   1.0000   1.0000   1.0000
     1.0000   1.0000   1.0000   1.0000   1.0000   1.0000   1.0000   1.0000
     1.0000   1.0000   0.0000   0.0000   0.0000   0.0000   0.0000   0.0000
     0.0000   0.0000

          k = 0.4172 0.3340-0.2265 ( 17753 PWs)   bands (ev):

   -91.3801 -78.2332 -62.5488 -62.4434 -52.0289 -51.9875 -51.9472 -44.5553
   -44.4957 -44.4633 -26.9649 -26.9112 -26.8912 -26.8183 -26.7174 -26.6713
    -6.7642  -6.6020  -6.2257  -6.0799  -5.7830  -5.6555  -5.3679  -5.0977
     3.2891   3.4584   3.6170   3.6896   3.8529   4.1346   4.2850   4.7436
     5.1345   5.4926   5.9499   6.1933   6.4205   6.6838   6.8649   7.1293
     7.3804   7.7179   8.0427   8.2281   8.5501   8.6779   8.9691   9.0781
     9.2761   9.4889   9.7258  10.0177  10.1943  10.2554  10.5767  10.8567
    11.0557  11.3860  14.9307  15.2444  15.3784  15.5223  15.7374  16.0385
    18.7814  19.5943

     occupation numbers 
     1.0000   1.0000   1.0000   1.0000   1.0000   1.0000   1.0000   1.0000
     1.0000   1.0000   1.0000   1.0000   1.0000   1.0000   1.0000   1.0000
     1.0000   1.0000   1.0000   1.0000   1.0000   1.0000   1.0000   1.0000
     1.0000   1.0000   1.0000   1.0000   1.0000   1.0000   1.0000   1.0000
     1.0000   1.0000   1.0000   1.0000   1.0000   1.0000   1.0000   1.0000
     1.0000   1.0000   1.0000   1.0000   1.0000   1.0000   1.0000   1.0000
     1.0000   1.0000   1.0000   1.0000   1.0000   1.0000   1.0000   1.0000
     1.0000   1.0000   0.0000   0.0000   0.0000   0.0000   0.0000   0.0000
     0.0000   0.0000

          k = 0.4168 0.3340-0.0757 ( 17754 PWs)   bands (ev):

   -91.3801 -78.2331 -62.5489 -62.4430 -52.0290 -51.9876 -51.9472 -44.5553
   -44.4957 -44.4633 -26.9444 -26.9227 -26.8961 -26.8099 -26.7232 -26.6773
    -6.8547  -6.6533  -6.2410  -6.0926  -5.7264  -5.5725  -5.3863  -5.0474
     3.2511   3.3874   3.5799   3.7458   3.8248   4.2013   4.3296   4.7425
     5.0958   5.6430   5.8986   6.2864   6.6647   6.8156   6.9246   7.1971
     7.4545   7.6200   7.8352   7.9627   8.4048   8.6378   8.8000   9.0571
     9.1934   9.3780   9.7928   9.9004  10.3589  10.6206  10.7290  10.8232
    11.0198  11.1443  14.9641  15.0944  15.3541  15.6161  15.7611  16.1196
    18.9447  19.9305

     occupation numbers 
     1.0000   1.0000   1.0000   1.0000   1.0000   1.0000   1.0000   1.0000
     1.0000   1.0000   1.0000   1.0000   1.0000   1.0000   1.0000   1.0000
     1.0000   1.0000   1.0000   1.0000   1.0000   1.0000   1.0000   1.0000
     1.0000   1.0000   1.0000   1.0000   1.0000   1.0000   1.0000   1.0000
     1.0000   1.0000   1.0000   1.0000   1.0000   1.0000   1.0000   1.0000
     1.0000   1.0000   1.0000   1.0000   1.0000   1.0000   1.0000   1.0000
     1.0000   1.0000   1.0000   1.0000   1.0000   1.0000   1.0000   1.0000
     1.0000   1.0000   0.0000   0.0000   0.0000   0.0000   0.0000   0.0000
     0.0000   0.0000

 ------ SPIN DOWN ----------


          k = 0.0832 0.0668 0.0754 ( 17752 PWs)   bands (ev):

   -89.4731 -73.7560 -62.6331 -62.5652 -49.9646 -49.9382 -49.9172 -39.8610
   -39.8411 -39.8336 -27.0877 -27.0439 -26.9877 -26.9176 -26.8818 -26.8400
    -7.4196  -6.0157  -5.7698  -5.6368  -5.5243  -5.4206  -5.1839  -4.8775
     4.6347   4.9766   5.3923   5.4725   5.6359   6.3300   6.5234   6.6761
     7.0873   7.2751   7.3640   7.5935   7.9051   8.0481   8.3053   8.4866
     8.6757   8.8003   9.1486   9.3390   9.4342   9.9380  10.1010  10.2842
    10.4338  10.8244  11.0158  13.6814  14.3935  14.5193  14.8881  15.0134
    15.5833  15.9214  15.9653  16.1835  16.4259  16.5518  17.3161  17.5060
    18.7925  19.5542

     occupation numbers 
     1.0000   1.0000   1.0000   1.0000   1.0000   1.0000   1.0000   1.0000
     1.0000   1.0000   1.0000   1.0000   1.0000   1.0000   1.0000   1.0000
     1.0000   1.0000   1.0000   1.0000   1.0000   1.0000   1.0000   1.0000
     1.0000   1.0000   1.0000   1.0000   1.0000   1.0000   1.0000   1.0000
     1.0000   1.0000   1.0000   1.0000   1.0000   1.0000   1.0000   1.0000
     1.0000   1.0000   1.0000   1.0000   1.0000   1.0000   1.0000   1.0000
     1.0000   1.0000   1.0000   1.0306   0.1415   0.0352   0.0001   0.0000
     0.0000   0.0000   0.0000   0.0000   0.0000   0.0000   0.0000   0.0000
     0.0000   0.0000

          k = 0.0828 0.0668 0.2263 ( 17773 PWs)   bands (ev):

   -89.4731 -73.7560 -62.6328 -62.5656 -49.9646 -49.9382 -49.9172 -39.8610
   -39.8411 -39.8336 -27.0926 -27.0479 -26.9819 -26.9281 -26.8756 -26.8337
    -7.2082  -6.0524  -5.8643  -5.6789  -5.5324  -5.4446  -5.1990  -4.9262
     4.7469   5.0165   5.4051   5.5437   5.7602   6.0763   6.4683   6.8039
     7.0826   7.2763   7.4741   7.5835   7.9864   8.0711   8.3049   8.5145
     8.6141   8.7747   9.0459   9.2192   9.5585   9.7531  10.0266  10.2507
    10.5174  10.6961  10.8414  14.0469  14.4918  14.5501  14.7288  15.0407
    15.5030  15.7976  16.0061  16.2197  16.3354  16.5222  17.1552  17.4479
    19.3488  19.7108

     occupation numbers 
     1.0000   1.0000   1.0000   1.0000   1.0000   1.0000   1.0000   1.0000
     1.0000   1.0000   1.0000   1.0000   1.0000   1.0000   1.0000   1.0000
     1.0000   1.0000   1.0000   1.0000   1.0000   1.0000   1.0000   1.0000
     1.0000   1.0000   1.0000   1.0000   1.0000   1.0000   1.0000   1.0000
     1.0000   1.0000   1.0000   1.0000   1.0000   1.0000   1.0000   1.0000
     1.0000   1.0000   1.0000   1.0000   1.0000   1.0000   1.0000   1.0000
     1.0000   1.0000   1.0000   0.9412   0.0494   0.0236   0.0014   0.0000
     0.0000   0.0000   0.0000   0.0000   0.0000   0.0000   0.0000   0.0000
     0.0000   0.0000

          k = 0.0825 0.0668 0.3772 ( 17774 PWs)   bands (ev):

   -89.4731 -73.7560 -62.6324 -62.5659 -49.9646 -49.9382 -49.9172 -39.8610
   -39.8410 -39.8336 -27.0959 -27.0540 -26.9743 -26.9387 -26.8695 -26.8287
    -6.8304  -6.3153  -6.0349  -5.8227  -5.4339  -5.3204  -5.1906  -4.9972
     4.6907   4.9140   5.4668   5.7868   6.0615   6.1451   6.3647   6.6954
     6.8486   7.2623   7.5057   7.7112   7.8564   8.1343   8.2393   8.3997
     8.7454   8.7875   9.0578   9.1353   9.3981   9.7738  10.0099  10.3588
    10.4769  10.6848  10.7712  14.2798  14.4115  14.5791  14.9419  15.0874
    15.3613  15.7108  15.9040  16.2535  16.2989  16.5113  17.0802  17.2546
    19.5442  19.7163

     occupation numbers 
     1.0000   1.0000   1.0000   1.0000   1.0000   1.0000   1.0000   1.0000
     1.0000   1.0000   1.0000   1.0000   1.0000   1.0000   1.0000   1.0000
     1.0000   1.0000   1.0000   1.0000   1.0000   1.0000   1.0000   1.0000
     1.0000   1.0000   1.0000   1.0000   1.0000   1.0000   1.0000   1.0000
     1.0000   1.0000   1.0000   1.0000   1.0000   1.0000   1.0000   1.0000
     1.0000   1.0000   1.0000   1.0000   1.0000   1.0000   1.0000   1.0000
     1.0000   1.0000   1.0000   0.3544   0.1188   0.0158   0.0000   0.0000
     0.0000   0.0000   0.0000   0.0000   0.0000   0.0000   0.0000   0.0000
     0.0000   0.0000

          k = 0.0842 0.0668-0.3773 ( 17781 PWs)   bands (ev):

   -89.4731 -73.7560 -62.6325 -62.5659 -49.9646 -49.9382 -49.9172 -39.8610
   -39.8410 -39.8336 -27.0959 -27.0540 -26.9743 -26.9386 -26.8695 -26.8287
    -6.7974  -6.3876  -6.0554  -5.8506  -5.3436  -5.2884  -5.2049  -5.0019
     4.6724   4.9161   5.6005   5.7547   5.8935   6.0864   6.3087   6.5099
     6.8615   7.3956   7.5623   7.7788   7.9758   8.0455   8.2690   8.4414
     8.7052   8.9009   9.0066   9.1339   9.3330   9.8041   9.9987  10.3964
    10.4966  10.6527  10.8408  14.2142  14.4597  14.6756  14.8515  15.0924
    15.3946  15.7011  15.9680  16.1874  16.3339  16.5512  17.0821  17.1886
    19.4149  19.6414

     occupation numbers 
     1.0000   1.0000   1.0000   1.0000   1.0000   1.0000   1.0000   1.0000
     1.0000   1.0000   1.0000   1.0000   1.0000   1.0000   1.0000   1.0000
     1.0000   1.0000   1.0000   1.0000   1.0000   1.0000   1.0000   1.0000
     1.0000   1.0000   1.0000   1.0000   1.0000   1.0000   1.0000   1.0000
     1.0000   1.0000   1.0000   1.0000   1.0000   1.0000   1.0000   1.0000
     1.0000   1.0000   1.0000   1.0000   1.0000   1.0000   1.0000   1.0000
     1.0000   1.0000   1.0000   0.5240   0.0715   0.0036   0.0001   0.0000
     0.0000   0.0000   0.0000   0.0000   0.0000   0.0000   0.0000   0.0000
     0.0000   0.0000

          k = 0.0839 0.0668-0.2264 ( 17775 PWs)   bands (ev):

   -89.4731 -73.7560 -62.6328 -62.5656 -49.9646 -49.9382 -49.9172 -39.8610
   -39.8411 -39.8336 -27.0926 -27.0479 -26.9820 -26.9279 -26.8757 -26.8337
    -7.1940  -6.1299  -5.9663  -5.7447  -5.4066  -5.3194  -5.1799  -4.9338
     4.7776   5.0138   5.3519   5.4422   5.8320   5.9639   6.2682   6.6691
     6.9037   7.4421   7.6381   7.6692   7.9170   8.0952   8.4813   8.5360
     8.6767   8.8519   9.0313   9.2395   9.5564   9.7342   9.9723  10.3645
    10.4786  10.6914  10.9231  14.1421  14.2765  14.6665  14.7939  15.0277
    15.5694  15.7551  16.0434  16.1695  16.3706  16.5945  17.1756  17.3287
    19.3013  19.4175

     occupation numbers 
     1.0000   1.0000   1.0000   1.0000   1.0000   1.0000   1.0000   1.0000
     1.0000   1.0000   1.0000   1.0000   1.0000   1.0000   1.0000   1.0000
     1.0000   1.0000   1.0000   1.0000   1.0000   1.0000   1.0000   1.0000
     1.0000   1.0000   1.0000   1.0000   1.0000   1.0000   1.0000   1.0000
     1.0000   1.0000   1.0000   1.0000   1.0000   1.0000   1.0000   1.0000
     1.0000   1.0000   1.0000   1.0000   1.0000   1.0000   1.0000   1.0000
     1.0000   1.0000   1.0000   0.7220   0.3623   0.0041   0.0004   0.0000
     0.0000   0.0000   0.0000   0.0000   0.0000   0.0000   0.0000   0.0000
     0.0000   0.0000

          k = 0.0835 0.0668-0.0755 ( 17763 PWs)   bands (ev):

   -89.4731 -73.7560 -62.6332 -62.5652 -49.9646 -49.9382 -49.9172 -39.8610
   -39.8411 -39.8336 -27.0876 -27.0439 -26.9877 -26.9174 -26.8819 -26.8400
    -7.4156  -6.0517  -5.8505  -5.6306  -5.4631  -5.3944  -5.1467  -4.8797
     4.6676   4.9748   5.2943   5.3568   5.8012   6.2722   6.3908   6.6465
     7.0473   7.3070   7.4109   7.6089   7.9185   8.0208   8.3208   8.5433
     8.7144   8.9444   9.0505   9.3324   9.5151   9.9478  10.1739  10.2666
    10.3891  10.8032  11.0238  13.7488  14.2755  14.5584  14.9276  15.0400
    15.5953  15.9116  15.9869  16.1480  16.4282  16.6010  17.3233  17.4557
    18.7657  19.3589

     occupation numbers 
     1.0000   1.0000   1.0000   1.0000   1.0000   1.0000   1.0000   1.0000
     1.0000   1.0000   1.0000   1.0000   1.0000   1.0000   1.0000   1.0000
     1.0000   1.0000   1.0000   1.0000   1.0000   1.0000   1.0000   1.0000
     1.0000   1.0000   1.0000   1.0000   1.0000   1.0000   1.0000   1.0000
     1.0000   1.0000   1.0000   1.0000   1.0000   1.0000   1.0000   1.0000
     1.0000   1.0000   1.0000   1.0000   1.0000   1.0000   1.0000   1.0000
     1.0000   1.0000   1.0000   1.0520   0.3648   0.0211   0.0000   0.0000
     0.0000   0.0000   0.0000   0.0000   0.0000   0.0000   0.0000   0.0000
     0.0000   0.0000

          k = 0.0832 0.2004 0.0754 ( 17751 PWs)   bands (ev):

   -89.4731 -73.7560 -62.6331 -62.5652 -49.9646 -49.9382 -49.9172 -39.8610
   -39.8411 -39.8336 -27.0870 -27.0426 -26.9873 -26.9180 -26.8835 -26.8406
    -7.2706  -6.1685  -5.8967  -5.6834  -5.5792  -5.3327  -5.1190  -4.8229
     4.8289   5.1389   5.3329   5.5770   5.7381   6.3457   6.4528   6.7181
     6.8607   7.0541   7.3132   7.4990   7.8832   8.0611   8.3184   8.5205
     8.7638   9.0269   9.1668   9.2862   9.4748   9.6940   9.9704  10.2252
    10.2931  10.7925  10.9606  13.8412  14.5211  14.6323  14.9271  15.0292
    15.4384  15.9462  16.0770  16.1992  16.3765  16.5440  17.2926  17.5120
    19.3209  19.5642

     occupation numbers 
     1.0000   1.0000   1.0000   1.0000   1.0000   1.0000   1.0000   1.0000
     1.0000   1.0000   1.0000   1.0000   1.0000   1.0000   1.0000   1.0000
     1.0000   1.0000   1.0000   1.0000   1.0000   1.0000   1.0000   1.0000
     1.0000   1.0000   1.0000   1.0000   1.0000   1.0000   1.0000   1.0000
     1.0000   1.0000   1.0000   1.0000   1.0000   1.0000   1.0000   1.0000
     1.0000   1.0000   1.0000   1.0000   1.0000   1.0000   1.0000   1.0000
     1.0000   1.0000   1.0000   1.0798   0.0344   0.0071   0.0000   0.0000
     0.0000   0.0000   0.0000   0.0000   0.0000   0.0000   0.0000   0.0000
     0.0000   0.0000

          k = 0.0828 0.2004 0.2263 ( 17779 PWs)   bands (ev):

   -89.4731 -73.7560 -62.6328 -62.5656 -49.9646 -49.9382 -49.9172 -39.8610
   -39.8410 -39.8336 -27.0933 -27.0476 -26.9816 -26.9283 -26.8760 -26.8331
    -7.0706  -6.1640  -5.9237  -5.7183  -5.5878  -5.4102  -5.1980  -4.8630
     4.9102   5.0917   5.4258   5.7198   5.9310   6.2223   6.3675   6.6345
     6.8860   7.1856   7.3245   7.6260   7.8653   8.0050   8.3034   8.5173
     8.6944   8.9001   9.0769   9.2970   9.4480   9.6230   9.9077  10.1505
    10.3643  10.7182  10.8657  14.1345  14.5514  14.6966  14.8252  15.0570
    15.3576  15.9206  15.9978  16.2136  16.3234  16.5285  17.1600  17.4200
    19.5561  19.8047

     occupation numbers 
     1.0000   1.0000   1.0000   1.0000   1.0000   1.0000   1.0000   1.0000
     1.0000   1.0000   1.0000   1.0000   1.0000   1.0000   1.0000   1.0000
     1.0000   1.0000   1.0000   1.0000   1.0000   1.0000   1.0000   1.0000
     1.0000   1.0000   1.0000   1.0000   1.0000   1.0000   1.0000   1.0000
     1.0000   1.0000   1.0000   1.0000   1.0000   1.0000   1.0000   1.0000
     1.0000   1.0000   1.0000   1.0000   1.0000   1.0000   1.0000   1.0000
     1.0000   1.0000   1.0000   0.7421   0.0232   0.0025   0.0002   0.0000
     0.0000   0.0000   0.0000   0.0000   0.0000   0.0000   0.0000   0.0000
     0.0000   0.0000

          k = 0.0825 0.2004 0.3772 ( 17778 PWs)   bands (ev):

   -89.4731 -73.7560 -62.6325 -62.5659 -49.9646 -49.9382 -49.9172 -39.8610
   -39.8410 -39.8336 -27.0973 -27.0552 -26.9741 -26.9385 -26.8684 -26.8274
    -6.7238  -6.3347  -5.9996  -5.8287  -5.6034  -5.3363  -5.2114  -4.9445
     4.8707   5.1393   5.3945   5.7994   6.0623   6.2371   6.4145   6.6796
     7.0080   7.1734   7.4289   7.6113   7.7278   7.9952   8.1561   8.4512
     8.7136   8.8163   9.0517   9.1641   9.4284   9.5441   9.8228  10.2994
    10.4423  10.6633  10.8173  14.3632  14.4536  14.7344  14.9877  15.1958
    15.3053  15.7688  15.8757  16.2699  16.3284  16.4783  17.0824  17.2263
    19.5180  19.7499

     occupation numbers 
     1.0000   1.0000   1.0000   1.0000   1.0000   1.0000   1.0000   1.0000
     1.0000   1.0000   1.0000   1.0000   1.0000   1.0000   1.0000   1.0000
     1.0000   1.0000   1.0000   1.0000   1.0000   1.0000   1.0000   1.0000
     1.0000   1.0000   1.0000   1.0000   1.0000   1.0000   1.0000   1.0000
     1.0000   1.0000   1.0000   1.0000   1.0000   1.0000   1.0000   1.0000
     1.0000   1.0000   1.0000   1.0000   1.0000   1.0000   1.0000   1.0000
     1.0000   1.0000   1.0000   0.1863   0.0765   0.0013   0.0000   0.0000
     0.0000   0.0000   0.0000   0.0000   0.0000   0.0000   0.0000   0.0000
     0.0000   0.0000

          k = 0.0842 0.2004-0.3773 ( 17768 PWs)   bands (ev):

   -89.4731 -73.7560 -62.6325 -62.5659 -49.9646 -49.9382 -49.9172 -39.8610
   -39.8410 -39.8336 -27.0974 -27.0551 -26.9741 -26.9384 -26.8685 -26.8274
    -6.7131  -6.3634  -6.0651  -5.8317  -5.4851  -5.3920  -5.1405  -4.9780
     4.8813   5.1049   5.4448   5.7351   5.9530   6.1358   6.4655   6.6224
     7.0135   7.3488   7.4060   7.5677   7.7241   8.0536   8.3293   8.4856
     8.5991   8.7174   9.0354   9.1965   9.4493   9.5701   9.8470  10.3530
    10.4675  10.6360  10.7894  14.3330  14.5483  14.7622  14.9267  15.1876
    15.4074  15.6695  16.0042  16.2256  16.3542  16.4805  17.0642  17.1865
    19.4805  19.5996

     occupation numbers 
     1.0000   1.0000   1.0000   1.0000   1.0000   1.0000   1.0000   1.0000
     1.0000   1.0000   1.0000   1.0000   1.0000   1.0000   1.0000   1.0000
     1.0000   1.0000   1.0000   1.0000   1.0000   1.0000   1.0000   1.0000
     1.0000   1.0000   1.0000   1.0000   1.0000   1.0000   1.0000   1.0000
     1.0000   1.0000   1.0000   1.0000   1.0000   1.0000   1.0000   1.0000
     1.0000   1.0000   1.0000   1.0000   1.0000   1.0000   1.0000   1.0000
     1.0000   1.0000   1.0000   0.2398   0.0241   0.0008   0.0000   0.0000
     0.0000   0.0000   0.0000   0.0000   0.0000   0.0000   0.0000   0.0000
     0.0000   0.0000

          k = 0.0839 0.2004-0.2264 ( 17773 PWs)   bands (ev):

   -89.4731 -73.7560 -62.6328 -62.5656 -49.9646 -49.9382 -49.9172 -39.8610
   -39.8410 -39.8336 -27.0933 -27.0476 -26.9816 -26.9281 -26.8762 -26.8330
    -7.0675  -6.2303  -6.0227  -5.6790  -5.5065  -5.3288  -5.1985  -4.8747
     4.9037   5.0835   5.4599   5.6363   5.8588   6.0151   6.2179   6.6634
     6.9920   7.2714   7.4185   7.5528   7.8324   8.1217   8.3718   8.6041
     8.6637   8.8264   9.0749   9.2492   9.6021   9.6907   9.9383  10.2262
    10.2875  10.7100  10.8248  14.2707  14.4493  14.7253  14.8522  15.1048
    15.4315  15.8323  16.1040  16.2183  16.3609  16.5052  17.1587  17.3462
    19.3348  19.6401

     occupation numbers 
     1.0000   1.0000   1.0000   1.0000   1.0000   1.0000   1.0000   1.0000
     1.0000   1.0000   1.0000   1.0000   1.0000   1.0000   1.0000   1.0000
     1.0000   1.0000   1.0000   1.0000   1.0000   1.0000   1.0000   1.0000
     1.0000   1.0000   1.0000   1.0000   1.0000   1.0000   1.0000   1.0000
     1.0000   1.0000   1.0000   1.0000   1.0000   1.0000   1.0000   1.0000
     1.0000   1.0000   1.0000   1.0000   1.0000   1.0000   1.0000   1.0000
     1.0000   1.0000   1.0000   0.3765   0.0802   0.0015   0.0001   0.0000
     0.0000   0.0000   0.0000   0.0000   0.0000   0.0000   0.0000   0.0000
     0.0000   0.0000

          k = 0.0835 0.2004-0.0755 ( 17767 PWs)   bands (ev):

   -89.4731 -73.7560 -62.6332 -62.5652 -49.9646 -49.9382 -49.9172 -39.8610
   -39.8411 -39.8336 -27.0870 -27.0426 -26.9873 -26.9178 -26.8836 -26.8406
    -7.2701  -6.2035  -5.9530  -5.6401  -5.5139  -5.3547  -5.1006  -4.8232
     4.8389   5.1329   5.2732   5.5451   5.7695   6.2574   6.4132   6.7273
     6.8091   7.0960   7.3332   7.4915   7.9354   8.1224   8.3152   8.5260
     8.7183   9.0501   9.1764   9.2715   9.5854   9.7317  10.0771  10.1293
    10.2861  10.7599  10.9349  13.9291  14.4495  14.6198  14.9301  15.1138
    15.4540  15.9384  16.0890  16.1979  16.4115  16.5221  17.3020  17.4810
    19.1959  19.4013

     occupation numbers 
     1.0000   1.0000   1.0000   1.0000   1.0000   1.0000   1.0000   1.0000
     1.0000   1.0000   1.0000   1.0000   1.0000   1.0000   1.0000   1.0000
     1.0000   1.0000   1.0000   1.0000   1.0000   1.0000   1.0000   1.0000
     1.0000   1.0000   1.0000   1.0000   1.0000   1.0000   1.0000   1.0000
     1.0000   1.0000   1.0000   1.0000   1.0000   1.0000   1.0000   1.0000
     1.0000   1.0000   1.0000   1.0000   1.0000   1.0000   1.0000   1.0000
     1.0000   1.0000   1.0000   1.0725   0.0801   0.0087   0.0000   0.0000
     0.0000   0.0000   0.0000   0.0000   0.0000   0.0000   0.0000   0.0000
     0.0000   0.0000

          k = 0.0832 0.3340 0.0754 ( 17768 PWs)   bands (ev):

   -89.4731 -73.7560 -62.6331 -62.5653 -49.9646 -49.9382 -49.9172 -39.8610
   -39.8411 -39.8336 -27.0864 -27.0412 -26.9869 -26.9184 -26.8851 -26.8412
    -7.0184  -6.5134  -5.8731  -5.7250  -5.6205  -5.3021  -5.0708  -4.7743
     5.1286   5.2124   5.4522   5.6691   5.8456   6.0696   6.3373   6.5162
     6.7744   7.1068   7.3649   7.5239   7.8517   8.0661   8.3607   8.4939
     8.7988   8.9361   9.2103   9.2760   9.4495   9.5403   9.9353  10.0967
    10.2201  10.7586  10.9071  14.0756  14.5886  14.7780  14.9281  15.1108
    15.2689  15.9790  16.1381  16.2244  16.3522  16.5024  17.2778  17.5187
    19.3870  19.6031

     occupation numbers 
     1.0000   1.0000   1.0000   1.0000   1.0000   1.0000   1.0000   1.0000
     1.0000   1.0000   1.0000   1.0000   1.0000   1.0000   1.0000   1.0000
     1.0000   1.0000   1.0000   1.0000   1.0000   1.0000   1.0000   1.0000
     1.0000   1.0000   1.0000   1.0000   1.0000   1.0000   1.0000   1.0000
     1.0000   1.0000   1.0000   1.0000   1.0000   1.0000   1.0000   1.0000
     1.0000   1.0000   1.0000   1.0000   1.0000   1.0000   1.0000   1.0000
     1.0000   1.0000   1.0000   0.8841   0.0138   0.0006   0.0000   0.0000
     0.0000   0.0000   0.0000   0.0000   0.0000   0.0000   0.0000   0.0000
     0.0000   0.0000

          k = 0.0828 0.3340 0.2263 ( 17769 PWs)   bands (ev):

   -89.4731 -73.7560 -62.6328 -62.5656 -49.9646 -49.9382 -49.9172 -39.8610
   -39.8410 -39.8336 -27.0938 -27.0473 -26.9813 -26.9286 -26.8764 -26.8325
    -6.8386  -6.4201  -5.9282  -5.8117  -5.5372  -5.4138  -5.1997  -4.8152
     4.9980   5.2981   5.5294   5.8122   6.1802   6.2439   6.4002   6.4423
     6.6845   7.0733   7.2255   7.5692   7.7024   8.0687   8.1999   8.5720
     8.7841   8.8858   9.0419   9.2621   9.4906   9.6347   9.7435  10.0101
    10.2933  10.7229  10.8439  14.3104  14.6352  14.8044  14.9650  15.0476
    15.1795  15.8138  16.1353  16.2537  16.3171  16.5223  17.1826  17.3826
    19.2696  19.8064

     occupation numbers 
     1.0000   1.0000   1.0000   1.0000   1.0000   1.0000   1.0000   1.0000
     1.0000   1.0000   1.0000   1.0000   1.0000   1.0000   1.0000   1.0000
     1.0000   1.0000   1.0000   1.0000   1.0000   1.0000   1.0000   1.0000
     1.0000   1.0000   1.0000   1.0000   1.0000   1.0000   1.0000   1.0000
     1.0000   1.0000   1.0000   1.0000   1.0000   1.0000   1.0000   1.0000
     1.0000   1.0000   1.0000   1.0000   1.0000   1.0000   1.0000   1.0000
     1.0000   1.0000   1.0000   0.2854   0.0068   0.0003   0.0000   0.0000
     0.0000   0.0000   0.0000   0.0000   0.0000   0.0000   0.0000   0.0000
     0.0000   0.0000

          k = 0.0825 0.3340 0.3772 ( 17776 PWs)   bands (ev):

   -89.4730 -73.7560 -62.6325 -62.5659 -49.9646 -49.9383 -49.9172 -39.8610
   -39.8410 -39.8336 -27.0988 -27.0563 -26.9740 -26.9384 -26.8673 -26.8261
    -6.5699  -6.3728  -5.9772  -5.8649  -5.6671  -5.4954  -5.1645  -4.9067
     5.0066   5.3802   5.5355   5.6649   6.1440   6.2670   6.5118   6.7168
     6.9741   7.1178   7.4218   7.5536   7.5971   7.8038   8.1303   8.4206
     8.5375   8.9052   9.0228   9.1270   9.3409   9.5933   9.6974  10.2108
    10.3763  10.6798  10.8151  14.5319  14.6447  14.8453  14.9549  15.1347
    15.2288  15.7365  15.9838  16.2886  16.3678  16.4451  17.1225  17.1932
    19.2525  19.8357

     occupation numbers 
     1.0000   1.0000   1.0000   1.0000   1.0000   1.0000   1.0000   1.0000
     1.0000   1.0000   1.0000   1.0000   1.0000   1.0000   1.0000   1.0000
     1.0000   1.0000   1.0000   1.0000   1.0000   1.0000   1.0000   1.0000
     1.0000   1.0000   1.0000   1.0000   1.0000   1.0000   1.0000   1.0000
     1.0000   1.0000   1.0000   1.0000   1.0000   1.0000   1.0000   1.0000
     1.0000   1.0000   1.0000   1.0000   1.0000   1.0000   1.0000   1.0000
     1.0000   1.0000   1.0000   0.0300   0.0059   0.0001   0.0000   0.0000
     0.0000   0.0000   0.0000   0.0000   0.0000   0.0000   0.0000   0.0000
     0.0000   0.0000

          k = 0.0842 0.3340-0.3773 ( 17774 PWs)   bands (ev):

   -89.4730 -73.7560 -62.6325 -62.5659 -49.9646 -49.9383 -49.9172 -39.8610
   -39.8410 -39.8336 -27.0988 -27.0563 -26.9740 -26.9383 -26.8674 -26.8261
    -6.5811  -6.4251  -5.9548  -5.7852  -5.6849  -5.5379  -5.0888  -4.9491
     5.0877   5.1773   5.5429   5.6961   6.0229   6.2640   6.5460   6.7958
     7.0157   7.1491   7.3103   7.4826   7.6858   7.9649   8.1771   8.2699
     8.5561   8.8549   8.9858   9.1737   9.3643   9.6024   9.7094  10.3101
    10.4556  10.5781  10.7684  14.4773  14.7048  14.8683  14.9816  15.1537
    15.3994  15.6616  15.9795  16.2516  16.3719  16.4672  17.0667  17.2090
    19.3707  19.6030

     occupation numbers 
     1.0000   1.0000   1.0000   1.0000   1.0000   1.0000   1.0000   1.0000
     1.0000   1.0000   1.0000   1.0000   1.0000   1.0000   1.0000   1.0000
     1.0000   1.0000   1.0000   1.0000   1.0000   1.0000   1.0000   1.0000
     1.0000   1.0000   1.0000   1.0000   1.0000   1.0000   1.0000   1.0000
     1.0000   1.0000   1.0000   1.0000   1.0000   1.0000   1.0000   1.0000
     1.0000   1.0000   1.0000   1.0000   1.0000   1.0000   1.0000   1.0000
     1.0000   1.0000   1.0000   0.0586   0.0022   0.0001   0.0000   0.0000
     0.0000   0.0000   0.0000   0.0000   0.0000   0.0000   0.0000   0.0000
     0.0000   0.0000

          k = 0.0839 0.3340-0.2264 ( 17773 PWs)   bands (ev):

   -89.4731 -73.7560 -62.6329 -62.5656 -49.9646 -49.9382 -49.9172 -39.8610
   -39.8410 -39.8336 -27.0939 -27.0474 -26.9813 -26.9284 -26.8766 -26.8325
    -6.8529  -6.4908  -5.9405  -5.6817  -5.5653  -5.4086  -5.1749  -4.8260
     5.0343   5.0946   5.5279   5.9265   5.9925   6.1919   6.2779   6.5222
     6.8134   6.9923   7.3625   7.5817   7.7259   8.1367   8.1947   8.5710
     8.6653   8.8330   9.0428   9.3370   9.5468   9.6819   9.8357  10.1500
    10.2455  10.6714  10.7520  14.3562  14.6427  14.7742  14.9491  15.2042
    15.3203  15.8852  16.0828  16.2386  16.3068  16.4773  17.1780  17.3756
    19.3881  19.5627

     occupation numbers 
     1.0000   1.0000   1.0000   1.0000   1.0000   1.0000   1.0000   1.0000
     1.0000   1.0000   1.0000   1.0000   1.0000   1.0000   1.0000   1.0000
     1.0000   1.0000   1.0000   1.0000   1.0000   1.0000   1.0000   1.0000
     1.0000   1.0000   1.0000   1.0000   1.0000   1.0000   1.0000   1.0000
     1.0000   1.0000   1.0000   1.0000   1.0000   1.0000   1.0000   1.0000
     1.0000   1.0000   1.0000   1.0000   1.0000   1.0000   1.0000   1.0000
     1.0000   1.0000   1.0000   0.1979   0.0061   0.0006   0.0000   0.0000
     0.0000   0.0000   0.0000   0.0000   0.0000   0.0000   0.0000   0.0000
     0.0000   0.0000

          k = 0.0835 0.3340-0.0755 ( 17783 PWs)   bands (ev):

   -89.4731 -73.7560 -62.6332 -62.5653 -49.9646 -49.9382 -49.9172 -39.8610
   -39.8411 -39.8336 -27.0864 -27.0412 -26.9868 -26.9183 -26.8852 -26.8411
    -7.0238  -6.5393  -5.9124  -5.6696  -5.5611  -5.3461  -5.0611  -4.7724
     5.0895   5.1752   5.4406   5.6557   5.8197   6.1334   6.3504   6.5502
     6.6771   7.1139   7.2840   7.5468   7.8757   8.1839   8.3972   8.4820
     8.6385   9.0284   9.1447   9.2752   9.5183   9.6762   9.9795  10.0888
    10.1852  10.7259  10.8607  14.1655  14.5254  14.7490  14.9076  15.1822
    15.3560  16.0013  16.1804  16.2294  16.3355  16.4266  17.3015  17.5178
    19.3782  19.5424

     occupation numbers 
     1.0000   1.0000   1.0000   1.0000   1.0000   1.0000   1.0000   1.0000
     1.0000   1.0000   1.0000   1.0000   1.0000   1.0000   1.0000   1.0000
     1.0000   1.0000   1.0000   1.0000   1.0000   1.0000   1.0000   1.0000
     1.0000   1.0000   1.0000   1.0000   1.0000   1.0000   1.0000   1.0000
     1.0000   1.0000   1.0000   1.0000   1.0000   1.0000   1.0000   1.0000
     1.0000   1.0000   1.0000   1.0000   1.0000   1.0000   1.0000   1.0000
     1.0000   1.0000   1.0000   0.6586   0.0326   0.0010   0.0000   0.0000
     0.0000   0.0000   0.0000   0.0000   0.0000   0.0000   0.0000   0.0000
     0.0000   0.0000

          k = 0.2498 0.0668 0.0753 ( 17763 PWs)   bands (ev):

   -89.4731 -73.7560 -62.6331 -62.5652 -49.9646 -49.9382 -49.9172 -39.8610
   -39.8410 -39.8337 -27.0873 -27.0435 -26.9899 -26.9193 -26.8816 -26.8399
    -7.2098  -6.0583  -5.8804  -5.6871  -5.5368  -5.3286  -5.2158  -4.9966
     4.8668   5.0782   5.2198   5.6081   5.8062   6.3590   6.6140   6.6920
     6.9570   7.0189   7.3127   7.4861   7.6286   8.1343   8.2795   8.5598
     8.7010   8.9774   9.2766   9.4803   9.5649   9.8329  10.0107  10.0943
    10.3945  10.7127  10.9879  13.7899  14.4447  14.7254  14.8100  15.0438
    15.5642  15.8698  15.9798  16.1593  16.3480  16.6397  17.2163  17.4907
    19.5256  19.6099

     occupation numbers 
     1.0000   1.0000   1.0000   1.0000   1.0000   1.0000   1.0000   1.0000
     1.0000   1.0000   1.0000   1.0000   1.0000   1.0000   1.0000   1.0000
     1.0000   1.0000   1.0000   1.0000   1.0000   1.0000   1.0000   1.0000
     1.0000   1.0000   1.0000   1.0000   1.0000   1.0000   1.0000   1.0000
     1.0000   1.0000   1.0000   1.0000   1.0000   1.0000   1.0000   1.0000
     1.0000   1.0000   1.0000   1.0000   1.0000   1.0000   1.0000   1.0000
     1.0000   1.0000   1.0000   1.0660   0.0843   0.0015   0.0003   0.0000
     0.0000   0.0000   0.0000   0.0000   0.0000   0.0000   0.0000   0.0000
     0.0000   0.0000

          k = 0.2495 0.0668 0.2262 ( 17769 PWs)   bands (ev):

   -89.4731 -73.7560 -62.6327 -62.5655 -49.9646 -49.9382 -49.9172 -39.8610
   -39.8410 -39.8337 -27.0923 -27.0476 -26.9840 -26.9299 -26.8754 -26.8335
    -7.0221  -6.0508  -5.7946  -5.7102  -5.6374  -5.5514  -5.2018  -4.9905
     4.8956   5.0213   5.3685   5.6932   5.8817   6.3057   6.4451   6.6615
     6.8862   7.2302   7.2957   7.5513   7.7389   8.0405   8.2953   8.5436
     8.6523   8.8455   9.1916   9.3929   9.6998   9.8484  10.0358  10.1940
    10.2387  10.7282  10.8482  13.9746  14.3526  14.7094  14.8139  15.1257
    15.5215  15.7992  16.0004  16.1945  16.3155  16.5230  17.1733  17.4975
    19.6822  19.8014

     occupation numbers 
     1.0000   1.0000   1.0000   1.0000   1.0000   1.0000   1.0000   1.0000
     1.0000   1.0000   1.0000   1.0000   1.0000   1.0000   1.0000   1.0000
     1.0000   1.0000   1.0000   1.0000   1.0000   1.0000   1.0000   1.0000
     1.0000   1.0000   1.0000   1.0000   1.0000   1.0000   1.0000   1.0000
     1.0000   1.0000   1.0000   1.0000   1.0000   1.0000   1.0000   1.0000
     1.0000   1.0000   1.0000   1.0000   1.0000   1.0000   1.0000   1.0000
     1.0000   1.0000   1.0000   1.0415   0.2041   0.0020   0.0003   0.0000
     0.0000   0.0000   0.0000   0.0000   0.0000   0.0000   0.0000   0.0000
     0.0000   0.0000

          k = 0.2491 0.0668 0.3771 ( 17767 PWs)   bands (ev):

   -89.4731 -73.7560 -62.6324 -62.5658 -49.9646 -49.9382 -49.9172 -39.8610
   -39.8410 -39.8337 -27.0955 -27.0537 -26.9762 -26.9405 -26.8693 -26.8285
    -6.6901  -6.1615  -6.0407  -5.8364  -5.6321  -5.4878  -5.1523  -4.9696
     4.8463   5.0078   5.3677   5.6839   5.9140   6.1208   6.4931   6.8028
     6.9345   7.2199   7.3123   7.4972   7.8378   8.0126   8.3009   8.3199
     8.6645   8.9552   9.2456   9.4160   9.4605   9.9052  10.0654  10.2409
    10.4329  10.5694  10.9158  14.0658  14.4251  14.6661  14.8857  15.2152
    15.4506  15.7018  16.0444  16.2162  16.2826  16.4500  17.1785  17.3983
    19.3822  19.5716

     occupation numbers 
     1.0000   1.0000   1.0000   1.0000   1.0000   1.0000   1.0000   1.0000
     1.0000   1.0000   1.0000   1.0000   1.0000   1.0000   1.0000   1.0000
     1.0000   1.0000   1.0000   1.0000   1.0000   1.0000   1.0000   1.0000
     1.0000   1.0000   1.0000   1.0000   1.0000   1.0000   1.0000   1.0000
     1.0000   1.0000   1.0000   1.0000   1.0000   1.0000   1.0000   1.0000
     1.0000   1.0000   1.0000   1.0000   1.0000   1.0000   1.0000   1.0000
     1.0000   1.0000   1.0000   0.9046   0.1036   0.0042   0.0001   0.0000
     0.0000   0.0000   0.0000   0.0000   0.0000   0.0000   0.0000   0.0000
     0.0000   0.0000

          k = 0.2509 0.0668-0.3773 ( 17759 PWs)   bands (ev):

   -89.4731 -73.7560 -62.6324 -62.5658 -49.9646 -49.9382 -49.9172 -39.8610
   -39.8410 -39.8337 -27.0955 -27.0536 -26.9763 -26.9403 -26.8695 -26.8284
    -6.6049  -6.3274  -6.1025  -5.9014  -5.5585  -5.3253  -5.1715  -4.9474
     4.8194   5.0677   5.4554   5.6524   5.7857   5.9400   6.1969   6.4499
     7.0765   7.3106   7.5667   7.7618   7.9138   8.1161   8.1809   8.4847
     8.5724   9.0427   9.1517   9.1964   9.4711  10.0215  10.1304  10.3020
    10.4256  10.6140  10.9416  13.9678  14.6097  14.7199  14.8891  15.2885
    15.3174  15.7180  16.0770  16.2004  16.3391  16.4141  17.1121  17.4133
    19.0924  19.3798

     occupation numbers 
     1.0000   1.0000   1.0000   1.0000   1.0000   1.0000   1.0000   1.0000
     1.0000   1.0000   1.0000   1.0000   1.0000   1.0000   1.0000   1.0000
     1.0000   1.0000   1.0000   1.0000   1.0000   1.0000   1.0000   1.0000
     1.0000   1.0000   1.0000   1.0000   1.0000   1.0000   1.0000   1.0000
     1.0000   1.0000   1.0000   1.0000   1.0000   1.0000   1.0000   1.0000
     1.0000   1.0000   1.0000   1.0000   1.0000   1.0000   1.0000   1.0000
     1.0000   1.0000   1.0000   1.0476   0.0101   0.0017   0.0001   0.0000
     0.0000   0.0000   0.0000   0.0000   0.0000   0.0000   0.0000   0.0000
     0.0000   0.0000

          k = 0.2505 0.0668-0.2265 ( 17769 PWs)   bands (ev):

   -89.4731 -73.7560 -62.6328 -62.5655 -49.9646 -49.9382 -49.9172 -39.8610
   -39.8410 -39.8337 -27.0922 -27.0475 -26.9841 -26.9294 -26.8757 -26.8335
    -6.9834  -6.1821  -6.0519  -5.8051  -5.4520  -5.2934  -5.1877  -4.9398
     4.9080   5.1707   5.3735   5.5330   5.6774   5.9798   6.0964   6.2565
     6.9129   7.3982   7.5712   7.7780   7.9009   8.1147   8.5610   8.6554
     8.7251   8.8583   9.0985   9.2687   9.6618   9.8988  10.1647  10.2688
    10.3271  10.5753  10.9719  13.9821  14.3892  14.7827  15.0261  15.1501
    15.4997  15.7158  16.0024  16.1299  16.3623  16.5903  17.0543  17.5381
    19.0149  19.4721

     occupation numbers 
     1.0000   1.0000   1.0000   1.0000   1.0000   1.0000   1.0000   1.0000
     1.0000   1.0000   1.0000   1.0000   1.0000   1.0000   1.0000   1.0000
     1.0000   1.0000   1.0000   1.0000   1.0000   1.0000   1.0000   1.0000
     1.0000   1.0000   1.0000   1.0000   1.0000   1.0000   1.0000   1.0000
     1.0000   1.0000   1.0000   1.0000   1.0000   1.0000   1.0000   1.0000
     1.0000   1.0000   1.0000   1.0000   1.0000   1.0000   1.0000   1.0000
     1.0000   1.0000   1.0000   1.0340   0.1473   0.0005   0.0000   0.0000
     0.0000   0.0000   0.0000   0.0000   0.0000   0.0000   0.0000   0.0000
     0.0000   0.0000

          k = 0.2502 0.0668-0.0756 ( 17754 PWs)   bands (ev):

   -89.4731 -73.7560 -62.6332 -62.5652 -49.9646 -49.9382 -49.9172 -39.8610
   -39.8411 -39.8336 -27.0873 -27.0436 -26.9899 -26.9191 -26.8817 -26.8399
    -7.1988  -6.1179  -5.9892  -5.6982  -5.4129  -5.2947  -5.2277  -4.9422
     4.9035   5.1142   5.2478   5.4523   5.6679   6.3184   6.3753   6.6013
     6.7708   7.2407   7.3496   7.5443   7.7488   8.1820   8.4319   8.5017
     8.8289   9.1141   9.2627   9.3703   9.6346   9.9658   9.9932  10.1344
    10.3947  10.5226  11.0469  13.9081  14.3059  14.7645  14.9264  15.1131
    15.6026  15.7888  15.9894  16.0942  16.3548  16.7019  17.1315  17.5446
    19.2291  19.4523

     occupation numbers 
     1.0000   1.0000   1.0000   1.0000   1.0000   1.0000   1.0000   1.0000
     1.0000   1.0000   1.0000   1.0000   1.0000   1.0000   1.0000   1.0000
     1.0000   1.0000   1.0000   1.0000   1.0000   1.0000   1.0000   1.0000
     1.0000   1.0000   1.0000   1.0000   1.0000   1.0000   1.0000   1.0000
     1.0000   1.0000   1.0000   1.0000   1.0000   1.0000   1.0000   1.0000
     1.0000   1.0000   1.0000   1.0000   1.0000   1.0000   1.0000   1.0000
     1.0000   1.0000   1.0000   1.0796   0.2951   0.0007   0.0000   0.0000
     0.0000   0.0000   0.0000   0.0000   0.0000   0.0000   0.0000   0.0000
     0.0000   0.0000

          k = 0.2498 0.2004 0.0753 ( 17761 PWs)   bands (ev):

   -89.4731 -73.7560 -62.6331 -62.5652 -49.9646 -49.9382 -49.9172 -39.8610
   -39.8411 -39.8337 -27.0868 -27.0422 -26.9894 -26.9198 -26.8831 -26.8404
    -7.0806  -6.2067  -5.9184  -5.7137  -5.6056  -5.3140  -5.1556  -4.9336
     4.9053   5.1719   5.3846   5.4976   5.9610   6.1354   6.4363   6.7672
     6.9905   7.2367   7.3535   7.4662   7.7195   8.0444   8.2792   8.4553
     8.7201   9.0116   9.1726   9.3439   9.5798   9.6838   9.9279  10.0809
    10.4267  10.6929  10.9310  13.7905  14.4724  14.8039  14.8652  15.1182
    15.5323  15.8768  15.9508  16.1494  16.3398  16.6010  17.1721  17.5565
    19.6025  19.8146

     occupation numbers 
     1.0000   1.0000   1.0000   1.0000   1.0000   1.0000   1.0000   1.0000
     1.0000   1.0000   1.0000   1.0000   1.0000   1.0000   1.0000   1.0000
     1.0000   1.0000   1.0000   1.0000   1.0000   1.0000   1.0000   1.0000
     1.0000   1.0000   1.0000   1.0000   1.0000   1.0000   1.0000   1.0000
     1.0000   1.0000   1.0000   1.0000   1.0000   1.0000   1.0000   1.0000
     1.0000   1.0000   1.0000   1.0000   1.0000   1.0000   1.0000   1.0000
     1.0000   1.0000   1.0000   1.0662   0.0620   0.0003   0.0001   0.0000
     0.0000   0.0000   0.0000   0.0000   0.0000   0.0000   0.0000   0.0000
     0.0000   0.0000

          k = 0.2495 0.2004 0.2262 ( 17772 PWs)   bands (ev):

   -89.4731 -73.7560 -62.6327 -62.5655 -49.9646 -49.9382 -49.9172 -39.8610
   -39.8410 -39.8337 -27.0929 -27.0473 -26.9837 -26.9301 -26.8758 -26.8329
    -6.8991  -6.1671  -5.8832  -5.7761  -5.6509  -5.4522  -5.2002  -4.9442
     4.9927   5.1191   5.3121   5.7194   6.0183   6.2283   6.3853   6.6682
     6.8926   7.1014   7.3418   7.5907   7.8596   8.0580   8.2253   8.4835
     8.7943   8.8863   9.1588   9.3283   9.5403   9.7180   9.9052  10.1550
    10.2176  10.7655  10.8220  13.9461  14.4983  14.7034  14.8832  15.0913
    15.4177  15.8240  15.9858  16.1382  16.3238  16.5731  17.1721  17.5153
    19.6224  19.7610

     occupation numbers 
     1.0000   1.0000   1.0000   1.0000   1.0000   1.0000   1.0000   1.0000
     1.0000   1.0000   1.0000   1.0000   1.0000   1.0000   1.0000   1.0000
     1.0000   1.0000   1.0000   1.0000   1.0000   1.0000   1.0000   1.0000
     1.0000   1.0000   1.0000   1.0000   1.0000   1.0000   1.0000   1.0000
     1.0000   1.0000   1.0000   1.0000   1.0000   1.0000   1.0000   1.0000
     1.0000   1.0000   1.0000   1.0000   1.0000   1.0000   1.0000   1.0000
     1.0000   1.0000   1.0000   1.0636   0.0457   0.0022   0.0001   0.0000
     0.0000   0.0000   0.0000   0.0000   0.0000   0.0000   0.0000   0.0000
     0.0000   0.0000

          k = 0.2491 0.2004 0.3771 ( 17779 PWs)   bands (ev):

   -89.4731 -73.7560 -62.6324 -62.5658 -49.9646 -49.9382 -49.9172 -39.8610
   -39.8410 -39.8337 -27.0969 -27.0548 -26.9761 -26.9404 -26.8682 -26.8272
    -6.5905  -6.2532  -6.0606  -5.8295  -5.6393  -5.4220  -5.2339  -4.9601
     4.9245   5.1372   5.2779   5.7435   6.0202   6.1377   6.4474   6.6022
     6.9578   7.1612   7.4538   7.6391   7.9190   8.0258   8.1820   8.2945
     8.7803   8.9014   9.1999   9.3485   9.4954   9.6670   9.9016  10.1977
    10.3309  10.6184  10.9151  14.2027  14.4169  14.7124  14.8258  15.1477
    15.3557  15.7511  16.0618  16.1745  16.3308  16.4858  17.2114  17.3843
    19.3768  19.6546

     occupation numbers 
     1.0000   1.0000   1.0000   1.0000   1.0000   1.0000   1.0000   1.0000
     1.0000   1.0000   1.0000   1.0000   1.0000   1.0000   1.0000   1.0000
     1.0000   1.0000   1.0000   1.0000   1.0000   1.0000   1.0000   1.0000
     1.0000   1.0000   1.0000   1.0000   1.0000   1.0000   1.0000   1.0000
     1.0000   1.0000   1.0000   1.0000   1.0000   1.0000   1.0000   1.0000
     1.0000   1.0000   1.0000   1.0000   1.0000   1.0000   1.0000   1.0000
     1.0000   1.0000   1.0000   0.5556   0.1126   0.0019   0.0002   0.0000
     0.0000   0.0000   0.0000   0.0000   0.0000   0.0000   0.0000   0.0000
     0.0000   0.0000

          k = 0.2509 0.2004-0.3773 ( 17774 PWs)   bands (ev):

   -89.4731 -73.7560 -62.6324 -62.5658 -49.9646 -49.9382 -49.9172 -39.8610
   -39.8410 -39.8337 -27.0970 -27.0548 -26.9761 -26.9402 -26.8684 -26.8271
    -6.5723  -6.2824  -6.1796  -5.8569  -5.5352  -5.3462  -5.1989  -4.9898
     4.8649   5.1071   5.3600   5.6908   5.9218   6.0637   6.2472   6.5358
     6.9820   7.3902   7.5131   7.7074   7.8607   8.0777   8.2700   8.3887
     8.6250   8.8804   9.1309   9.2886   9.6216   9.7583   9.9497  10.2716
    10.4064  10.4929  10.9150  14.1389  14.6174  14.7302  14.8452  15.1710
    15.3239  15.7683  16.0949  16.2612  16.3015  16.4580  17.1194  17.4031
    19.1863  19.5197

     occupation numbers 
     1.0000   1.0000   1.0000   1.0000   1.0000   1.0000   1.0000   1.0000
     1.0000   1.0000   1.0000   1.0000   1.0000   1.0000   1.0000   1.0000
     1.0000   1.0000   1.0000   1.0000   1.0000   1.0000   1.0000   1.0000
     1.0000   1.0000   1.0000   1.0000   1.0000   1.0000   1.0000   1.0000
     1.0000   1.0000   1.0000   1.0000   1.0000   1.0000   1.0000   1.0000
     1.0000   1.0000   1.0000   1.0000   1.0000   1.0000   1.0000   1.0000
     1.0000   1.0000   1.0000   0.7305   0.0090   0.0014   0.0001   0.0000
     0.0000   0.0000   0.0000   0.0000   0.0000   0.0000   0.0000   0.0000
     0.0000   0.0000

          k = 0.2505 0.2004-0.2265 ( 17770 PWs)   bands (ev):

   -89.4731 -73.7560 -62.6328 -62.5655 -49.9646 -49.9382 -49.9172 -39.8610
   -39.8410 -39.8337 -27.0929 -27.0473 -26.9837 -26.9297 -26.8761 -26.8328
    -6.8914  -6.2876  -6.0786  -5.7343  -5.4540  -5.3074  -5.2203  -4.9440
     4.8467   5.0906   5.5806   5.6370   5.7210   6.0845   6.1149   6.4560
     6.8323   7.3704   7.5787   7.6755   7.8430   8.1479   8.4030   8.5486
     8.6767   8.9155   8.9822   9.4898   9.7490   9.8035   9.9446  10.1457
    10.3284  10.4793  10.9185  14.0564  14.5020  14.7309  14.9969  15.1889
    15.5053  15.7178  16.0276  16.2037  16.3223  16.5937  17.0776  17.5207
    19.1729  19.5462

     occupation numbers 
     1.0000   1.0000   1.0000   1.0000   1.0000   1.0000   1.0000   1.0000
     1.0000   1.0000   1.0000   1.0000   1.0000   1.0000   1.0000   1.0000
     1.0000   1.0000   1.0000   1.0000   1.0000   1.0000   1.0000   1.0000
     1.0000   1.0000   1.0000   1.0000   1.0000   1.0000   1.0000   1.0000
     1.0000   1.0000   1.0000   1.0000   1.0000   1.0000   1.0000   1.0000
     1.0000   1.0000   1.0000   1.0000   1.0000   1.0000   1.0000   1.0000
     1.0000   1.0000   1.0000   0.9233   0.0437   0.0014   0.0000   0.0000
     0.0000   0.0000   0.0000   0.0000   0.0000   0.0000   0.0000   0.0000
     0.0000   0.0000

          k = 0.2502 0.2004-0.0756 ( 17762 PWs)   bands (ev):

   -89.4731 -73.7560 -62.6331 -62.5652 -49.9646 -49.9382 -49.9172 -39.8610
   -39.8411 -39.8336 -27.0867 -27.0423 -26.9894 -26.9195 -26.8834 -26.8404
    -7.0788  -6.2645  -6.0244  -5.6516  -5.4806  -5.3184  -5.1761  -4.9058
     4.8518   5.1853   5.3265   5.5509   5.8322   6.1324   6.3776   6.7231
     6.8370   7.0433   7.4137   7.6281   7.8816   8.2051   8.2333   8.5536
     8.7051   8.9592   9.1400   9.4242   9.6703   9.7923   9.9121  10.1259
    10.4099  10.5062  10.9850  13.8979  14.4458  14.7000  14.9332  15.2724
    15.6022  15.7696  15.9816  16.1487  16.3411  16.6224  17.1616  17.5566
    19.3522  19.6223

     occupation numbers 
     1.0000   1.0000   1.0000   1.0000   1.0000   1.0000   1.0000   1.0000
     1.0000   1.0000   1.0000   1.0000   1.0000   1.0000   1.0000   1.0000
     1.0000   1.0000   1.0000   1.0000   1.0000   1.0000   1.0000   1.0000
     1.0000   1.0000   1.0000   1.0000   1.0000   1.0000   1.0000   1.0000
     1.0000   1.0000   1.0000   1.0000   1.0000   1.0000   1.0000   1.0000
     1.0000   1.0000   1.0000   1.0000   1.0000   1.0000   1.0000   1.0000
     1.0000   1.0000   1.0000   1.0817   0.0833   0.0023   0.0000   0.0000
     0.0000   0.0000   0.0000   0.0000   0.0000   0.0000   0.0000   0.0000
     0.0000   0.0000

          k = 0.2498 0.3340 0.0753 ( 17755 PWs)   bands (ev):

   -89.4731 -73.7560 -62.6330 -62.5652 -49.9646 -49.9382 -49.9172 -39.8610
   -39.8411 -39.8337 -27.0862 -27.0409 -26.9890 -26.9202 -26.8847 -26.8410
    -6.8640  -6.4683  -5.8859  -5.7690  -5.6750  -5.2956  -5.1023  -4.8821
     4.9264   5.1720   5.5266   5.6049   5.9902   6.2062   6.3427   6.6466
     6.8602   7.2749   7.3822   7.6636   7.8614   8.0444   8.1495   8.4509
     8.6878   8.8610   9.0544   9.3325   9.4803   9.7167   9.8298  10.0779
    10.4012  10.6831  10.8686  13.9343  14.2796  14.8822  14.9714  15.2489
    15.4788  15.8485  16.0208  16.1642  16.2766  16.5145  17.1490  17.6250
    19.6401  19.7787

     occupation numbers 
     1.0000   1.0000   1.0000   1.0000   1.0000   1.0000   1.0000   1.0000
     1.0000   1.0000   1.0000   1.0000   1.0000   1.0000   1.0000   1.0000
     1.0000   1.0000   1.0000   1.0000   1.0000   1.0000   1.0000   1.0000
     1.0000   1.0000   1.0000   1.0000   1.0000   1.0000   1.0000   1.0000
     1.0000   1.0000   1.0000   1.0000   1.0000   1.0000   1.0000   1.0000
     1.0000   1.0000   1.0000   1.0000   1.0000   1.0000   1.0000   1.0000
     1.0000   1.0000   1.0000   1.0701   0.3550   0.0001   0.0000   0.0000
     0.0000   0.0000   0.0000   0.0000   0.0000   0.0000   0.0000   0.0000
     0.0000   0.0000

          k = 0.2495 0.3340 0.2262 ( 17772 PWs)   bands (ev):

   -89.4731 -73.7560 -62.6326 -62.5655 -49.9646 -49.9382 -49.9172 -39.8610
   -39.8410 -39.8337 -27.0935 -27.0470 -26.9834 -26.9304 -26.8762 -26.8324
    -6.6943  -6.3594  -5.9564  -5.8672  -5.6274  -5.3891  -5.1769  -4.9161
     4.9970   5.1642   5.4519   5.7951   5.9877   6.2109   6.4355   6.6484
     6.8902   7.0912   7.3137   7.5769   7.7689   8.1015   8.2353   8.4954
     8.8377   9.0087   9.0430   9.2814   9.5080   9.6293   9.7556  10.0125
    10.2381  10.7228  10.8491  14.0355  14.4023  14.7963  14.9410  15.1125
    15.3033  15.8256  16.0098  16.1472  16.2685  16.5996  17.1779  17.5297
    19.3978  19.7463

     occupation numbers 
     1.0000   1.0000   1.0000   1.0000   1.0000   1.0000   1.0000   1.0000
     1.0000   1.0000   1.0000   1.0000   1.0000   1.0000   1.0000   1.0000
     1.0000   1.0000   1.0000   1.0000   1.0000   1.0000   1.0000   1.0000
     1.0000   1.0000   1.0000   1.0000   1.0000   1.0000   1.0000   1.0000
     1.0000   1.0000   1.0000   1.0000   1.0000   1.0000   1.0000   1.0000
     1.0000   1.0000   1.0000   1.0000   1.0000   1.0000   1.0000   1.0000
     1.0000   1.0000   1.0000   0.9612   0.1301   0.0004   0.0000   0.0000
     0.0000   0.0000   0.0000   0.0000   0.0000   0.0000   0.0000   0.0000
     0.0000   0.0000

          k = 0.2491 0.3340 0.3771 ( 17782 PWs)   bands (ev):

   -89.4730 -73.7560 -62.6323 -62.5658 -49.9646 -49.9383 -49.9172 -39.8610
   -39.8410 -39.8337 -27.0983 -27.0560 -26.9760 -26.9403 -26.8672 -26.8259
    -6.4719  -6.2568  -6.1139  -5.9730  -5.5446  -5.3699  -5.3132  -4.9638
     4.9076   5.2425   5.4352   5.7369   5.9556   6.0742   6.5653   6.6420
     7.0203   7.1875   7.5013   7.5936   7.7910   7.8940   8.1707   8.3570
     8.8439   9.0360   9.2245   9.2902   9.3978   9.4989   9.7472  10.1655
    10.2290  10.6085  10.9164  14.2972  14.5140  14.6197  14.8072  15.0503
    15.3544  15.7821  16.0874  16.1669  16.3284  16.5188  17.2542  17.3637
    19.1250  19.6899

     occupation numbers 
     1.0000   1.0000   1.0000   1.0000   1.0000   1.0000   1.0000   1.0000
     1.0000   1.0000   1.0000   1.0000   1.0000   1.0000   1.0000   1.0000
     1.0000   1.0000   1.0000   1.0000   1.0000   1.0000   1.0000   1.0000
     1.0000   1.0000   1.0000   1.0000   1.0000   1.0000   1.0000   1.0000
     1.0000   1.0000   1.0000   1.0000   1.0000   1.0000   1.0000   1.0000
     1.0000   1.0000   1.0000   1.0000   1.0000   1.0000   1.0000   1.0000
     1.0000   1.0000   1.0000   0.3143   0.0377   0.0087   0.0003   0.0000
     0.0000   0.0000   0.0000   0.0000   0.0000   0.0000   0.0000   0.0000
     0.0000   0.0000

          k = 0.2509 0.3340-0.3773 ( 17781 PWs)   bands (ev):

   -89.4730 -73.7560 -62.6324 -62.5658 -49.9646 -49.9383 -49.9172 -39.8610
   -39.8410 -39.8337 -27.0984 -27.0560 -26.9759 -26.9401 -26.8673 -26.8259
    -6.5278  -6.3535  -6.0518  -5.9019  -5.5253  -5.4172  -5.1700  -5.0358
     4.8139   5.1477   5.5172   5.6620   5.9203   6.0626   6.5122   6.7635
     7.0702   7.2253   7.3925   7.5858   7.8124   7.9180   8.2227   8.4458
     8.6550   8.9863   9.1554   9.2905   9.5522   9.6208   9.8190  10.2449
    10.3506  10.4002  10.8720  14.2815  14.5723  14.7090  14.9425  15.0349
    15.3520  15.7928  16.1190  16.2532  16.3389  16.4700  17.1310  17.4019
    18.9895  19.6360

     occupation numbers 
     1.0000   1.0000   1.0000   1.0000   1.0000   1.0000   1.0000   1.0000
     1.0000   1.0000   1.0000   1.0000   1.0000   1.0000   1.0000   1.0000
     1.0000   1.0000   1.0000   1.0000   1.0000   1.0000   1.0000   1.0000
     1.0000   1.0000   1.0000   1.0000   1.0000   1.0000   1.0000   1.0000
     1.0000   1.0000   1.0000   1.0000   1.0000   1.0000   1.0000   1.0000
     1.0000   1.0000   1.0000   1.0000   1.0000   1.0000   1.0000   1.0000
     1.0000   1.0000   1.0000   0.3505   0.0174   0.0020   0.0000   0.0000
     0.0000   0.0000   0.0000   0.0000   0.0000   0.0000   0.0000   0.0000
     0.0000   0.0000

          k = 0.2505 0.3340-0.2265 ( 17766 PWs)   bands (ev):

   -89.4731 -73.7560 -62.6328 -62.5655 -49.9646 -49.9382 -49.9172 -39.8610
   -39.8410 -39.8337 -27.0936 -27.0471 -26.9833 -26.9301 -26.8765 -26.8322
    -6.7367  -6.4892  -5.9989  -5.7182  -5.5180  -5.3278  -5.2067  -4.9434
     4.7416   5.0908   5.6468   5.7088   5.9011   6.1671   6.3786   6.6076
     6.8415   7.0830   7.4233   7.6395   7.8958   8.0314   8.3273   8.5170
     8.7217   8.7983   9.0494   9.5123   9.6220   9.7986   9.9497  10.0497
    10.3072  10.3846  10.8484  14.1522  14.5328  14.6817  14.9454  15.2980
    15.5146  15.7480  16.0910  16.2101  16.2984  16.5579  17.1263  17.5094
    19.0642  19.6317

     occupation numbers 
     1.0000   1.0000   1.0000   1.0000   1.0000   1.0000   1.0000   1.0000
     1.0000   1.0000   1.0000   1.0000   1.0000   1.0000   1.0000   1.0000
     1.0000   1.0000   1.0000   1.0000   1.0000   1.0000   1.0000   1.0000
     1.0000   1.0000   1.0000   1.0000   1.0000   1.0000   1.0000   1.0000
     1.0000   1.0000   1.0000   1.0000   1.0000   1.0000   1.0000   1.0000
     1.0000   1.0000   1.0000   1.0000   1.0000   1.0000   1.0000   1.0000
     1.0000   1.0000   1.0000   0.6949   0.0296   0.0032   0.0000   0.0000
     0.0000   0.0000   0.0000   0.0000   0.0000   0.0000   0.0000   0.0000
     0.0000   0.0000

          k = 0.2502 0.3340-0.0756 ( 17766 PWs)   bands (ev):

   -89.4731 -73.7560 -62.6331 -62.5652 -49.9646 -49.9382 -49.9172 -39.8610
   -39.8411 -39.8336 -27.0862 -27.0410 -26.9889 -26.9200 -26.8850 -26.8409
    -6.8783  -6.5175  -5.9839  -5.6540  -5.5386  -5.3650  -5.1023  -4.8786
     4.7895   5.1584   5.5074   5.7208   5.9145   6.1490   6.4373   6.6149
     6.8296   7.0691   7.3790   7.6632   7.9336   8.0480   8.4029   8.4397
     8.7152   8.7686   9.1453   9.2086   9.5823   9.7571   9.9323  10.1307
    10.3906  10.5006  10.9122  14.0373  14.2941  14.7658  14.9350  15.4540
    15.5901  15.7663  16.0685  16.1807  16.2990  16.4792  17.1905  17.5961
    19.3653  19.7215

     occupation numbers 
     1.0000   1.0000   1.0000   1.0000   1.0000   1.0000   1.0000   1.0000
     1.0000   1.0000   1.0000   1.0000   1.0000   1.0000   1.0000   1.0000
     1.0000   1.0000   1.0000   1.0000   1.0000   1.0000   1.0000   1.0000
     1.0000   1.0000   1.0000   1.0000   1.0000   1.0000   1.0000   1.0000
     1.0000   1.0000   1.0000   1.0000   1.0000   1.0000   1.0000   1.0000
     1.0000   1.0000   1.0000   1.0000   1.0000   1.0000   1.0000   1.0000
     1.0000   1.0000   1.0000   0.9581   0.3212   0.0007   0.0000   0.0000
     0.0000   0.0000   0.0000   0.0000   0.0000   0.0000   0.0000   0.0000
     0.0000   0.0000

          k = 0.4165 0.0668 0.0752 ( 17743 PWs)   bands (ev):

   -89.4731 -73.7560 -62.6331 -62.5652 -49.9646 -49.9382 -49.9172 -39.8610
   -39.8410 -39.8337 -27.0870 -27.0432 -26.9921 -26.9210 -26.8814 -26.8397
    -6.8754  -6.2259  -6.0556  -5.7385  -5.5344  -5.3211  -5.2264  -4.9817
     4.9649   5.1778   5.3285   5.6176   5.9628   6.1518   6.4851   6.6293
     6.8206   7.1880   7.3101   7.3653   7.7125   8.1142   8.3422   8.6661
     8.7727   8.8937   9.2008   9.5228   9.5994   9.7175   9.8838   9.9524
    10.4335  10.8089  11.0622  14.0788  14.4695  14.6532  14.8648  15.0746
    15.5526  15.9967  16.0207  16.1001  16.2714  16.4952  17.2893  17.4021
    19.5377  19.9507

     occupation numbers 
     1.0000   1.0000   1.0000   1.0000   1.0000   1.0000   1.0000   1.0000
     1.0000   1.0000   1.0000   1.0000   1.0000   1.0000   1.0000   1.0000
     1.0000   1.0000   1.0000   1.0000   1.0000   1.0000   1.0000   1.0000
     1.0000   1.0000   1.0000   1.0000   1.0000   1.0000   1.0000   1.0000
     1.0000   1.0000   1.0000   1.0000   1.0000   1.0000   1.0000   1.0000
     1.0000   1.0000   1.0000   1.0000   1.0000   1.0000   1.0000   1.0000
     1.0000   1.0000   1.0000   0.8770   0.0641   0.0051   0.0001   0.0000
     0.0000   0.0000   0.0000   0.0000   0.0000   0.0000   0.0000   0.0000
     0.0000   0.0000

          k = 0.4161 0.0668 0.2261 ( 17748 PWs)   bands (ev):

   -89.4731 -73.7560 -62.6327 -62.5655 -49.9646 -49.9382 -49.9172 -39.8610
   -39.8410 -39.8337 -27.0919 -27.0472 -26.9861 -26.9314 -26.8753 -26.8333
    -6.7107  -6.1704  -5.9702  -5.8117  -5.7197  -5.4174  -5.1951  -4.9826
     4.9330   5.1933   5.3616   5.7992   5.9109   6.0976   6.2704   6.5768
     6.6878   7.1763   7.3223   7.6647   7.7700   8.0384   8.3016   8.5008
     8.7166   9.1235   9.2780   9.4727   9.6137   9.8175  10.0454  10.1487
    10.1729  10.7231  11.0234  14.0873  14.2877  14.5724  14.9588  15.1814
    15.6473  15.9032  16.0294  16.1294  16.3369  16.4274  17.3192  17.3781
    19.4390  19.7722

     occupation numbers 
     1.0000   1.0000   1.0000   1.0000   1.0000   1.0000   1.0000   1.0000
     1.0000   1.0000   1.0000   1.0000   1.0000   1.0000   1.0000   1.0000
     1.0000   1.0000   1.0000   1.0000   1.0000   1.0000   1.0000   1.0000
     1.0000   1.0000   1.0000   1.0000   1.0000   1.0000   1.0000   1.0000
     1.0000   1.0000   1.0000   1.0000   1.0000   1.0000   1.0000   1.0000
     1.0000   1.0000   1.0000   1.0000   1.0000   1.0000   1.0000   1.0000
     1.0000   1.0000   1.0000   0.8581   0.3360   0.0174   0.0000   0.0000
     0.0000   0.0000   0.0000   0.0000   0.0000   0.0000   0.0000   0.0000
     0.0000   0.0000

          k = 0.4158 0.0668 0.3770 ( 17764 PWs)   bands (ev):

   -89.4731 -73.7560 -62.6323 -62.5657 -49.9646 -49.9382 -49.9172 -39.8610
   -39.8410 -39.8337 -27.0951 -27.0533 -26.9781 -26.9423 -26.8692 -26.8282
    -6.4259  -6.1599  -5.9582  -5.8884  -5.7793  -5.7195  -5.1230  -4.9252
     4.9869   5.1733   5.2880   5.5007   5.8757   6.0072   6.5593   6.5882
     6.8294   7.1277   7.2814   7.5812   7.8455   8.1057   8.2876   8.5020
     8.5959   9.0875   9.3099   9.4318   9.7179   9.8469  10.0526  10.2568
    10.3882  10.5748  11.0520  14.0345  14.2655  14.6678  14.8544  15.3496
    15.6534  15.7930  16.0796  16.1462  16.3612  16.4139  17.2779  17.4293
    19.2206  19.3030

     occupation numbers 
     1.0000   1.0000   1.0000   1.0000   1.0000   1.0000   1.0000   1.0000
     1.0000   1.0000   1.0000   1.0000   1.0000   1.0000   1.0000   1.0000
     1.0000   1.0000   1.0000   1.0000   1.0000   1.0000   1.0000   1.0000
     1.0000   1.0000   1.0000   1.0000   1.0000   1.0000   1.0000   1.0000
     1.0000   1.0000   1.0000   1.0000   1.0000   1.0000   1.0000   1.0000
     1.0000   1.0000   1.0000   1.0000   1.0000   1.0000   1.0000   1.0000
     1.0000   1.0000   1.0000   0.9630   0.3894   0.0040   0.0001   0.0000
     0.0000   0.0000   0.0000   0.0000   0.0000   0.0000   0.0000   0.0000
     0.0000   0.0000

          k = 0.4175 0.0668-0.3774 ( 17759 PWs)   bands (ev):

   -89.4731 -73.7560 -62.6324 -62.5657 -49.9646 -49.9382 -49.9172 -39.8610
   -39.8410 -39.8337 -27.0951 -27.0533 -26.9781 -26.9421 -26.8693 -26.8282
    -6.3579  -6.1536  -6.1136  -5.9568  -5.8402  -5.5060  -5.1255  -4.9098
     5.0167   5.2267   5.3400   5.4375   5.6733   5.9409   6.2941   6.7024
     6.9039   7.0914   7.4062   7.6641   7.9696   8.1352   8.2688   8.4622
     8.6296   9.0527   9.2457   9.4143   9.6779   9.9317  10.1073  10.2251
    10.4544  10.5676  11.0615  13.9387  14.3858  14.7209  14.9049  15.3661
    15.5426  15.8197  16.1197  16.1438  16.2970  16.4407  17.1943  17.5155
    19.0202  19.2489

     occupation numbers 
     1.0000   1.0000   1.0000   1.0000   1.0000   1.0000   1.0000   1.0000
     1.0000   1.0000   1.0000   1.0000   1.0000   1.0000   1.0000   1.0000
     1.0000   1.0000   1.0000   1.0000   1.0000   1.0000   1.0000   1.0000
     1.0000   1.0000   1.0000   1.0000   1.0000   1.0000   1.0000   1.0000
     1.0000   1.0000   1.0000   1.0000   1.0000   1.0000   1.0000   1.0000
     1.0000   1.0000   1.0000   1.0000   1.0000   1.0000   1.0000   1.0000
     1.0000   1.0000   1.0000   1.0678   0.1520   0.0016   0.0000   0.0000
     0.0000   0.0000   0.0000   0.0000   0.0000   0.0000   0.0000   0.0000
     0.0000   0.0000

          k = 0.4172 0.0668-0.2265 ( 17754 PWs)   bands (ev):

   -89.4731 -73.7560 -62.6328 -62.5655 -49.9646 -49.9382 -49.9172 -39.8610
   -39.8410 -39.8337 -27.0919 -27.0471 -26.9861 -26.9312 -26.8755 -26.8333
    -6.6686  -6.2273  -6.1008  -5.8361  -5.6853  -5.2946  -5.1916  -4.9419
     4.9837   5.2476   5.4960   5.6678   5.7272   5.8134   6.0073   6.5950
     6.6890   7.1439   7.5886   7.7040   7.9790   8.1208   8.3435   8.5057
     8.7154   9.0874   9.3083   9.4936   9.6357   9.8669   9.9828  10.0437
    10.3232  10.6558  11.0850  14.0056  14.4385  14.6753  15.0504  15.2000
    15.5403  15.9115  16.0494  16.1070  16.1802  16.5431  17.1486  17.5601
    19.0804  19.5408

     occupation numbers 
     1.0000   1.0000   1.0000   1.0000   1.0000   1.0000   1.0000   1.0000
     1.0000   1.0000   1.0000   1.0000   1.0000   1.0000   1.0000   1.0000
     1.0000   1.0000   1.0000   1.0000   1.0000   1.0000   1.0000   1.0000
     1.0000   1.0000   1.0000   1.0000   1.0000   1.0000   1.0000   1.0000
     1.0000   1.0000   1.0000   1.0000   1.0000   1.0000   1.0000   1.0000
     1.0000   1.0000   1.0000   1.0000   1.0000   1.0000   1.0000   1.0000
     1.0000   1.0000   1.0000   1.0063   0.0900   0.0036   0.0000   0.0000
     0.0000   0.0000   0.0000   0.0000   0.0000   0.0000   0.0000   0.0000
     0.0000   0.0000

          k = 0.4168 0.0668-0.0757 ( 17741 PWs)   bands (ev):

   -89.4731 -73.7560 -62.6331 -62.5652 -49.9646 -49.9382 -49.9172 -39.8610
   -39.8410 -39.8337 -27.0869 -27.0432 -26.9921 -26.9209 -26.8814 -26.8397
    -6.8626  -6.2557  -6.0960  -5.7442  -5.4954  -5.3303  -5.2167  -4.9420
     4.9902   5.1983   5.3224   5.6804   5.7869   6.0280   6.3940   6.5997
     6.7852   7.1412   7.3770   7.5267   7.7516   8.1148   8.4027   8.5917
     8.8544   9.1197   9.2363   9.4375   9.5883   9.7184   9.8523   9.9024
    10.4697  10.7188  11.1189  14.1127  14.4879  14.6667  14.9149  15.1070
    15.5449  15.9687  16.0201  16.0527  16.2106  16.5711  17.2008  17.4995
    19.3376  19.8316

     occupation numbers 
     1.0000   1.0000   1.0000   1.0000   1.0000   1.0000   1.0000   1.0000
     1.0000   1.0000   1.0000   1.0000   1.0000   1.0000   1.0000   1.0000
     1.0000   1.0000   1.0000   1.0000   1.0000   1.0000   1.0000   1.0000
     1.0000   1.0000   1.0000   1.0000   1.0000   1.0000   1.0000   1.0000
     1.0000   1.0000   1.0000   1.0000   1.0000   1.0000   1.0000   1.0000
     1.0000   1.0000   1.0000   1.0000   1.0000   1.0000   1.0000   1.0000
     1.0000   1.0000   1.0000   0.7978   0.0518   0.0041   0.0000   0.0000
     0.0000   0.0000   0.0000   0.0000   0.0000   0.0000   0.0000   0.0000
     0.0000   0.0000

          k = 0.4165 0.2004 0.0752 ( 17742 PWs)   bands (ev):

   -89.4731 -73.7560 -62.6330 -62.5652 -49.9646 -49.9382 -49.9172 -39.8610
   -39.8410 -39.8337 -27.0865 -27.0419 -26.9916 -26.9215 -26.8829 -26.8403
    -6.7883  -6.3505  -6.0090  -5.7183  -5.5655  -5.3756  -5.2234  -4.9357
     4.7426   5.1636   5.5430   5.7055   5.8642   6.1889   6.5672   6.7133
     7.0940   7.1819   7.3247   7.4594   7.7542   8.0391   8.1862   8.4770
     8.5897   9.0352   9.1197   9.3587   9.4506   9.8022   9.8855  10.0767
    10.3972  10.7769  11.0292  13.9799  14.2830  14.7405  14.9227  15.0400
    15.6839  15.9459  16.0603  16.1270  16.2157  16.4575  17.2788  17.4500
    19.5509  19.8479

     occupation numbers 
     1.0000   1.0000   1.0000   1.0000   1.0000   1.0000   1.0000   1.0000
     1.0000   1.0000   1.0000   1.0000   1.0000   1.0000   1.0000   1.0000
     1.0000   1.0000   1.0000   1.0000   1.0000   1.0000   1.0000   1.0000
     1.0000   1.0000   1.0000   1.0000   1.0000   1.0000   1.0000   1.0000
     1.0000   1.0000   1.0000   1.0000   1.0000   1.0000   1.0000   1.0000
     1.0000   1.0000   1.0000   1.0000   1.0000   1.0000   1.0000   1.0000
     1.0000   1.0000   1.0000   1.0363   0.3468   0.0011   0.0000   0.0000
     0.0000   0.0000   0.0000   0.0000   0.0000   0.0000   0.0000   0.0000
     0.0000   0.0000

          k = 0.4161 0.2004 0.2261 ( 17754 PWs)   bands (ev):

   -89.4731 -73.7560 -62.6326 -62.5654 -49.9646 -49.9382 -49.9172 -39.8610
   -39.8410 -39.8337 -27.0926 -27.0469 -26.9858 -26.9318 -26.8758 -26.8327
    -6.6358  -6.3044  -5.9014  -5.8660  -5.6705  -5.4209  -5.1990  -4.9838
     4.8203   5.2714   5.4684   5.6541   5.8172   5.9976   6.4487   6.6833
     6.9842   7.1775   7.3564   7.4964   7.8875   8.1094   8.1997   8.5829
     8.8290   9.0815   9.1818   9.3514   9.5102   9.7222   9.9489  10.1053
    10.2060  10.6897  11.0032  13.9753  14.3444  14.5298  14.9246  15.1481
    15.6127  15.8734  16.0468  16.1371  16.2889  16.4587  17.3432  17.4185
    19.3505  19.6969

     occupation numbers 
     1.0000   1.0000   1.0000   1.0000   1.0000   1.0000   1.0000   1.0000
     1.0000   1.0000   1.0000   1.0000   1.0000   1.0000   1.0000   1.0000
     1.0000   1.0000   1.0000   1.0000   1.0000   1.0000   1.0000   1.0000
     1.0000   1.0000   1.0000   1.0000   1.0000   1.0000   1.0000   1.0000
     1.0000   1.0000   1.0000   1.0000   1.0000   1.0000   1.0000   1.0000
     1.0000   1.0000   1.0000   1.0000   1.0000   1.0000   1.0000   1.0000
     1.0000   1.0000   1.0000   1.0407   0.2185   0.0308   0.0000   0.0000
     0.0000   0.0000   0.0000   0.0000   0.0000   0.0000   0.0000   0.0000
     0.0000   0.0000

          k = 0.4158 0.2004 0.3770 ( 17763 PWs)   bands (ev):

   -89.4731 -73.7560 -62.6323 -62.5657 -49.9646 -49.9382 -49.9172 -39.8610
   -39.8410 -39.8337 -27.0965 -27.0545 -26.9780 -26.9422 -26.8682 -26.8270
    -6.4041  -6.2409  -6.0673  -5.8793  -5.6608  -5.5658  -5.1860  -4.9782
     4.9573   5.1826   5.3476   5.4615   5.7893   5.9196   6.5472   6.6488
     6.9689   7.1715   7.4416   7.6217   7.9220   8.0849   8.2383   8.6303
     8.7928   9.0282   9.1872   9.3293   9.6344   9.8203   9.9812  10.1522
    10.2882  10.5258  11.0300  14.0209  14.2402  14.5832  14.8202  15.3150
    15.5423  15.7531  16.0552  16.1264  16.3704  16.4795  17.3276  17.4537
    19.2162  19.2591

     occupation numbers 
     1.0000   1.0000   1.0000   1.0000   1.0000   1.0000   1.0000   1.0000
     1.0000   1.0000   1.0000   1.0000   1.0000   1.0000   1.0000   1.0000
     1.0000   1.0000   1.0000   1.0000   1.0000   1.0000   1.0000   1.0000
     1.0000   1.0000   1.0000   1.0000   1.0000   1.0000   1.0000   1.0000
     1.0000   1.0000   1.0000   1.0000   1.0000   1.0000   1.0000   1.0000
     1.0000   1.0000   1.0000   1.0000   1.0000   1.0000   1.0000   1.0000
     1.0000   1.0000   1.0000   0.9847   0.4540   0.0149   0.0002   0.0000
     0.0000   0.0000   0.0000   0.0000   0.0000   0.0000   0.0000   0.0000
     0.0000   0.0000

          k = 0.4175 0.2004-0.3774 ( 17765 PWs)   bands (ev):

   -89.4731 -73.7560 -62.6323 -62.5657 -49.9646 -49.9382 -49.9172 -39.8610
   -39.8410 -39.8337 -27.0965 -27.0545 -26.9780 -26.9421 -26.8683 -26.8269
    -6.4126  -6.2288  -6.0977  -5.9374  -5.6807  -5.4417  -5.1876  -4.9818
     4.8895   5.2052   5.3623   5.4703   5.7086   5.9747   6.3263   6.6986
     7.0204   7.2369   7.3779   7.7081   7.8936   8.1531   8.2885   8.5482
     8.8201   8.9904   9.1860   9.3332   9.6279   9.9237  10.0257  10.1028
    10.3239  10.4959  11.0344  13.9391  14.3634  14.6699  14.7980  15.2756
    15.5127  15.8076  16.0688  16.1479  16.3725  16.4651  17.2469  17.5144
    19.0210  19.3207

     occupation numbers 
     1.0000   1.0000   1.0000   1.0000   1.0000   1.0000   1.0000   1.0000
     1.0000   1.0000   1.0000   1.0000   1.0000   1.0000   1.0000   1.0000
     1.0000   1.0000   1.0000   1.0000   1.0000   1.0000   1.0000   1.0000
     1.0000   1.0000   1.0000   1.0000   1.0000   1.0000   1.0000   1.0000
     1.0000   1.0000   1.0000   1.0000   1.0000   1.0000   1.0000   1.0000
     1.0000   1.0000   1.0000   1.0000   1.0000   1.0000   1.0000   1.0000
     1.0000   1.0000   1.0000   1.0676   0.1860   0.0039   0.0004   0.0000
     0.0000   0.0000   0.0000   0.0000   0.0000   0.0000   0.0000   0.0000
     0.0000   0.0000

          k = 0.4172 0.2004-0.2265 ( 17752 PWs)   bands (ev):

   -89.4731 -73.7560 -62.6327 -62.5654 -49.9646 -49.9382 -49.9172 -39.8610
   -39.8410 -39.8337 -27.0926 -27.0469 -26.9858 -26.9316 -26.8759 -26.8326
    -6.6242  -6.3629  -6.0211  -5.8237  -5.6105  -5.3235  -5.2167  -4.9711
     4.7530   5.2123   5.5263   5.6826   5.8032   5.9865   6.2173   6.5860
     6.8117   7.2977   7.4900   7.6214   7.8832   8.1055   8.2925   8.5849
     8.8456   9.0464   9.1370   9.5306   9.5887   9.7740   9.9027  10.0096
    10.2644  10.6100  11.0630  13.9406  14.4699  14.6097  14.9233  15.1406
    15.6128  15.8920  16.0845  16.1325  16.2126  16.5478  17.2109  17.5210
    19.1125  19.6559

     occupation numbers 
     1.0000   1.0000   1.0000   1.0000   1.0000   1.0000   1.0000   1.0000
     1.0000   1.0000   1.0000   1.0000   1.0000   1.0000   1.0000   1.0000
     1.0000   1.0000   1.0000   1.0000   1.0000   1.0000   1.0000   1.0000
     1.0000   1.0000   1.0000   1.0000   1.0000   1.0000   1.0000   1.0000
     1.0000   1.0000   1.0000   1.0000   1.0000   1.0000   1.0000   1.0000
     1.0000   1.0000   1.0000   1.0000   1.0000   1.0000   1.0000   1.0000
     1.0000   1.0000   1.0000   1.0668   0.0638   0.0101   0.0000   0.0000
     0.0000   0.0000   0.0000   0.0000   0.0000   0.0000   0.0000   0.0000
     0.0000   0.0000

          k = 0.4168 0.2004-0.0757 ( 17739 PWs)   bands (ev):

   -89.4731 -73.7560 -62.6330 -62.5652 -49.9646 -49.9382 -49.9172 -39.8610
   -39.8410 -39.8337 -27.0865 -27.0419 -26.9916 -26.9213 -26.8830 -26.8402
    -6.7840  -6.3781  -6.0519  -5.6944  -5.5215  -5.3569  -5.2490  -4.9164
     4.7152   5.1578   5.4658   5.7488   5.9943   6.1360   6.4939   6.5725
     6.8642   7.2782   7.3469   7.6300   7.7702   8.0411   8.2934   8.3889
     8.6989   9.0246   9.1199   9.3620   9.5616   9.7989   9.8912   9.9842
    10.4122  10.6988  11.0950  13.9891  14.3464  14.6964  14.9237  15.1013
    15.7081  15.9438  16.0318  16.0830  16.2066  16.5362  17.2485  17.4724
    19.4289  19.7597

     occupation numbers 
     1.0000   1.0000   1.0000   1.0000   1.0000   1.0000   1.0000   1.0000
     1.0000   1.0000   1.0000   1.0000   1.0000   1.0000   1.0000   1.0000
     1.0000   1.0000   1.0000   1.0000   1.0000   1.0000   1.0000   1.0000
     1.0000   1.0000   1.0000   1.0000   1.0000   1.0000   1.0000   1.0000
     1.0000   1.0000   1.0000   1.0000   1.0000   1.0000   1.0000   1.0000
     1.0000   1.0000   1.0000   1.0000   1.0000   1.0000   1.0000   1.0000
     1.0000   1.0000   1.0000   1.0265   0.2149   0.0025   0.0000   0.0000
     0.0000   0.0000   0.0000   0.0000   0.0000   0.0000   0.0000   0.0000
     0.0000   0.0000

          k = 0.4165 0.3340 0.0752 ( 17764 PWs)   bands (ev):

   -89.4731 -73.7560 -62.6329 -62.5652 -49.9646 -49.9382 -49.9172 -39.8610
   -39.8410 -39.8337 -27.0860 -27.0407 -26.9911 -26.9220 -26.8845 -26.8408
    -6.6617  -6.4714  -5.9645  -5.7485  -5.6537  -5.3523  -5.2183  -4.9030
     4.5842   5.1920   5.5497   5.6996   6.0094   6.2534   6.6748   6.9628
     7.0830   7.2699   7.3194   7.4858   7.8401   7.9380   8.0871   8.4295
     8.5376   8.7412   8.9328   9.1934   9.4676   9.8653   9.9575  10.2371
    10.3717  10.7153  10.9883  13.9077  14.0775  14.8526  14.9482  15.0263
    15.7739  15.8764  16.0566  16.1910  16.2497  16.3817  17.2360  17.5233
    19.3196  19.9944

     occupation numbers 
     1.0000   1.0000   1.0000   1.0000   1.0000   1.0000   1.0000   1.0000
     1.0000   1.0000   1.0000   1.0000   1.0000   1.0000   1.0000   1.0000
     1.0000   1.0000   1.0000   1.0000   1.0000   1.0000   1.0000   1.0000
     1.0000   1.0000   1.0000   1.0000   1.0000   1.0000   1.0000   1.0000
     1.0000   1.0000   1.0000   1.0000   1.0000   1.0000   1.0000   1.0000
     1.0000   1.0000   1.0000   1.0000   1.0000   1.0000   1.0000   1.0000
     1.0000   1.0000   1.0000   1.0797   0.8799   0.0001   0.0000   0.0000
     0.0000   0.0000   0.0000   0.0000   0.0000   0.0000   0.0000   0.0000
     0.0000   0.0000

          k = 0.4161 0.3340 0.2261 ( 17755 PWs)   bands (ev):

   -89.4731 -73.7560 -62.6325 -62.5654 -49.9646 -49.9382 -49.9172 -39.8610
   -39.8410 -39.8337 -27.0932 -27.0468 -26.9855 -26.9321 -26.8761 -26.8321
    -6.5391  -6.4000  -5.9379  -5.8229  -5.6978  -5.4335  -5.1693  -4.9847
     4.7045   5.2220   5.5410   5.7000   5.8659   5.9619   6.5002   6.9483
     7.0036   7.1986   7.3515   7.5052   7.8488   7.9708   8.3614   8.7110
     8.8076   8.9761   9.1496   9.1923   9.4991   9.6334   9.8072  10.0710
    10.3074  10.6484  10.9631  13.8731  14.2563  14.6163  14.8683  15.1674
    15.5347  15.7948  16.0847  16.1675  16.2605  16.4850  17.3315  17.4860
    19.2786  19.6358

     occupation numbers 
     1.0000   1.0000   1.0000   1.0000   1.0000   1.0000   1.0000   1.0000
     1.0000   1.0000   1.0000   1.0000   1.0000   1.0000   1.0000   1.0000
     1.0000   1.0000   1.0000   1.0000   1.0000   1.0000   1.0000   1.0000
     1.0000   1.0000   1.0000   1.0000   1.0000   1.0000   1.0000   1.0000
     1.0000   1.0000   1.0000   1.0000   1.0000   1.0000   1.0000   1.0000
     1.0000   1.0000   1.0000   1.0000   1.0000   1.0000   1.0000   1.0000
     1.0000   1.0000   1.0000   1.0833   0.4125   0.0091   0.0001   0.0000
     0.0000   0.0000   0.0000   0.0000   0.0000   0.0000   0.0000   0.0000
     0.0000   0.0000

          k = 0.4158 0.3340 0.3770 ( 17766 PWs)   bands (ev):

   -89.4731 -73.7560 -62.6322 -62.5656 -49.9646 -49.9382 -49.9172 -39.8610
   -39.8410 -39.8337 -27.0979 -27.0557 -26.9779 -26.9421 -26.8671 -26.8257
    -6.4293  -6.2652  -6.0647  -5.9041  -5.5763  -5.4665  -5.2391  -5.0393
     4.8847   5.0894   5.3601   5.5403   5.7546   6.0810   6.4402   6.7420
     7.0187   7.2463   7.4939   7.5973   7.8859   8.1727   8.3324   8.5552
     8.9406   9.0751   9.1394   9.3726   9.5097   9.7827   9.8605   9.9756
    10.2372  10.4892  10.9954  13.9557  14.2326  14.5227  14.7619  15.2921
    15.4555  15.6895  16.0337  16.1195  16.3836  16.5431  17.3595  17.4778
    19.1978  19.2485

     occupation numbers 
     1.0000   1.0000   1.0000   1.0000   1.0000   1.0000   1.0000   1.0000
     1.0000   1.0000   1.0000   1.0000   1.0000   1.0000   1.0000   1.0000
     1.0000   1.0000   1.0000   1.0000   1.0000   1.0000   1.0000   1.0000
     1.0000   1.0000   1.0000   1.0000   1.0000   1.0000   1.0000   1.0000
     1.0000   1.0000   1.0000   1.0000   1.0000   1.0000   1.0000   1.0000
     1.0000   1.0000   1.0000   1.0000   1.0000   1.0000   1.0000   1.0000
     1.0000   1.0000   1.0000   1.0571   0.4743   0.0337   0.0008   0.0000
     0.0000   0.0000   0.0000   0.0000   0.0000   0.0000   0.0000   0.0000
     0.0000   0.0000

          k = 0.4175 0.3340-0.3774 ( 17765 PWs)   bands (ev):

   -89.4731 -73.7560 -62.6322 -62.5656 -49.9646 -49.9382 -49.9172 -39.8610
   -39.8410 -39.8337 -27.0979 -27.0557 -26.9779 -26.9421 -26.8672 -26.8257
    -6.4782  -6.2664  -6.0433  -5.9243  -5.5243  -5.4232  -5.2525  -5.0603
     4.7570   5.1488   5.3423   5.5451   5.7907   6.0327   6.4539   6.7475
     7.1118   7.2192   7.5099   7.5958   7.7288   8.1971   8.3396   8.5740
     8.8974   9.0886   9.2347   9.3086   9.5891   9.7705   9.9307  10.0362
    10.1850  10.4454  10.9875  13.9303  14.3352  14.5711  14.7397  15.1899
    15.5161  15.7833  16.0030  16.1550  16.4503  16.4913  17.2849  17.5204
    18.9403  19.3784

     occupation numbers 
     1.0000   1.0000   1.0000   1.0000   1.0000   1.0000   1.0000   1.0000
     1.0000   1.0000   1.0000   1.0000   1.0000   1.0000   1.0000   1.0000
     1.0000   1.0000   1.0000   1.0000   1.0000   1.0000   1.0000   1.0000
     1.0000   1.0000   1.0000   1.0000   1.0000   1.0000   1.0000   1.0000
     1.0000   1.0000   1.0000   1.0000   1.0000   1.0000   1.0000   1.0000
     1.0000   1.0000   1.0000   1.0000   1.0000   1.0000   1.0000   1.0000
     1.0000   1.0000   1.0000   1.0719   0.2357   0.0177   0.0012   0.0000
     0.0000   0.0000   0.0000   0.0000   0.0000   0.0000   0.0000   0.0000
     0.0000   0.0000

          k = 0.4172 0.3340-0.2265 ( 17753 PWs)   bands (ev):

   -89.4731 -73.7560 -62.6326 -62.5654 -49.9646 -49.9382 -49.9172 -39.8610
   -39.8410 -39.8337 -27.0932 -27.0468 -26.9854 -26.9319 -26.8763 -26.8321
    -6.5813  -6.4389  -5.9702  -5.8369  -5.5067  -5.4123  -5.2218  -4.9928
     4.5807   5.2264   5.4448   5.7427   5.9060   6.0069   6.5494   6.7775
     7.0023   7.0782   7.4490   7.5767   7.8315   8.0630   8.2701   8.5976
     8.7808   9.0404   9.1656   9.4620   9.5350   9.6589   9.8066  10.1026
    10.2300  10.5524  11.0157  13.8886  14.3819  14.6523  14.8352  15.0786
    15.6251  15.9304  16.0726  16.1355  16.2779  16.5590  17.2751  17.4884
    18.9494  19.7086

     occupation numbers 
     1.0000   1.0000   1.0000   1.0000   1.0000   1.0000   1.0000   1.0000
     1.0000   1.0000   1.0000   1.0000   1.0000   1.0000   1.0000   1.0000
     1.0000   1.0000   1.0000   1.0000   1.0000   1.0000   1.0000   1.0000
     1.0000   1.0000   1.0000   1.0000   1.0000   1.0000   1.0000   1.0000
     1.0000   1.0000   1.0000   1.0000   1.0000   1.0000   1.0000   1.0000
     1.0000   1.0000   1.0000   1.0000   1.0000   1.0000   1.0000   1.0000
     1.0000   1.0000   1.0000   1.0828   0.1576   0.0052   0.0002   0.0000
     0.0000   0.0000   0.0000   0.0000   0.0000   0.0000   0.0000   0.0000
     0.0000   0.0000

          k = 0.4168 0.3340-0.0757 ( 17754 PWs)   bands (ev):

   -89.4731 -73.7560 -62.6330 -62.5651 -49.9646 -49.9382 -49.9172 -39.8610
   -39.8410 -39.8337 -27.0860 -27.0407 -26.9911 -26.9218 -26.8846 -26.8408
    -6.6731  -6.4920  -6.0154  -5.6979  -5.5771  -5.3611  -5.2417  -4.9030
     4.5361   5.1945   5.4811   5.7035   6.1455   6.2808   6.6318   6.8505
     6.9618   7.1409   7.4143   7.5434   7.8501   8.0494   8.2340   8.3485
     8.4399   8.8217   8.9533   9.1326   9.6046   9.8582   9.9906  10.1150
    10.4131  10.6439  11.0558  13.9095  14.1434  14.7783  14.9397  15.0778
    15.7616  15.9996  16.0699  16.1139  16.2042  16.4924  17.2688  17.4706
    19.1629  19.9965

     occupation numbers 
     1.0000   1.0000   1.0000   1.0000   1.0000   1.0000   1.0000   1.0000
     1.0000   1.0000   1.0000   1.0000   1.0000   1.0000   1.0000   1.0000
     1.0000   1.0000   1.0000   1.0000   1.0000   1.0000   1.0000   1.0000
     1.0000   1.0000   1.0000   1.0000   1.0000   1.0000   1.0000   1.0000
     1.0000   1.0000   1.0000   1.0000   1.0000   1.0000   1.0000   1.0000
     1.0000   1.0000   1.0000   1.0000   1.0000   1.0000   1.0000   1.0000
     1.0000   1.0000   1.0000   1.0793   0.7184   0.0006   0.0000   0.0000
     0.0000   0.0000   0.0000   0.0000   0.0000   0.0000   0.0000   0.0000
     0.0000   0.0000

     the Fermi energy is    14.2610 ev

!    total energy              =   -1152.70042370 Ry
     estimated scf accuracy    <          1.0E-09 Ry
     smearing contrib. (-TS)   =      -0.00138970 Ry
     internal energy E=F+TS    =   -1152.69903400 Ry

     The total energy is F=E-TS. E is the sum of the following terms:
     one-electron contribution =    -497.13337986 Ry
     hartree contribution      =     310.76578264 Ry
     xc contribution           =    -209.87424814 Ry
     ewald contribution        =    -756.71786502 Ry
     Hubbard energy            =       0.26067637 Ry

     total magnetization       =     6.00 Bohr mag/cell
     absolute magnetization    =     6.85 Bohr mag/cell

     convergence has been achieved in  21 iterations

     Writing all to output data dir ./tmp/NiFeWO4_FM/NiFeWO4_FM.save/ :
     XML data file, charge density, pseudopotentials, collected wavefunctions
 
     init_run     :      5.39s CPU      5.52s WALL (       1 calls)
     electrons    :    279.02s CPU    282.13s WALL (       1 calls)

     Called by init_run:
     wfcinit      :      5.31s CPU      5.42s WALL (       1 calls)
     wfcinit:atom :      0.04s CPU      0.04s WALL (     108 calls)
     wfcinit:wfcr :      4.11s CPU      4.20s WALL (     108 calls)
     potinit      :      0.02s CPU      0.02s WALL (       1 calls)
     hinit0       :      0.02s CPU      0.03s WALL (       1 calls)

     Called by electrons:
     c_bands      :    247.78s CPU    250.34s WALL (      21 calls)
     sum_band     :     30.55s CPU     30.98s WALL (      21 calls)
     v_of_rho     :      0.32s CPU      0.33s WALL (      22 calls)
     v_h          :      0.01s CPU      0.01s WALL (      22 calls)
     v_xc         :      0.31s CPU      0.32s WALL (      22 calls)
     mix_rho      :      0.36s CPU      0.39s WALL (      21 calls)

     Called by c_bands:
     init_us_2    :      5.44s CPU      5.58s WALL (    4752 calls)
     cegterg      :    226.72s CPU    228.94s WALL (    2268 calls)

     Called by sum_band:
     sum_band:wei :      0.20s CPU      0.20s WALL (      21 calls)
     sum_band:loo :     28.68s CPU     29.03s WALL (      21 calls)
     sum_band:buf :      0.59s CPU      0.61s WALL (    2268 calls)
     sum_band:ini :      2.07s CPU      2.10s WALL (    2268 calls)

     Called by *egterg:
     cdiaghg      :     28.95s CPU     29.12s WALL (    9484 calls)
     cegterg:over :     11.54s CPU     11.62s WALL (    7216 calls)
     cegterg:upda :      7.24s CPU      7.30s WALL (    7216 calls)
     cegterg:last :     13.21s CPU     13.30s WALL (    4344 calls)
     h_psi        :    162.87s CPU    164.75s WALL (    9592 calls)
     g_psi        :      0.53s CPU      0.53s WALL (    7216 calls)

     Called by h_psi:
     h_psi:calbec :     18.97s CPU     19.13s WALL (    9592 calls)
     vloc_psi     :    118.28s CPU    119.82s WALL (    9592 calls)
     add_vuspsi   :     17.91s CPU     18.04s WALL (    9592 calls)
     vhpsi        :      6.76s CPU      6.81s WALL (    9592 calls)

     General routines
     calbec       :     26.08s CPU     26.34s WALL (   21560 calls)
     fft          :      0.13s CPU      0.15s WALL (     416 calls)
     ffts         :      0.20s CPU      0.21s WALL (     660 calls)
     fftw         :    133.83s CPU    135.54s WALL (  874816 calls)
 
     Parallel routines

     Hubbard U routines
     new_ns       :      1.61s CPU      1.68s WALL (      21 calls)
     vhpsi        :      6.76s CPU      6.81s WALL (    9592 calls)
 
     PWSCF        :   4m45.14s CPU   4m52.26s WALL

 
   This run was terminated on:   6:28:23  19Nov2025            

=------------------------------------------------------------------------------=
   JOB DONE.
=------------------------------------------------------------------------------=
