
     Program PWSCF v.7.4.1 starts on 19Nov2025 at  6:37:57 
        Git branch: heads/qe-7.4.1
        Last git commit: 500de340b820e1cb8c05f2d8bb8fced102f377c1-dirty
        Last git commit date: Fri Feb 7 14:59:05 2025 +0000
        Last git commit subject: Merge branch 'qe-7.4.1' into 'master'

     This program is part of the open-source Quantum ESPRESSO suite
     for quantum simulation of materials; please cite
         "P. Giannozzi et al., J. Phys.:Condens. Matter 21 395502 (2009);
         "P. Giannozzi et al., J. Phys.:Condens. Matter 29 465901 (2017);
         "P. Giannozzi et al., J. Chem. Phys. 152 154105 (2020);
          URL http://www.quantum-espresso.org", 
     in publications or presentations arising from this work. More details at
     http://www.quantum-espresso.org/quote

     Parallel version (MPI), running on    16 processors

     MPI processes distributed on     1 nodes
     658798 MiB available memory on the printing compute node when the environment starts
 
     Reading input from inputs_AFM/NiFeWO4_AFM.in

     Current dimensions of program PWSCF are:
     Max number of different atomic species (ntypx) = 10
     Max number of k-points (npk) =  40000
     Max angular momentum in pseudopotentials (lmaxx) =  4
     Message from routine setup:
     using ibrav=0 with symmetry is DISCOURAGED, use correct ibrav instead
 
     R & G space division:  proc/nbgrp/npool/nimage =      16
     Subspace diagonalization in iterative solution of the eigenvalue problem:
     a serial algorithm will be used

 
     Parallelization info
     --------------------
     sticks:   dense  smooth     PW     G-vecs:    dense   smooth      PW
     Min         207     207     56                 8889     8889    1268
     Max         208     208     57                 8892     8892    1269
     Sum        3323    3323    907               142247   142247   20295
 
     Using Slab Decomposition
 


     bravais-lattice index     =            0
     lattice parameter (alat)  =       8.3436  a.u.
     unit-cell volume          =     800.2752 (a.u.)^3
     number of atoms/cell      =           12
     number of atomic types    =            4
     number of electrons       =       110.00
     number of Kohn-Sham states=           66
     kinetic-energy cutoff     =     120.0000  Ry
     charge density cutoff     =     480.0000  Ry
     scf convergence threshold =      1.0E-09
     mixing beta               =       0.7000
     number of iterations used =            8  local-TF  mixing
     Exchange-correlation= PBESOL
                           (   1   4  10   8   0   0   0)
     Hubbard projectors: ortho-atomic
     Hubbard parameters of DFT+U (Dudarev formulation) in eV:
     U(Ni-3d) =  8.5500
     U(Fe-3d) =  7.0800

     Internal variables: lda_plus_u = T, lda_plus_u_kind = 0

     celldm(1)=   8.343587  celldm(2)=   0.000000  celldm(3)=   0.000000
     celldm(4)=   0.000000  celldm(5)=   0.000000  celldm(6)=   0.000000

     crystal axes: (cart. coord. in units of alat)
               a(1) = (   0.999997   0.000000   0.002326 )  
               a(2) = (   0.000000   1.247336   0.000000 )  
               a(3) = (   0.000558   0.000000   1.104585 )  

     reciprocal axes: (cart. coord. in units 2 pi/alat)
               b(1) = (  1.000004  0.000000 -0.000505 )  
               b(2) = (  0.000000  0.801709  0.000000 )  
               b(3) = ( -0.002106  0.000000  0.905318 )  


     PseudoPot. # 1 for Ni read from file:
     pseudo_dojo_pbesol/Ni.upf
     MD5 check sum: 3ec56ad6bf78c9cc1bbec815420e1c7d
     Pseudo is Norm-conserving + core correction, Zval = 18.0
     Generated using ONCVPSP code by D. R. Hamann
     Using radial grid of 1356 points,  6 beta functions with: 
                l(1) =   0
                l(2) =   0
                l(3) =   1
                l(4) =   1
                l(5) =   2
                l(6) =   2

     PseudoPot. # 2 for Fe read from file:
     pseudo_dojo_pbesol/Fe.upf
     MD5 check sum: d1f1a3649ace7f41c554fadafcf9d57b
     Pseudo is Norm-conserving + core correction, Zval = 16.0
     Generated using ONCVPSP code by D. R. Hamann
     Using radial grid of 1426 points,  6 beta functions with: 
                l(1) =   0
                l(2) =   0
                l(3) =   1
                l(4) =   1
                l(5) =   2
                l(6) =   2

     PseudoPot. # 3 for W  read from file:
     pseudo_dojo_pbesol/W.upf
     MD5 check sum: b5ac44390825a9169ccdba7091ec60d0
     Pseudo is Norm-conserving + core correction, Zval = 14.0
     Generated using ONCVPSP code by D. R. Hamann
     Using radial grid of 1396 points,  8 beta functions with: 
                l(1) =   0
                l(2) =   0
                l(3) =   1
                l(4) =   1
                l(5) =   2
                l(6) =   2
                l(7) =   3
                l(8) =   3

     PseudoPot. # 4 for O  read from file:
     pseudo_dojo_pbesol/O.upf
     MD5 check sum: f226cbcd508cec715ff87a8f75a1dfba
     Pseudo is Norm-conserving + core correction, Zval =  6.0
     Generated using ONCVPSP code by D. R. Hamann
     Using radial grid of  936 points,  5 beta functions with: 
                l(1) =   0
                l(2) =   0
                l(3) =   1
                l(4) =   1
                l(5) =   2

     atomic species   valence    mass     pseudopotential
     Ni               18.00    58.69340     Ni( 1.00)
     Fe               16.00    55.84500     Fe( 1.00)
     W                14.00   183.84000     W ( 1.00)
     O                 6.00    15.99940     O ( 1.00)

     Starting magnetic structure 
     atomic species   magnetization
     Ni              0.200
     Fe             -0.200
     W               0.000
     O               0.000

      2 Sym. Ops. (no inversion) found ( 1 have fractional translation)


                                    s                        frac. trans.

      isym =  1     identity                                     

 cryst.   s( 1) = (     1          0          0      )
                  (     0          1          0      )
                  (     0          0          1      )

 cart.    s( 1) = (  1.0000000  0.0000000  0.0000000 )
                  (  0.0000000  1.0000000  0.0000000 )
                  ( -0.0000000  0.0000000  1.0000000 )


      isym =  2     180 deg rotation - cart. axis [0,1,0]        

 cryst.   s( 2) = (    -1          0          0      )    f =(  0.0000000 )
                  (     0          1          0      )       (  0.0000000 )
                  (     0          0         -1      )       ( -0.5000000 )

 cart.    s( 2) = ( -1.0000000  0.0000000  0.0000000 )    f =( -0.0002789 )
                  (  0.0000000  1.0000000  0.0000000 )       (  0.0000000 )
                  (  0.0000000  0.0000000 -1.0000000 )       ( -0.5522927 )


   Cartesian axes

     site n.     atom                  positions (alat units)
         1        Ni     tau(   1) = (   0.5001381   0.8087761   0.2773093  )
         2        Fe     tau(   2) = (   0.5004170   0.4385596   0.8296021  )
         3        W      tau(   3) = (   0.0004184   1.0323177   0.8284391  )
         4        W      tau(   4) = (   0.0001395   0.2150180   0.2761464  )
         5        O      tau(   5) = (   0.7348048   0.7727597   1.0069160  )
         6        O      tau(   6) = (   0.2660292   0.7727597   0.6522882  )
         7        O      tau(   7) = (   0.2657503   0.4745760   0.0999954  )
         8        O      tau(   8) = (   0.7345259   0.4745760   0.4546232  )
         9        O      tau(   9) = (   0.7714994   0.1420665   1.0226464  )
        10        O      tau(  10) = (   0.2293347   0.1420665   0.6365577  )
        11        O      tau(  11) = (   0.7712205   1.1052692   0.4703537  )
        12        O      tau(  12) = (   0.2290558   1.1052692   0.0842649  )

   Crystallographic axes

     site n.     atom                  positions (cryst. coord.)
         1        Ni     tau(   1) = (  0.5000000  0.6484029  0.2500000  )
         2        Fe     tau(   2) = (  0.5000000  0.3515971  0.7500000  )
         3        W      tau(   3) = (  0.0000000  0.8276182  0.7500000  )
         4        W      tau(   4) = (  0.0000000  0.1723818  0.2500000  )
         5        O      tau(   5) = (  0.7342992  0.6195283  0.9100319  )
         6        O      tau(   6) = (  0.2657008  0.6195283  0.5899681  )
         7        O      tau(   7) = (  0.2657008  0.3804717  0.0899681  )
         8        O      tau(   8) = (  0.7342992  0.3804717  0.4100319  )
         9        O      tau(   9) = (  0.7709859  0.1138960  0.9241958  )
        10        O      tau(  10) = (  0.2290141  0.1138960  0.5758042  )
        11        O      tau(  11) = (  0.7709859  0.8861040  0.4241958  )
        12        O      tau(  12) = (  0.2290141  0.8861040  0.0758042  )

     number of k points=    54  Marzari-Vanderbilt smearing, width (Ry)=  0.0200
                       cart. coord. in units 2pi/alat
        k(    1) = (   0.0831582   0.0668091   0.0754011), wk =   0.0185185
        k(    2) = (   0.0828072   0.0668091   0.2262874), wk =   0.0185185
        k(    3) = (   0.0824563   0.0668091   0.3771738), wk =   0.0185185
        k(    4) = (   0.0842110   0.0668091  -0.3772579), wk =   0.0185185
        k(    5) = (   0.0838601   0.0668091  -0.2263716), wk =   0.0185185
        k(    6) = (   0.0835091   0.0668091  -0.0754853), wk =   0.0185185
        k(    7) = (   0.0831582   0.2004272   0.0754011), wk =   0.0185185
        k(    8) = (   0.0828072   0.2004272   0.2262874), wk =   0.0185185
        k(    9) = (   0.0824563   0.2004272   0.3771738), wk =   0.0185185
        k(   10) = (   0.0842110   0.2004272  -0.3772579), wk =   0.0185185
        k(   11) = (   0.0838601   0.2004272  -0.2263716), wk =   0.0185185
        k(   12) = (   0.0835091   0.2004272  -0.0754853), wk =   0.0185185
        k(   13) = (   0.0831582   0.3340453   0.0754011), wk =   0.0185185
        k(   14) = (   0.0828072   0.3340453   0.2262874), wk =   0.0185185
        k(   15) = (   0.0824563   0.3340453   0.3771738), wk =   0.0185185
        k(   16) = (   0.0842110   0.3340453  -0.3772579), wk =   0.0185185
        k(   17) = (   0.0838601   0.3340453  -0.2263716), wk =   0.0185185
        k(   18) = (   0.0835091   0.3340453  -0.0754853), wk =   0.0185185
        k(   19) = (   0.2498255   0.0668091   0.0753169), wk =   0.0185185
        k(   20) = (   0.2494745   0.0668091   0.2262033), wk =   0.0185185
        k(   21) = (   0.2491236   0.0668091   0.3770896), wk =   0.0185185
        k(   22) = (   0.2508783   0.0668091  -0.3773421), wk =   0.0185185
        k(   23) = (   0.2505274   0.0668091  -0.2264558), wk =   0.0185185
        k(   24) = (   0.2501764   0.0668091  -0.0755694), wk =   0.0185185
        k(   25) = (   0.2498255   0.2004272   0.0753169), wk =   0.0185185
        k(   26) = (   0.2494745   0.2004272   0.2262033), wk =   0.0185185
        k(   27) = (   0.2491236   0.2004272   0.3770896), wk =   0.0185185
        k(   28) = (   0.2508783   0.2004272  -0.3773421), wk =   0.0185185
        k(   29) = (   0.2505274   0.2004272  -0.2264558), wk =   0.0185185
        k(   30) = (   0.2501764   0.2004272  -0.0755694), wk =   0.0185185
        k(   31) = (   0.2498255   0.3340453   0.0753169), wk =   0.0185185
        k(   32) = (   0.2494745   0.3340453   0.2262033), wk =   0.0185185
        k(   33) = (   0.2491236   0.3340453   0.3770896), wk =   0.0185185
        k(   34) = (   0.2508783   0.3340453  -0.3773421), wk =   0.0185185
        k(   35) = (   0.2505274   0.3340453  -0.2264558), wk =   0.0185185
        k(   36) = (   0.2501764   0.3340453  -0.0755694), wk =   0.0185185
        k(   37) = (   0.4164928   0.0668091   0.0752327), wk =   0.0185185
        k(   38) = (   0.4161419   0.0668091   0.2261191), wk =   0.0185185
        k(   39) = (   0.4157909   0.0668091   0.3770054), wk =   0.0185185
        k(   40) = (   0.4175457   0.0668091  -0.3774263), wk =   0.0185185
        k(   41) = (   0.4171947   0.0668091  -0.2265399), wk =   0.0185185
        k(   42) = (   0.4168438   0.0668091  -0.0756536), wk =   0.0185185
        k(   43) = (   0.4164928   0.2004272   0.0752327), wk =   0.0185185
        k(   44) = (   0.4161419   0.2004272   0.2261191), wk =   0.0185185
        k(   45) = (   0.4157909   0.2004272   0.3770054), wk =   0.0185185
        k(   46) = (   0.4175457   0.2004272  -0.3774263), wk =   0.0185185
        k(   47) = (   0.4171947   0.2004272  -0.2265399), wk =   0.0185185
        k(   48) = (   0.4168438   0.2004272  -0.0756536), wk =   0.0185185
        k(   49) = (   0.4164928   0.3340453   0.0752327), wk =   0.0185185
        k(   50) = (   0.4161419   0.3340453   0.2261191), wk =   0.0185185
        k(   51) = (   0.4157909   0.3340453   0.3770054), wk =   0.0185185
        k(   52) = (   0.4175457   0.3340453  -0.3774263), wk =   0.0185185
        k(   53) = (   0.4171947   0.3340453  -0.2265399), wk =   0.0185185
        k(   54) = (   0.4168438   0.3340453  -0.0756536), wk =   0.0185185

                       cryst. coord.
        k(    1) = (   0.0833333   0.0833333   0.0833333), wk =   0.0185185
        k(    2) = (   0.0833333   0.0833333   0.2500000), wk =   0.0185185
        k(    3) = (   0.0833333   0.0833333   0.4166667), wk =   0.0185185
        k(    4) = (   0.0833333   0.0833333  -0.4166667), wk =   0.0185185
        k(    5) = (   0.0833333   0.0833333  -0.2500000), wk =   0.0185185
        k(    6) = (   0.0833333   0.0833333  -0.0833333), wk =   0.0185185
        k(    7) = (   0.0833333   0.2500000   0.0833333), wk =   0.0185185
        k(    8) = (   0.0833333   0.2500000   0.2500000), wk =   0.0185185
        k(    9) = (   0.0833333   0.2500000   0.4166667), wk =   0.0185185
        k(   10) = (   0.0833333   0.2500000  -0.4166667), wk =   0.0185185
        k(   11) = (   0.0833333   0.2500000  -0.2500000), wk =   0.0185185
        k(   12) = (   0.0833333   0.2500000  -0.0833333), wk =   0.0185185
        k(   13) = (   0.0833333   0.4166667   0.0833333), wk =   0.0185185
        k(   14) = (   0.0833333   0.4166667   0.2500000), wk =   0.0185185
        k(   15) = (   0.0833333   0.4166667   0.4166667), wk =   0.0185185
        k(   16) = (   0.0833333   0.4166667  -0.4166667), wk =   0.0185185
        k(   17) = (   0.0833333   0.4166667  -0.2500000), wk =   0.0185185
        k(   18) = (   0.0833333   0.4166667  -0.0833333), wk =   0.0185185
        k(   19) = (   0.2500000   0.0833333   0.0833333), wk =   0.0185185
        k(   20) = (   0.2500000   0.0833333   0.2500000), wk =   0.0185185
        k(   21) = (   0.2500000   0.0833333   0.4166667), wk =   0.0185185
        k(   22) = (   0.2500000   0.0833333  -0.4166667), wk =   0.0185185
        k(   23) = (   0.2500000   0.0833333  -0.2500000), wk =   0.0185185
        k(   24) = (   0.2500000   0.0833333  -0.0833333), wk =   0.0185185
        k(   25) = (   0.2500000   0.2500000   0.0833333), wk =   0.0185185
        k(   26) = (   0.2500000   0.2500000   0.2500000), wk =   0.0185185
        k(   27) = (   0.2500000   0.2500000   0.4166667), wk =   0.0185185
        k(   28) = (   0.2500000   0.2500000  -0.4166667), wk =   0.0185185
        k(   29) = (   0.2500000   0.2500000  -0.2500000), wk =   0.0185185
        k(   30) = (   0.2500000   0.2500000  -0.0833333), wk =   0.0185185
        k(   31) = (   0.2500000   0.4166667   0.0833333), wk =   0.0185185
        k(   32) = (   0.2500000   0.4166667   0.2500000), wk =   0.0185185
        k(   33) = (   0.2500000   0.4166667   0.4166667), wk =   0.0185185
        k(   34) = (   0.2500000   0.4166667  -0.4166667), wk =   0.0185185
        k(   35) = (   0.2500000   0.4166667  -0.2500000), wk =   0.0185185
        k(   36) = (   0.2500000   0.4166667  -0.0833333), wk =   0.0185185
        k(   37) = (   0.4166667   0.0833333   0.0833333), wk =   0.0185185
        k(   38) = (   0.4166667   0.0833333   0.2500000), wk =   0.0185185
        k(   39) = (   0.4166667   0.0833333   0.4166667), wk =   0.0185185
        k(   40) = (   0.4166667   0.0833333  -0.4166667), wk =   0.0185185
        k(   41) = (   0.4166667   0.0833333  -0.2500000), wk =   0.0185185
        k(   42) = (   0.4166667   0.0833333  -0.0833333), wk =   0.0185185
        k(   43) = (   0.4166667   0.2500000   0.0833333), wk =   0.0185185
        k(   44) = (   0.4166667   0.2500000   0.2500000), wk =   0.0185185
        k(   45) = (   0.4166667   0.2500000   0.4166667), wk =   0.0185185
        k(   46) = (   0.4166667   0.2500000  -0.4166667), wk =   0.0185185
        k(   47) = (   0.4166667   0.2500000  -0.2500000), wk =   0.0185185
        k(   48) = (   0.4166667   0.2500000  -0.0833333), wk =   0.0185185
        k(   49) = (   0.4166667   0.4166667   0.0833333), wk =   0.0185185
        k(   50) = (   0.4166667   0.4166667   0.2500000), wk =   0.0185185
        k(   51) = (   0.4166667   0.4166667   0.4166667), wk =   0.0185185
        k(   52) = (   0.4166667   0.4166667  -0.4166667), wk =   0.0185185
        k(   53) = (   0.4166667   0.4166667  -0.2500000), wk =   0.0185185
        k(   54) = (   0.4166667   0.4166667  -0.0833333), wk =   0.0185185

     Dense  grid:   142247 G-vectors     FFT dimensions: (  60,  75,  72)

     Dynamical RAM for                 wfc:       1.12 MB

     Dynamical RAM for     wfc (w. buffer):     121.85 MB

     Dynamical RAM for             U proj.:       0.17 MB

     Dynamical RAM for  U proj. (w. buff.):      18.46 MB

     Dynamical RAM for           str. fact:       0.54 MB

     Dynamical RAM for           local pot:       0.00 MB

     Dynamical RAM for          nlocal pot:       3.46 MB

     Dynamical RAM for                qrad:      16.87 MB

     Dynamical RAM for          rho,v,vnew:       1.84 MB

     Dynamical RAM for               rhoin:       0.61 MB

     Dynamical RAM for            rho*nmix:       4.34 MB

     Dynamical RAM for           G-vectors:       0.58 MB

     Dynamical RAM for          h,s,v(r/c):       0.80 MB

     Dynamical RAM for          <psi|beta>:       0.21 MB

     Dynamical RAM for                 psi:       2.24 MB

     Dynamical RAM for                hpsi:       2.24 MB

     Dynamical RAM for      wfcinit/wfcrot:       2.34 MB

     Estimated static dynamical RAM per process >     165.92 MB

     Estimated max dynamical RAM per process >     175.74 MB

     Estimated total dynamical RAM >       2.75 GB
     Generating pointlists ...
     new r_m :   0.1830 (alat units)  1.5265 (a.u.) for type    1
     new r_m :   0.1830 (alat units)  1.5265 (a.u.) for type    2
     new r_m :   0.1696 (alat units)  1.4147 (a.u.) for type    3
     new r_m :   0.1696 (alat units)  1.4147 (a.u.) for type    4

     Initial potential from superposition of free atoms

     starting charge     109.9985, renormalised to     110.0000

     HUBBARD ENERGY =    0.5852  (Ry)

     STARTING HUBBARD OCCUPATIONS:

     =================== HUBBARD OCCUPATIONS ===================
     ------------------------ ATOM    1 ------------------------
     Tr[ns(  1)] (up, down, total) =   5.00000  3.00000  8.00000
     Atomic magnetic moment for atom   1 =   2.00000
     SPIN  1
     eigenvalues:
       1.000  1.000  1.000  1.000  1.000
     eigenvectors (columns):
       1.000  0.000  0.000  0.000  0.000
       0.000  1.000  0.000  0.000  0.000
       0.000  0.000  1.000  0.000  0.000
       0.000  0.000  0.000  1.000  0.000
       0.000  0.000  0.000  0.000  1.000
     occupation matrix ns (before diag.):
       1.000  0.000  0.000  0.000  0.000
       0.000  1.000  0.000  0.000  0.000
       0.000  0.000  1.000  0.000  0.000
       0.000  0.000  0.000  1.000  0.000
       0.000  0.000  0.000  0.000  1.000
     SPIN  2
     eigenvalues:
       0.600  0.600  0.600  0.600  0.600
     eigenvectors (columns):
       1.000  0.000  0.000  0.000  0.000
       0.000  1.000  0.000  0.000  0.000
       0.000  0.000  1.000  0.000  0.000
       0.000  0.000  0.000  1.000  0.000
       0.000  0.000  0.000  0.000  1.000
     occupation matrix ns (before diag.):
       0.600  0.000  0.000  0.000  0.000
       0.000  0.600  0.000  0.000  0.000
       0.000  0.000  0.600  0.000  0.000
       0.000  0.000  0.000  0.600  0.000
       0.000  0.000  0.000  0.000  0.600
     ------------------------ ATOM    2 ------------------------
     Tr[ns(  2)] (up, down, total) =   1.00000  5.00000  6.00000
     Atomic magnetic moment for atom   2 =  -4.00000
     SPIN  1
     eigenvalues:
       0.200  0.200  0.200  0.200  0.200
     eigenvectors (columns):
       1.000  0.000  0.000  0.000  0.000
       0.000  1.000  0.000  0.000  0.000
       0.000  0.000  1.000  0.000  0.000
       0.000  0.000  0.000  1.000  0.000
       0.000  0.000  0.000  0.000  1.000
     occupation matrix ns (before diag.):
       0.200  0.000  0.000  0.000  0.000
       0.000  0.200  0.000  0.000  0.000
       0.000  0.000  0.200  0.000  0.000
       0.000  0.000  0.000  0.200  0.000
       0.000  0.000  0.000  0.000  0.200
     SPIN  2
     eigenvalues:
       1.000  1.000  1.000  1.000  1.000
     eigenvectors (columns):
       1.000  0.000  0.000  0.000  0.000
       0.000  1.000  0.000  0.000  0.000
       0.000  0.000  1.000  0.000  0.000
       0.000  0.000  0.000  1.000  0.000
       0.000  0.000  0.000  0.000  1.000
     occupation matrix ns (before diag.):
       1.000  0.000  0.000  0.000  0.000
       0.000  1.000  0.000  0.000  0.000
       0.000  0.000  1.000  0.000  0.000
       0.000  0.000  0.000  1.000  0.000
       0.000  0.000  0.000  0.000  1.000

     Number of occupied Hubbard levels =   14.0000

     Atomic wfc used for Hubbard projectors are orthogonalized

     Starting wfcs are   72 randomized atomic wfcs

     total cpu time spent up to now is        5.5 secs

     per-process dynamical memory:   219.0 Mb

     Self-consistent Calculation

     iteration #  1     ecut=   120.00 Ry     beta= 0.70
     Davidson diagonalization with overlap

---- Real-time Memory Report at c_bands before calling an iterative solver
           245 MiB given to the printing process from OS
           213 MiB allocation reported by mallinfo(arena+hblkhd)
        658432 MiB available memory on the node where the printing process lives
------------------
     ethr =  1.00E-02,  avg # of iterations =  2.4

     =================== HUBBARD OCCUPATIONS ===================
     ------------------------ ATOM    1 ------------------------
     Tr[ns(  1)] (up, down, total) =   4.98382  4.13876  9.12259
     Atomic magnetic moment for atom   1 =   0.84506
     SPIN  1
     eigenvalues:
       0.994  0.994  0.998  0.998  0.999
     eigenvectors (columns):
      -0.000  0.565 -0.813  0.000 -0.139
      -0.000  0.770  0.580 -0.000 -0.265
      -0.587 -0.000  0.000  0.810 -0.000
      -0.000  0.296  0.043  0.000  0.954
       0.810  0.000  0.000  0.587 -0.000
     occupation matrix ns (before diag.):
       0.997 -0.002  0.000 -0.001  0.000
      -0.002  0.996 -0.000 -0.001  0.000
       0.000 -0.000  0.997 -0.000  0.002
      -0.001 -0.001 -0.000  0.998 -0.000
       0.000  0.000  0.002 -0.000  0.996
     SPIN  2
     eigenvalues:
       0.575  0.596  0.988  0.989  0.991
     eigenvectors (columns):
      -0.533  0.000 -0.725 -0.000 -0.436
      -0.804  0.000  0.595 -0.000 -0.006
      -0.000 -0.566  0.000  0.824 -0.000
      -0.264  0.000 -0.347  0.000  0.900
       0.000  0.824  0.000  0.566 -0.000
     occupation matrix ns (before diag.):
       0.871 -0.177  0.000 -0.059  0.000
      -0.177  0.721 -0.000 -0.088  0.000
       0.000 -0.000  0.863 -0.000  0.184
      -0.059 -0.088 -0.000  0.961 -0.000
       0.000  0.000  0.184 -0.000  0.722
     ------------------------ ATOM    2 ------------------------
     Tr[ns(  2)] (up, down, total) =   0.33318  4.96553  5.29871
     Atomic magnetic moment for atom   2 =  -4.63235
     SPIN  1
     eigenvalues:
       0.033  0.034  0.036  0.114  0.116
     eigenvectors (columns):
      -0.000 -0.832 -0.094 -0.000  0.547
       0.000  0.552 -0.252 -0.000  0.795
       0.813 -0.000 -0.000 -0.582 -0.000
       0.000  0.063  0.963 -0.000  0.262
       0.582 -0.000 -0.000  0.813  0.000
     occupation matrix ns (before diag.):
       0.058  0.036 -0.000  0.012  0.000
       0.036  0.086 -0.000  0.016  0.000
      -0.000 -0.000  0.060  0.000 -0.039
       0.012  0.016  0.000  0.042 -0.000
       0.000  0.000 -0.039 -0.000  0.087
     SPIN  2
     eigenvalues:
       0.987  0.988  0.997  0.997  0.997
     eigenvectors (columns):
      -0.000 -0.579 -0.763  0.000  0.290
      -0.000 -0.759  0.633 -0.000  0.150
      -0.606  0.000  0.000  0.795  0.000
      -0.000 -0.297 -0.133  0.000 -0.945
       0.795 -0.000  0.000  0.606  0.000
     occupation matrix ns (before diag.):
       0.994 -0.004  0.000 -0.002  0.000
      -0.004  0.992 -0.000 -0.002  0.000
       0.000 -0.000  0.993 -0.000  0.005
      -0.002 -0.002 -0.000  0.997 -0.000
       0.000  0.000  0.005 -0.000  0.990

     Number of occupied Hubbard levels =   14.4213

     HUBBARD ENERGY =    0.2551  (Ry)

     total cpu time spent up to now is       19.6 secs

     total energy              =   -1151.72254200 Ry
     estimated scf accuracy    <       5.44927735 Ry

     total magnetization       =    -4.00 Bohr mag/cell
     absolute magnetization    =     5.98 Bohr mag/cell

     iteration #  2     ecut=   120.00 Ry     beta= 0.70
     Davidson diagonalization with overlap

---- Real-time Memory Report at c_bands before calling an iterative solver
           253 MiB given to the printing process from OS
           220 MiB allocation reported by mallinfo(arena+hblkhd)
        659209 MiB available memory on the node where the printing process lives
------------------
     ethr =  4.95E-03,  avg # of iterations =  2.0

     =================== HUBBARD OCCUPATIONS ===================
     ------------------------ ATOM    1 ------------------------
     Tr[ns(  1)] (up, down, total) =   4.91578  3.66494  8.58072
     Atomic magnetic moment for atom   1 =   1.25084
     SPIN  1
     eigenvalues:
       0.969  0.972  0.991  0.992  0.992
     eigenvectors (columns):
      -0.000 -0.578  0.812  0.000 -0.082
      -0.000 -0.757 -0.495 -0.000  0.427
      -0.550  0.000 -0.000  0.835  0.000
      -0.000 -0.306 -0.309  0.000 -0.901
       0.835 -0.000 -0.000  0.550  0.000
     occupation matrix ns (before diag.):
       0.985 -0.009  0.000 -0.003  0.000
      -0.009  0.980 -0.000 -0.005  0.000
       0.000 -0.000  0.985 -0.000  0.010
      -0.003 -0.005 -0.000  0.990 -0.000
       0.000  0.000  0.010 -0.000  0.976
     SPIN  2
     eigenvalues:
       0.326  0.384  0.984  0.985  0.986
     eigenvectors (columns):
       0.535  0.000 -0.820 -0.000  0.205
       0.802  0.000  0.569 -0.000  0.184
       0.000 -0.569  0.000  0.823  0.000
       0.268  0.000 -0.066  0.000 -0.961
      -0.000  0.823  0.000  0.569  0.000
     occupation matrix ns (before diag.):
       0.796 -0.282  0.000 -0.095  0.000
      -0.282  0.561 -0.000 -0.141  0.000
       0.000 -0.000  0.791 -0.000  0.281
      -0.095 -0.141 -0.000  0.938 -0.000
       0.000  0.000  0.281 -0.000  0.579
     ------------------------ ATOM    2 ------------------------
     Tr[ns(  2)] (up, down, total) =   0.52146  4.96215  5.48361
     Atomic magnetic moment for atom   2 =  -4.44069
     SPIN  1
     eigenvalues:
       0.050  0.053  0.059  0.179  0.179
     eigenvectors (columns):
      -0.000 -0.791  0.269  0.549  0.000
       0.000  0.599  0.158  0.785  0.000
       0.823 -0.000  0.000  0.000 -0.568
       0.000 -0.124 -0.950  0.286  0.000
       0.568 -0.000  0.000 -0.000  0.823
     occupation matrix ns (before diag.):
       0.092  0.054 -0.000  0.018  0.000
       0.054  0.131 -0.000  0.027  0.000
      -0.000 -0.000  0.092  0.000 -0.060
       0.018  0.027  0.000  0.069 -0.000
       0.000  0.000 -0.060 -0.000  0.138
     SPIN  2
     eigenvalues:
       0.985  0.986  0.997  0.997  0.997
     eigenvectors (columns):
      -0.000  0.579 -0.815  0.011  0.000
      -0.000  0.762  0.546  0.350  0.000
      -0.582 -0.000  0.000 -0.000  0.813
      -0.000  0.291  0.194 -0.937 -0.000
       0.813  0.000  0.000 -0.000  0.582
     occupation matrix ns (before diag.):
       0.993 -0.005  0.000 -0.002  0.000
      -0.005  0.991 -0.000 -0.002  0.000
       0.000 -0.000  0.993 -0.000  0.006
      -0.002 -0.002 -0.000  0.996 -0.000
       0.000  0.000  0.006 -0.000  0.989

     Number of occupied Hubbard levels =   14.0643

     HUBBARD ENERGY =    0.3002  (Ry)

     total cpu time spent up to now is       32.7 secs

     total energy              =   -1152.60495573 Ry
     estimated scf accuracy    <       0.22635725 Ry

     total magnetization       =    -3.67 Bohr mag/cell
     absolute magnetization    =     6.43 Bohr mag/cell

     iteration #  3     ecut=   120.00 Ry     beta= 0.70
     Davidson diagonalization with overlap

---- Real-time Memory Report at c_bands before calling an iterative solver
           254 MiB given to the printing process from OS
           220 MiB allocation reported by mallinfo(arena+hblkhd)
        660987 MiB available memory on the node where the printing process lives
------------------
     c_bands:  1 eigenvalues not converged
     ethr =  2.06E-04,  avg # of iterations =  6.6

     =================== HUBBARD OCCUPATIONS ===================
     ------------------------ ATOM    1 ------------------------
     Tr[ns(  1)] (up, down, total) =   4.92433  3.34167  8.26600
     Atomic magnetic moment for atom   1 =   1.58266
     SPIN  1
     eigenvalues:
       0.973  0.976  0.991  0.992  0.993
     eigenvectors (columns):
      -0.000 -0.591 -0.805  0.000 -0.056
      -0.000 -0.743  0.517 -0.000  0.425
      -0.534  0.000  0.000  0.845  0.000
      -0.000 -0.313  0.293  0.000 -0.903
       0.845 -0.000  0.000  0.534  0.000
     occupation matrix ns (before diag.):
       0.986 -0.007  0.000 -0.003  0.000
      -0.007  0.983 -0.000 -0.004  0.000
       0.000 -0.000  0.986 -0.000  0.009
      -0.003 -0.004 -0.000  0.991 -0.000
       0.000  0.000  0.009 -0.000  0.978
     SPIN  2
     eigenvalues:
       0.172  0.210  0.985  0.987  0.988
     eigenvectors (columns):
       0.535  0.000 -0.810 -0.000  0.243
       0.802  0.000  0.577 -0.000  0.158
       0.000 -0.570  0.000  0.822  0.000
       0.268  0.000 -0.110  0.000 -0.957
      -0.000  0.822  0.000  0.570  0.000
     occupation matrix ns (before diag.):
       0.753 -0.349  0.000 -0.117  0.000
      -0.349  0.463 -0.000 -0.175  0.000
       0.000 -0.000  0.735 -0.000  0.364
      -0.117 -0.175 -0.000  0.929 -0.000
       0.000  0.000  0.364 -0.000  0.462
     ------------------------ ATOM    2 ------------------------
     Tr[ns(  2)] (up, down, total) =   0.73955  4.96448  5.70404
     Atomic magnetic moment for atom   2 =  -4.22493
     SPIN  1
     eigenvalues:
       0.076  0.081  0.095  0.239  0.248
     eigenvectors (columns):
      -0.000 -0.101  0.826  0.554  0.000
      -0.000  0.457 -0.456  0.764  0.000
       0.821  0.000  0.000  0.000 -0.570
       0.000 -0.884 -0.330  0.331  0.000
       0.570  0.000  0.000 -0.000  0.821
     occupation matrix ns (before diag.):
       0.139  0.061 -0.000  0.025  0.000
       0.061  0.176 -0.000  0.042  0.000
      -0.000 -0.000  0.132  0.000 -0.081
       0.025  0.042  0.000  0.100 -0.000
       0.000  0.000 -0.081 -0.000  0.192
     SPIN  2
     eigenvalues:
       0.987  0.987  0.997  0.997  0.997
     eigenvectors (columns):
      -0.000 -0.574  0.284 -0.768  0.000
      -0.000 -0.766  0.146  0.626 -0.000
      -0.585  0.000 -0.000  0.000  0.811
      -0.000 -0.290 -0.948 -0.133 -0.000
       0.811 -0.000 -0.000  0.000  0.585
     occupation matrix ns (before diag.):
       0.994 -0.004  0.000 -0.002  0.000
      -0.004  0.991 -0.000 -0.002  0.000
       0.000 -0.000  0.993 -0.000  0.005
      -0.002 -0.002 -0.000  0.996 -0.000
       0.000  0.000  0.005 -0.000  0.990

     Number of occupied Hubbard levels =   13.9700

     HUBBARD ENERGY =    0.3082  (Ry)

     total cpu time spent up to now is       47.5 secs

     total energy              =   -1152.66842580 Ry
     estimated scf accuracy    <       0.12654166 Ry

     total magnetization       =    -2.76 Bohr mag/cell
     absolute magnetization    =     6.33 Bohr mag/cell

     iteration #  4     ecut=   120.00 Ry     beta= 0.70
     Davidson diagonalization with overlap

---- Real-time Memory Report at c_bands before calling an iterative solver
           254 MiB given to the printing process from OS
           221 MiB allocation reported by mallinfo(arena+hblkhd)
        655725 MiB available memory on the node where the printing process lives
------------------
     ethr =  1.15E-04,  avg # of iterations =  1.9

     =================== HUBBARD OCCUPATIONS ===================
     ------------------------ ATOM    1 ------------------------
     Tr[ns(  1)] (up, down, total) =   4.94578  3.25676  8.20254
     Atomic magnetic moment for atom   1 =   1.68902
     SPIN  1
     eigenvalues:
       0.981  0.983  0.994  0.994  0.995
     eigenvectors (columns):
      -0.000 -0.595 -0.804  0.000 -0.008
      -0.000 -0.743  0.546 -0.000  0.389
      -0.528  0.000  0.000  0.849  0.000
      -0.000 -0.308  0.238  0.000 -0.921
       0.849 -0.000  0.000  0.528  0.000
     occupation matrix ns (before diag.):
       0.990 -0.005  0.000 -0.002  0.000
      -0.005  0.988 -0.000 -0.003  0.000
       0.000 -0.000  0.990 -0.000  0.006
      -0.002 -0.003 -0.000  0.994 -0.000
       0.000  0.000  0.006 -0.000  0.984
     SPIN  2
     eigenvalues:
       0.136  0.150  0.989  0.990  0.991
     eigenvectors (columns):
       0.534  0.000 -0.809  0.000  0.244
       0.802  0.000  0.576 -0.000  0.157
       0.000 -0.570  0.000  0.822  0.000
       0.268  0.000 -0.112  0.000 -0.957
      -0.000  0.822  0.000  0.570  0.000
     occupation matrix ns (before diag.):
       0.746 -0.365  0.000 -0.122  0.000
      -0.365  0.441 -0.000 -0.183  0.000
       0.000 -0.000  0.718 -0.000  0.393
      -0.122 -0.183 -0.000  0.930 -0.000
       0.000  0.000  0.393 -0.000  0.423
     ------------------------ ATOM    2 ------------------------
     Tr[ns(  2)] (up, down, total) =   0.87532  4.96421  5.83954
     Atomic magnetic moment for atom   2 =  -4.08889
     SPIN  1
     eigenvalues:
       0.085  0.089  0.125  0.277  0.299
     eigenvectors (columns):
      -0.000  0.039  0.833  0.552  0.000
      -0.000 -0.453 -0.477  0.753  0.000
       0.822 -0.000  0.000  0.000 -0.569
       0.000  0.890 -0.280  0.359  0.000
       0.569 -0.000  0.000 -0.000  0.822
     occupation matrix ns (before diag.):
       0.172  0.064 -0.000  0.029  0.000
       0.064  0.204 -0.000  0.056  0.000
      -0.000 -0.000  0.154  0.000 -0.100
       0.029  0.056  0.000  0.116 -0.000
       0.000  0.000 -0.100 -0.000  0.229
     SPIN  2
     eigenvalues:
       0.987  0.987  0.997  0.997  0.997
     eigenvectors (columns):
      -0.000 -0.571  0.170 -0.803  0.000
      -0.000 -0.768  0.234  0.596 -0.000
      -0.588  0.000 -0.000  0.000  0.809
      -0.000 -0.289 -0.957  0.004 -0.000
       0.809 -0.000 -0.000  0.000  0.588
     occupation matrix ns (before diag.):
       0.994 -0.004  0.000 -0.002  0.000
      -0.004  0.991 -0.000 -0.002  0.000
       0.000 -0.000  0.993 -0.000  0.005
      -0.002 -0.002 -0.000  0.996 -0.000
       0.000  0.000  0.005 -0.000  0.990

     Number of occupied Hubbard levels =   14.0421

     HUBBARD ENERGY =    0.3004  (Ry)

     total cpu time spent up to now is       58.9 secs

     total energy              =   -1152.68496916 Ry
     estimated scf accuracy    <       0.06750967 Ry

     total magnetization       =    -2.23 Bohr mag/cell
     absolute magnetization    =     6.50 Bohr mag/cell

     iteration #  5     ecut=   120.00 Ry     beta= 0.70
     Davidson diagonalization with overlap

---- Real-time Memory Report at c_bands before calling an iterative solver
           255 MiB given to the printing process from OS
           222 MiB allocation reported by mallinfo(arena+hblkhd)
        656523 MiB available memory on the node where the printing process lives
------------------
     ethr =  6.14E-05,  avg # of iterations =  2.7

     =================== HUBBARD OCCUPATIONS ===================
     ------------------------ ATOM    1 ------------------------
     Tr[ns(  1)] (up, down, total) =   4.95749  3.23292  8.19040
     Atomic magnetic moment for atom   1 =   1.72457
     SPIN  1
     eigenvalues:
       0.985  0.987  0.995  0.995  0.996
     eigenvectors (columns):
      -0.000 -0.600 -0.800  0.000  0.014
      -0.000 -0.741  0.562 -0.000  0.366
      -0.532  0.000  0.000  0.847  0.000
      -0.000 -0.301  0.210  0.000 -0.930
       0.847 -0.000  0.000  0.532  0.000
     occupation matrix ns (before diag.):
       0.992 -0.004  0.000 -0.002  0.000
      -0.004  0.990 -0.000 -0.002  0.000
       0.000 -0.000  0.992 -0.000  0.005
      -0.002 -0.002 -0.000  0.995 -0.000
       0.000  0.000  0.005 -0.000  0.988
     SPIN  2
     eigenvalues:
       0.127  0.129  0.992  0.992  0.993
     eigenvectors (columns):
      -0.534  0.000  0.811  0.000  0.241
      -0.802  0.000 -0.575 -0.000  0.159
      -0.000 -0.570 -0.000  0.822  0.000
      -0.268  0.000  0.108  0.000 -0.957
       0.000  0.822 -0.000  0.570  0.000
     occupation matrix ns (before diag.):
       0.746 -0.370  0.000 -0.124  0.000
      -0.370  0.435 -0.000 -0.186  0.000
       0.000 -0.000  0.712 -0.000  0.404
      -0.124 -0.186 -0.000  0.931 -0.000
       0.000  0.000  0.404 -0.000  0.409
     ------------------------ ATOM    2 ------------------------
     Tr[ns(  2)] (up, down, total) =   0.83924  4.96157  5.80081
     Atomic magnetic moment for atom   2 =  -4.12233
     SPIN  1
     eigenvalues:
       0.063  0.069  0.107  0.282  0.318
     eigenvectors (columns):
      -0.000  0.068  0.842  0.535  0.000
      -0.000 -0.478 -0.443  0.758  0.000
       0.824 -0.000  0.000  0.000 -0.566
       0.000  0.876 -0.308  0.372  0.000
       0.566 -0.000  0.000 -0.000  0.824
     occupation matrix ns (before diag.):
       0.157  0.072 -0.000  0.033  0.000
       0.072  0.199 -0.000  0.065  0.000
      -0.000 -0.000  0.145  0.000 -0.119
       0.033  0.065  0.000  0.102 -0.000
       0.000  0.000 -0.119 -0.000  0.236
     SPIN  2
     eigenvalues:
       0.985  0.986  0.997  0.997  0.997
     eigenvectors (columns):
      -0.000 -0.571 -0.067 -0.818  0.000
      -0.000 -0.768  0.396  0.504 -0.000
      -0.589  0.000 -0.000  0.000  0.808
      -0.000 -0.290 -0.916  0.277 -0.000
       0.808 -0.000 -0.000  0.000  0.589
     occupation matrix ns (before diag.):
       0.993 -0.005  0.000 -0.002  0.000
      -0.005  0.990 -0.000 -0.002  0.000
       0.000 -0.000  0.993 -0.000  0.006
      -0.002 -0.002 -0.000  0.996 -0.000
       0.000  0.000  0.006 -0.000  0.989

     Number of occupied Hubbard levels =   13.9912

     HUBBARD ENERGY =    0.2702  (Ry)

     total cpu time spent up to now is       71.3 secs

     total energy              =   -1152.69108676 Ry
     estimated scf accuracy    <       0.02004163 Ry

     total magnetization       =    -2.06 Bohr mag/cell
     absolute magnetization    =     6.74 Bohr mag/cell

     iteration #  6     ecut=   120.00 Ry     beta= 0.70
     Davidson diagonalization with overlap

---- Real-time Memory Report at c_bands before calling an iterative solver
           256 MiB given to the printing process from OS
           222 MiB allocation reported by mallinfo(arena+hblkhd)
        655709 MiB available memory on the node where the printing process lives
------------------
     c_bands:  1 eigenvalues not converged
     ethr =  1.82E-05,  avg # of iterations =  6.8

     =================== HUBBARD OCCUPATIONS ===================
     ------------------------ ATOM    1 ------------------------
     Tr[ns(  1)] (up, down, total) =   4.96468  3.22418  8.18886
     Atomic magnetic moment for atom   1 =   1.74050
     SPIN  1
     eigenvalues:
       0.988  0.989  0.996  0.996  0.997
     eigenvectors (columns):
      -0.000  0.599 -0.800  0.000 -0.035
      -0.000  0.744  0.572 -0.000 -0.346
      -0.540 -0.000  0.000  0.842 -0.000
      -0.000  0.297  0.181 -0.000  0.937
       0.842  0.000  0.000  0.540 -0.000
     occupation matrix ns (before diag.):
       0.993 -0.003  0.000 -0.001  0.000
      -0.003  0.992 -0.000 -0.002  0.000
       0.000 -0.000  0.994 -0.000  0.004
      -0.001 -0.002 -0.000  0.996 -0.000
       0.000  0.000  0.004 -0.000  0.990
     SPIN  2
     eigenvalues:
       0.120  0.122  0.993  0.994  0.995
     eigenvectors (columns):
      -0.000 -0.533  0.813  0.000  0.235
      -0.000 -0.802 -0.574 -0.000  0.164
      -0.570  0.000 -0.000  0.822  0.000
      -0.000 -0.268  0.101  0.000 -0.958
       0.822 -0.000 -0.000  0.570  0.000
     occupation matrix ns (before diag.):
       0.746 -0.373  0.000 -0.125  0.000
      -0.373  0.433 -0.000 -0.187  0.000
       0.000 -0.000  0.710 -0.000  0.409
      -0.125 -0.187 -0.000  0.932 -0.000
       0.000  0.000  0.409 -0.000  0.404
     ------------------------ ATOM    2 ------------------------
     Tr[ns(  2)] (up, down, total) =   0.83633  4.96118  5.79751
     Atomic magnetic moment for atom   2 =  -4.12485
     SPIN  1
     eigenvalues:
       0.056  0.063  0.088  0.288  0.342
     eigenvectors (columns):
      -0.000  0.106  0.844  0.526  0.000
      -0.000 -0.497 -0.413  0.763  0.000
       0.824 -0.000  0.000  0.000 -0.566
       0.000  0.862 -0.342  0.375  0.000
       0.566 -0.000  0.000 -0.000  0.824
     occupation matrix ns (before diag.):
       0.143  0.082 -0.000  0.037  0.000
       0.082  0.198 -0.000  0.068  0.000
      -0.000 -0.000  0.148  0.000 -0.134
       0.037  0.068  0.000  0.097 -0.000
       0.000  0.000 -0.134 -0.000  0.250
     SPIN  2
     eigenvalues:
       0.985  0.986  0.997  0.997  0.997
     eigenvectors (columns):
      -0.000 -0.573 -0.416 -0.706  0.000
      -0.000 -0.766  0.578  0.281 -0.000
      -0.592  0.000 -0.000  0.000  0.806
      -0.000 -0.291 -0.702  0.650 -0.000
       0.806 -0.000 -0.000  0.000  0.592
     occupation matrix ns (before diag.):
       0.993 -0.005  0.000 -0.002  0.000
      -0.005  0.990 -0.000 -0.003  0.000
       0.000 -0.000  0.993 -0.000  0.006
      -0.002 -0.003 -0.000  0.996 -0.000
       0.000  0.000  0.006 -0.000  0.989

     Number of occupied Hubbard levels =   13.9864

     HUBBARD ENERGY =    0.2573  (Ry)

     total cpu time spent up to now is       86.5 secs

     total energy              =   -1152.69343591 Ry
     estimated scf accuracy    <       0.00504485 Ry

     total magnetization       =    -2.02 Bohr mag/cell
     absolute magnetization    =     6.85 Bohr mag/cell

     iteration #  7     ecut=   120.00 Ry     beta= 0.70
     Davidson diagonalization with overlap

---- Real-time Memory Report at c_bands before calling an iterative solver
           256 MiB given to the printing process from OS
           223 MiB allocation reported by mallinfo(arena+hblkhd)
        658077 MiB available memory on the node where the printing process lives
------------------
     ethr =  4.59E-06,  avg # of iterations =  6.0

     =================== HUBBARD OCCUPATIONS ===================
     ------------------------ ATOM    1 ------------------------
     Tr[ns(  1)] (up, down, total) =   4.96672  3.23112  8.19784
     Atomic magnetic moment for atom   1 =   1.73560
     SPIN  1
     eigenvalues:
       0.988  0.989  0.996  0.996  0.997
     eigenvectors (columns):
      -0.000 -0.597 -0.801  0.000  0.045
      -0.000 -0.745  0.574 -0.000  0.339
      -0.545  0.000  0.000  0.838  0.000
      -0.000 -0.297  0.169 -0.000 -0.940
       0.838 -0.000  0.000  0.545  0.000
     occupation matrix ns (before diag.):
       0.994 -0.003  0.000 -0.001  0.000
      -0.003  0.992 -0.000 -0.002  0.000
       0.000 -0.000  0.994 -0.000  0.004
      -0.001 -0.002 -0.000  0.996 -0.000
       0.000  0.000  0.004 -0.000  0.991
     SPIN  2
     eigenvalues:
       0.124  0.124  0.994  0.994  0.995
     eigenvectors (columns):
      -0.000 -0.533  0.811  0.000  0.239
      -0.000 -0.802 -0.575 -0.000  0.161
      -0.570  0.000 -0.000  0.822  0.000
      -0.000 -0.268  0.106  0.000 -0.957
       0.822 -0.000 -0.000  0.570  0.000
     occupation matrix ns (before diag.):
       0.747 -0.372  0.000 -0.125  0.000
      -0.372  0.434 -0.000 -0.187  0.000
       0.000 -0.000  0.712 -0.000  0.408
      -0.125 -0.187 -0.000  0.932 -0.000
       0.000  0.000  0.408 -0.000  0.406
     ------------------------ ATOM    2 ------------------------
     Tr[ns(  2)] (up, down, total) =   0.86471  4.96226  5.82697
     Atomic magnetic moment for atom   2 =  -4.09755
     SPIN  1
     eigenvalues:
       0.056  0.062  0.073  0.296  0.378
     eigenvectors (columns):
      -0.000  0.233 -0.822  0.520  0.000
      -0.000 -0.544  0.333  0.770  0.000
       0.823 -0.000 -0.000  0.000 -0.568
       0.000  0.806  0.462  0.369 -0.000
       0.568 -0.000 -0.000 -0.000  0.823
     occupation matrix ns (before diag.):
       0.133  0.091 -0.000  0.041  0.000
       0.091  0.202 -0.000  0.068  0.000
      -0.000 -0.000  0.160  0.000 -0.151
       0.041  0.068  0.000  0.096 -0.000
       0.000  0.000 -0.151 -0.000  0.274
     SPIN  2
     eigenvalues:
       0.985  0.986  0.997  0.997  0.997
     eigenvectors (columns):
      -0.000 -0.572 -0.250 -0.781  0.000
      -0.000 -0.767  0.501  0.401 -0.000
      -0.592  0.000 -0.000  0.000  0.806
      -0.000 -0.291 -0.829  0.478 -0.000
       0.806 -0.000 -0.000  0.000  0.592
     occupation matrix ns (before diag.):
       0.993 -0.005  0.000 -0.002  0.000
      -0.005  0.991 -0.000 -0.002  0.000
       0.000 -0.000  0.993 -0.000  0.006
      -0.002 -0.002 -0.000  0.996 -0.000
       0.000  0.000  0.006 -0.000  0.989

     Number of occupied Hubbard levels =   14.0248

     HUBBARD ENERGY =    0.2542  (Ry)

     total cpu time spent up to now is      101.0 secs

     total energy              =   -1152.69472066 Ry
     estimated scf accuracy    <       0.00081619 Ry

     total magnetization       =    -2.02 Bohr mag/cell
     absolute magnetization    =     6.82 Bohr mag/cell

     iteration #  8     ecut=   120.00 Ry     beta= 0.70
     Davidson diagonalization with overlap

---- Real-time Memory Report at c_bands before calling an iterative solver
           257 MiB given to the printing process from OS
           223 MiB allocation reported by mallinfo(arena+hblkhd)
        660589 MiB available memory on the node where the printing process lives
------------------
     ethr =  7.42E-07,  avg # of iterations =  3.6

     =================== HUBBARD OCCUPATIONS ===================
     ------------------------ ATOM    1 ------------------------
     Tr[ns(  1)] (up, down, total) =   4.96721  3.23546  8.20267
     Atomic magnetic moment for atom   1 =   1.73175
     SPIN  1
     eigenvalues:
       0.988  0.990  0.996  0.996  0.997
     eigenvectors (columns):
      -0.000  0.596 -0.801  0.000 -0.049
      -0.000  0.745  0.575 -0.000 -0.337
      -0.549 -0.000  0.000  0.836 -0.000
      -0.000  0.298  0.164 -0.000  0.940
       0.836  0.000  0.000  0.549 -0.000
     occupation matrix ns (before diag.):
       0.994 -0.003  0.000 -0.001  0.000
      -0.003  0.993 -0.000 -0.002  0.000
       0.000 -0.000  0.994 -0.000  0.004
      -0.001 -0.002 -0.000  0.996 -0.000
       0.000  0.000  0.004 -0.000  0.991
     SPIN  2
     eigenvalues:
       0.126  0.126  0.994  0.994  0.995
     eigenvectors (columns):
      -0.000 -0.533  0.810  0.000  0.243
      -0.000 -0.802 -0.575 -0.000  0.159
      -0.570  0.000 -0.000  0.822  0.000
      -0.000 -0.269  0.110  0.000 -0.957
       0.822 -0.000 -0.000  0.570  0.000
     occupation matrix ns (before diag.):
       0.747 -0.371  0.000 -0.125  0.000
      -0.371  0.435 -0.000 -0.187  0.000
       0.000 -0.000  0.713 -0.000  0.407
      -0.125 -0.187 -0.000  0.932 -0.000
       0.000  0.000  0.407 -0.000  0.408
     ------------------------ ATOM    2 ------------------------
     Tr[ns(  2)] (up, down, total) =   0.88731  4.96205  5.84936
     Atomic magnetic moment for atom   2 =  -4.07474
     SPIN  1
     eigenvalues:
       0.054  0.059  0.065  0.294  0.416
     eigenvectors (columns):
      -0.000  0.473 -0.714  0.516  0.000
       0.000 -0.608  0.159  0.778  0.000
       0.821 -0.000 -0.000  0.000 -0.571
       0.000  0.638  0.682  0.359 -0.000
       0.571 -0.000 -0.000 -0.000  0.821
     occupation matrix ns (before diag.):
       0.124  0.094 -0.000  0.041  0.000
       0.094  0.201 -0.000  0.066  0.000
      -0.000 -0.000  0.172  0.000 -0.170
       0.041  0.066  0.000  0.092 -0.000
       0.000  0.000 -0.170 -0.000  0.298
     SPIN  2
     eigenvalues:
       0.985  0.986  0.997  0.997  0.997
     eigenvectors (columns):
      -0.000 -0.572 -0.228 -0.788  0.000
      -0.000 -0.767  0.489  0.415 -0.000
      -0.592  0.000 -0.000  0.000  0.806
      -0.000 -0.291 -0.842  0.454 -0.000
       0.806 -0.000 -0.000  0.000  0.592
     occupation matrix ns (before diag.):
       0.993 -0.005  0.000 -0.002  0.000
      -0.005  0.991 -0.000 -0.002  0.000
       0.000 -0.000  0.993 -0.000  0.006
      -0.002 -0.002 -0.000  0.996 -0.000
       0.000  0.000  0.006 -0.000  0.989

     Number of occupied Hubbard levels =   14.0520

     HUBBARD ENERGY =    0.2541  (Ry)

     total cpu time spent up to now is      113.9 secs

     total energy              =   -1152.69533323 Ry
     estimated scf accuracy    <       0.00133823 Ry

     total magnetization       =    -2.01 Bohr mag/cell
     absolute magnetization    =     6.78 Bohr mag/cell

     iteration #  9     ecut=   120.00 Ry     beta= 0.70
     Davidson diagonalization with overlap

---- Real-time Memory Report at c_bands before calling an iterative solver
           257 MiB given to the printing process from OS
           224 MiB allocation reported by mallinfo(arena+hblkhd)
        660578 MiB available memory on the node where the printing process lives
------------------
     ethr =  7.42E-07,  avg # of iterations =  1.6

     =================== HUBBARD OCCUPATIONS ===================
     ------------------------ ATOM    1 ------------------------
     Tr[ns(  1)] (up, down, total) =   4.96722  3.23587  8.20309
     Atomic magnetic moment for atom   1 =   1.73135
     SPIN  1
     eigenvalues:
       0.988  0.989  0.996  0.996  0.997
     eigenvectors (columns):
      -0.000  0.596 -0.802  0.000 -0.051
      -0.000  0.746  0.576 -0.000 -0.336
      -0.550 -0.000  0.000  0.835 -0.000
      -0.000  0.299  0.162 -0.000  0.941
       0.835  0.000  0.000  0.550 -0.000
     occupation matrix ns (before diag.):
       0.994 -0.003  0.000 -0.001  0.000
      -0.003  0.993 -0.000 -0.002  0.000
       0.000 -0.000  0.994 -0.000  0.004
      -0.001 -0.002 -0.000  0.996 -0.000
       0.000  0.000  0.004 -0.000  0.991
     SPIN  2
     eigenvalues:
       0.126  0.126  0.994  0.994  0.995
     eigenvectors (columns):
      -0.000 -0.533  0.810  0.000  0.243
      -0.000 -0.802 -0.575 -0.000  0.159
      -0.570  0.000 -0.000  0.822  0.000
      -0.000 -0.269  0.110  0.000 -0.957
       0.822 -0.000 -0.000  0.570  0.000
     occupation matrix ns (before diag.):
       0.747 -0.371  0.000 -0.125  0.000
      -0.371  0.436 -0.000 -0.187  0.000
       0.000 -0.000  0.713 -0.000  0.406
      -0.125 -0.187 -0.000  0.932 -0.000
       0.000  0.000  0.406 -0.000  0.408
     ------------------------ ATOM    2 ------------------------
     Tr[ns(  2)] (up, down, total) =   0.88986  4.96167  5.85153
     Atomic magnetic moment for atom   2 =  -4.07180
     SPIN  1
     eigenvalues:
       0.053  0.057  0.063  0.287  0.431
     eigenvectors (columns):
      -0.000  0.518 -0.682  0.515  0.000
       0.000 -0.612  0.125  0.781  0.000
       0.820 -0.000 -0.000  0.000 -0.572
       0.000  0.597  0.720  0.353 -0.000
       0.572 -0.000 -0.000 -0.000  0.820
     occupation matrix ns (before diag.):
       0.121  0.092 -0.000  0.039  0.000
       0.092  0.197 -0.000  0.064  0.000
      -0.000 -0.000  0.176  0.000 -0.177
       0.039  0.064  0.000  0.089 -0.000
       0.000  0.000 -0.177 -0.000  0.307
     SPIN  2
     eigenvalues:
       0.985  0.986  0.997  0.997  0.997
     eigenvectors (columns):
      -0.000 -0.572 -0.279 -0.772  0.000
      -0.000 -0.767  0.515  0.382 -0.000
      -0.592  0.000 -0.000  0.000  0.806
      -0.000 -0.291 -0.811  0.508 -0.000
       0.806 -0.000 -0.000  0.000  0.592
     occupation matrix ns (before diag.):
       0.993 -0.005  0.000 -0.002  0.000
      -0.005  0.990 -0.000 -0.002  0.000
       0.000 -0.000  0.993 -0.000  0.006
      -0.002 -0.002 -0.000  0.996 -0.000
       0.000  0.000  0.006 -0.000  0.989

     Number of occupied Hubbard levels =   14.0546

     HUBBARD ENERGY =    0.2543  (Ry)

     total cpu time spent up to now is      124.8 secs

     total energy              =   -1152.69533383 Ry
     estimated scf accuracy    <       0.00119286 Ry

     total magnetization       =    -2.01 Bohr mag/cell
     absolute magnetization    =     6.77 Bohr mag/cell

     iteration # 10     ecut=   120.00 Ry     beta= 0.70
     Davidson diagonalization with overlap

---- Real-time Memory Report at c_bands before calling an iterative solver
           258 MiB given to the printing process from OS
           224 MiB allocation reported by mallinfo(arena+hblkhd)
        662360 MiB available memory on the node where the printing process lives
------------------
     ethr =  7.42E-07,  avg # of iterations =  1.0

     =================== HUBBARD OCCUPATIONS ===================
     ------------------------ ATOM    1 ------------------------
     Tr[ns(  1)] (up, down, total) =   4.96724  3.23594  8.20318
     Atomic magnetic moment for atom   1 =   1.73130
     SPIN  1
     eigenvalues:
       0.988  0.990  0.996  0.996  0.997
     eigenvectors (columns):
      -0.000  0.596 -0.801  0.000 -0.051
      -0.000  0.745  0.576 -0.000 -0.336
      -0.550 -0.000  0.000  0.835 -0.000
      -0.000  0.298  0.163 -0.000  0.940
       0.835  0.000  0.000  0.550 -0.000
     occupation matrix ns (before diag.):
       0.994 -0.003  0.000 -0.001  0.000
      -0.003  0.993 -0.000 -0.002  0.000
       0.000 -0.000  0.994 -0.000  0.004
      -0.001 -0.002 -0.000  0.996 -0.000
       0.000  0.000  0.004 -0.000  0.991
     SPIN  2
     eigenvalues:
       0.126  0.126  0.994  0.994  0.995
     eigenvectors (columns):
      -0.000 -0.533  0.811  0.000  0.242
      -0.000 -0.802 -0.575 -0.000  0.160
      -0.570  0.000 -0.000  0.822  0.000
      -0.000 -0.269  0.109  0.000 -0.957
       0.822 -0.000 -0.000  0.570  0.000
     occupation matrix ns (before diag.):
       0.747 -0.371  0.000 -0.124  0.000
      -0.371  0.436 -0.000 -0.187  0.000
       0.000 -0.000  0.713 -0.000  0.406
      -0.124 -0.187 -0.000  0.932 -0.000
       0.000  0.000  0.406 -0.000  0.408
     ------------------------ ATOM    2 ------------------------
     Tr[ns(  2)] (up, down, total) =   0.88921  4.96174  5.85095
     Atomic magnetic moment for atom   2 =  -4.07252
     SPIN  1
     eigenvalues:
       0.053  0.057  0.063  0.290  0.426
     eigenvectors (columns):
      -0.000  0.516 -0.684  0.515  0.000
      -0.000 -0.613  0.125  0.780  0.000
       0.821 -0.000 -0.000  0.000 -0.571
       0.000  0.598  0.719  0.355 -0.000
       0.571 -0.000 -0.000 -0.000  0.821
     occupation matrix ns (before diag.):
       0.122  0.093 -0.000  0.040  0.000
       0.093  0.199 -0.000  0.065  0.000
      -0.000 -0.000  0.175  0.000 -0.175
       0.040  0.065  0.000  0.090 -0.000
       0.000  0.000 -0.175 -0.000  0.304
     SPIN  2
     eigenvalues:
       0.985  0.986  0.997  0.997  0.997
     eigenvectors (columns):
      -0.000 -0.572 -0.275 -0.773  0.000
      -0.000 -0.767  0.514  0.385 -0.000
      -0.592  0.000 -0.000  0.000  0.806
      -0.000 -0.291 -0.813  0.505 -0.000
       0.806 -0.000 -0.000  0.000  0.592
     occupation matrix ns (before diag.):
       0.993 -0.005  0.000 -0.002  0.000
      -0.005  0.990 -0.000 -0.002  0.000
       0.000 -0.000  0.993 -0.000  0.006
      -0.002 -0.002 -0.000  0.996 -0.000
       0.000  0.000  0.006 -0.000  0.989

     Number of occupied Hubbard levels =   14.0541

     HUBBARD ENERGY =    0.2558  (Ry)

     total cpu time spent up to now is      135.3 secs

     total energy              =   -1152.69324437 Ry
     estimated scf accuracy    <       0.00115746 Ry

     total magnetization       =    -2.01 Bohr mag/cell
     absolute magnetization    =     6.77 Bohr mag/cell

     iteration # 11     ecut=   120.00 Ry     beta= 0.70
     Davidson diagonalization with overlap

---- Real-time Memory Report at c_bands before calling an iterative solver
           258 MiB given to the printing process from OS
           225 MiB allocation reported by mallinfo(arena+hblkhd)
        657922 MiB available memory on the node where the printing process lives
------------------
     ethr =  7.42E-07,  avg # of iterations =  2.2

     =================== HUBBARD OCCUPATIONS ===================
     ------------------------ ATOM    1 ------------------------
     Tr[ns(  1)] (up, down, total) =   4.96717  3.23573  8.20290
     Atomic magnetic moment for atom   1 =   1.73144
     SPIN  1
     eigenvalues:
       0.988  0.990  0.996  0.996  0.997
     eigenvectors (columns):
      -0.000 -0.601 -0.798  0.000  0.043
      -0.000 -0.744  0.578 -0.000  0.336
      -0.549  0.000  0.000  0.836  0.000
      -0.000 -0.293  0.170 -0.000 -0.941
       0.836 -0.000  0.000  0.549  0.000
     occupation matrix ns (before diag.):
       0.994 -0.003  0.000 -0.001  0.000
      -0.003  0.993 -0.000 -0.002  0.000
       0.000 -0.000  0.994 -0.000  0.004
      -0.001 -0.002 -0.000  0.996 -0.000
       0.000  0.000  0.004 -0.000  0.991
     SPIN  2
     eigenvalues:
       0.126  0.126  0.994  0.994  0.995
     eigenvectors (columns):
      -0.000 -0.533  0.814  0.000  0.232
      -0.000 -0.802 -0.573 -0.000  0.167
      -0.569  0.000 -0.000  0.822  0.000
      -0.000 -0.269  0.097  0.000 -0.958
       0.822 -0.000 -0.000  0.569  0.000
     occupation matrix ns (before diag.):
       0.747 -0.371  0.000 -0.125  0.000
      -0.371  0.435 -0.000 -0.187  0.000
       0.000 -0.000  0.713 -0.000  0.406
      -0.125 -0.187 -0.000  0.932 -0.000
       0.000  0.000  0.406 -0.000  0.408
     ------------------------ ATOM    2 ------------------------
     Tr[ns(  2)] (up, down, total) =   0.88996  4.96211  5.85207
     Atomic magnetic moment for atom   2 =  -4.07215
     SPIN  1
     eigenvalues:
       0.053  0.059  0.064  0.350  0.364
     eigenvectors (columns):
      -0.000  0.622 -0.595  0.509  0.000
       0.000 -0.639 -0.010  0.769  0.000
       0.825  0.000 -0.000  0.000 -0.566
       0.000  0.453  0.803  0.387  0.000
       0.566  0.000 -0.000 -0.000  0.825
     occupation matrix ns (before diag.):
       0.136  0.114 -0.000  0.055  0.000
       0.114  0.231 -0.000  0.086  0.000
      -0.000 -0.000  0.153  0.000 -0.145
       0.055  0.086  0.000  0.106 -0.000
       0.000  0.000 -0.145 -0.000  0.265
     SPIN  2
     eigenvalues:
       0.985  0.986  0.997  0.997  0.997
     eigenvectors (columns):
      -0.000 -0.572 -0.218 -0.791  0.000
      -0.000 -0.767  0.485  0.420 -0.000
      -0.592  0.000 -0.000  0.000  0.806
      -0.000 -0.292 -0.847  0.445 -0.000
       0.806 -0.000 -0.000  0.000  0.592
     occupation matrix ns (before diag.):
       0.993 -0.005  0.000 -0.002  0.000
      -0.005  0.990 -0.000 -0.002  0.000
       0.000 -0.000  0.993 -0.000  0.006
      -0.002 -0.002 -0.000  0.996 -0.000
       0.000  0.000  0.006 -0.000  0.989

     Number of occupied Hubbard levels =   14.0550

     HUBBARD ENERGY =    0.2563  (Ry)

     total cpu time spent up to now is      147.2 secs

     total energy              =   -1152.69454641 Ry
     estimated scf accuracy    <       0.00091406 Ry

     total magnetization       =    -2.01 Bohr mag/cell
     absolute magnetization    =     6.79 Bohr mag/cell

     iteration # 12     ecut=   120.00 Ry     beta= 0.70
     Davidson diagonalization with overlap

---- Real-time Memory Report at c_bands before calling an iterative solver
           258 MiB given to the printing process from OS
           225 MiB allocation reported by mallinfo(arena+hblkhd)
        657111 MiB available memory on the node where the printing process lives
------------------
     ethr =  7.42E-07,  avg # of iterations =  2.0

     =================== HUBBARD OCCUPATIONS ===================
     ------------------------ ATOM    1 ------------------------
     Tr[ns(  1)] (up, down, total) =   4.96710  3.23586  8.20296
     Atomic magnetic moment for atom   1 =   1.73124
     SPIN  1
     eigenvalues:
       0.988  0.990  0.996  0.996  0.997
     eigenvectors (columns):
      -0.000 -0.603 -0.797  0.000  0.042
      -0.000 -0.743  0.580 -0.000  0.335
      -0.551  0.000  0.000  0.835  0.000
      -0.000 -0.291  0.171 -0.000 -0.941
       0.835 -0.000  0.000  0.551  0.000
     occupation matrix ns (before diag.):
       0.994 -0.003  0.000 -0.001  0.000
      -0.003  0.993 -0.000 -0.002  0.000
       0.000 -0.000  0.994 -0.000  0.004
      -0.001 -0.002 -0.000  0.996 -0.000
       0.000  0.000  0.004 -0.000  0.991
     SPIN  2
     eigenvalues:
       0.126  0.126  0.994  0.994  0.995
     eigenvectors (columns):
      -0.000 -0.533  0.814  0.000  0.232
      -0.000 -0.802 -0.573 -0.000  0.167
      -0.569  0.000 -0.000  0.822  0.000
      -0.000 -0.269  0.097  0.000 -0.958
       0.822 -0.000 -0.000  0.569  0.000
     occupation matrix ns (before diag.):
       0.748 -0.371  0.000 -0.125  0.000
      -0.371  0.436 -0.000 -0.187  0.000
       0.000 -0.000  0.713 -0.000  0.406
      -0.125 -0.187 -0.000  0.932 -0.000
       0.000  0.000  0.406 -0.000  0.408
     ------------------------ ATOM    2 ------------------------
     Tr[ns(  2)] (up, down, total) =   0.88225  4.96115  5.84340
     Atomic magnetic moment for atom   2 =  -4.07890
     SPIN  1
     eigenvalues:
       0.051  0.055  0.061  0.352  0.363
     eigenvectors (columns):
      -0.000  0.722 -0.473 -0.000  0.504
       0.000 -0.624 -0.131 -0.000  0.770
       0.824  0.000 -0.000 -0.567 -0.000
       0.000  0.298  0.871 -0.000  0.390
       0.567  0.000 -0.000  0.824  0.000
     occupation matrix ns (before diag.):
       0.135  0.120 -0.000  0.058  0.000
       0.120  0.238 -0.000  0.092  0.000
      -0.000 -0.000  0.148  0.000 -0.141
       0.058  0.092  0.000  0.107 -0.000
       0.000  0.000 -0.141 -0.000  0.255
     SPIN  2
     eigenvalues:
       0.985  0.985  0.997  0.997  0.997
     eigenvectors (columns):
      -0.000 -0.571 -0.302 -0.763  0.000
      -0.000 -0.766  0.529  0.365 -0.000
      -0.591  0.000 -0.000  0.000  0.806
      -0.000 -0.294 -0.793  0.533 -0.000
       0.806 -0.000 -0.000  0.000  0.591
     occupation matrix ns (before diag.):
       0.993 -0.005  0.000 -0.002  0.000
      -0.005  0.990 -0.000 -0.003  0.000
       0.000 -0.000  0.993 -0.000  0.006
      -0.002 -0.003 -0.000  0.996 -0.000
       0.000  0.000  0.006 -0.000  0.989

     Number of occupied Hubbard levels =   14.0464

     HUBBARD ENERGY =    0.2549  (Ry)

     total cpu time spent up to now is      159.1 secs

     total energy              =   -1152.69471686 Ry
     estimated scf accuracy    <       0.00005981 Ry

     total magnetization       =    -2.02 Bohr mag/cell
     absolute magnetization    =     6.79 Bohr mag/cell

     iteration # 13     ecut=   120.00 Ry     beta= 0.70
     Davidson diagonalization with overlap

---- Real-time Memory Report at c_bands before calling an iterative solver
           258 MiB given to the printing process from OS
           225 MiB allocation reported by mallinfo(arena+hblkhd)
        657109 MiB available memory on the node where the printing process lives
------------------
     ethr =  5.44E-08,  avg # of iterations =  3.9

     =================== HUBBARD OCCUPATIONS ===================
     ------------------------ ATOM    1 ------------------------
     Tr[ns(  1)] (up, down, total) =   4.96725  3.23659  8.20384
     Atomic magnetic moment for atom   1 =   1.73066
     SPIN  1
     eigenvalues:
       0.988  0.990  0.996  0.996  0.997
     eigenvectors (columns):
      -0.000 -0.603 -0.796  0.000  0.042
      -0.000 -0.743  0.580 -0.000  0.334
      -0.551  0.000  0.000  0.834  0.000
      -0.000 -0.290  0.170 -0.000 -0.942
       0.834 -0.000  0.000  0.551  0.000
     occupation matrix ns (before diag.):
       0.994 -0.003  0.000 -0.001  0.000
      -0.003  0.993 -0.000 -0.002  0.000
       0.000 -0.000  0.994 -0.000  0.004
      -0.001 -0.002 -0.000  0.996 -0.000
       0.000  0.000  0.004 -0.000  0.991
     SPIN  2
     eigenvalues:
       0.127  0.127  0.994  0.994  0.995
     eigenvectors (columns):
      -0.533  0.000  0.813  0.000  0.234
      -0.802  0.000 -0.574 -0.000  0.166
      -0.000 -0.570 -0.000  0.822  0.000
      -0.269  0.000  0.100  0.000 -0.958
       0.000  0.822 -0.000  0.570  0.000
     occupation matrix ns (before diag.):
       0.748 -0.371  0.000 -0.125  0.000
      -0.371  0.436 -0.000 -0.187  0.000
       0.000 -0.000  0.713 -0.000  0.406
      -0.125 -0.187 -0.000  0.932 -0.000
       0.000  0.000  0.406 -0.000  0.408
     ------------------------ ATOM    2 ------------------------
     Tr[ns(  2)] (up, down, total) =   0.88195  4.96121  5.84316
     Atomic magnetic moment for atom   2 =  -4.07926
     SPIN  1
     eigenvalues:
       0.051  0.054  0.061  0.344  0.372
     eigenvectors (columns):
      -0.000  0.753 -0.425 -0.000  0.501
       0.000 -0.612 -0.175 -0.000  0.771
       0.822  0.000 -0.000 -0.570 -0.000
       0.000  0.240  0.888 -0.000  0.392
       0.570  0.000 -0.000  0.822  0.000
     occupation matrix ns (before diag.):
       0.135  0.123 -0.000  0.060  0.000
       0.123  0.243 -0.000  0.095  0.000
      -0.000 -0.000  0.146  0.000 -0.138
       0.060  0.095  0.000  0.108 -0.000
       0.000  0.000 -0.138 -0.000  0.249
     SPIN  2
     eigenvalues:
       0.985  0.985  0.997  0.997  0.997
     eigenvectors (columns):
      -0.000 -0.571 -0.295 -0.766  0.000
      -0.000 -0.767  0.526  0.369 -0.000
      -0.591  0.000 -0.000  0.000  0.806
      -0.000 -0.294 -0.798  0.527 -0.000
       0.806 -0.000 -0.000  0.000  0.591
     occupation matrix ns (before diag.):
       0.993 -0.005  0.000 -0.002  0.000
      -0.005  0.990 -0.000 -0.003  0.000
       0.000 -0.000  0.993 -0.000  0.006
      -0.002 -0.003 -0.000  0.996 -0.000
       0.000  0.000  0.006 -0.000  0.989

     Number of occupied Hubbard levels =   14.0470

     HUBBARD ENERGY =    0.2547  (Ry)

     total cpu time spent up to now is      171.6 secs

     total energy              =   -1152.69472787 Ry
     estimated scf accuracy    <       0.00004648 Ry

     total magnetization       =    -2.02 Bohr mag/cell
     absolute magnetization    =     6.78 Bohr mag/cell

     iteration # 14     ecut=   120.00 Ry     beta= 0.70
     Davidson diagonalization with overlap

---- Real-time Memory Report at c_bands before calling an iterative solver
           258 MiB given to the printing process from OS
           225 MiB allocation reported by mallinfo(arena+hblkhd)
        657100 MiB available memory on the node where the printing process lives
------------------
     ethr =  4.23E-08,  avg # of iterations =  2.0

     =================== HUBBARD OCCUPATIONS ===================
     ------------------------ ATOM    1 ------------------------
     Tr[ns(  1)] (up, down, total) =   4.96729  3.23666  8.20395
     Atomic magnetic moment for atom   1 =   1.73064
     SPIN  1
     eigenvalues:
       0.988  0.990  0.996  0.996  0.997
     eigenvectors (columns):
      -0.000 -0.603 -0.797  0.000  0.042
      -0.000 -0.743  0.580 -0.000  0.334
      -0.552  0.000  0.000  0.834  0.000
      -0.000 -0.290  0.171 -0.000 -0.942
       0.834 -0.000  0.000  0.552  0.000
     occupation matrix ns (before diag.):
       0.994 -0.003  0.000 -0.001  0.000
      -0.003  0.993 -0.000 -0.002  0.000
       0.000 -0.000  0.994 -0.000  0.004
      -0.001 -0.002 -0.000  0.996 -0.000
       0.000  0.000  0.004 -0.000  0.991
     SPIN  2
     eigenvalues:
       0.127  0.127  0.994  0.994  0.995
     eigenvectors (columns):
      -0.533  0.000  0.813  0.000  0.235
      -0.802  0.000 -0.574 -0.000  0.165
      -0.000 -0.570 -0.000  0.822  0.000
      -0.269  0.000  0.100  0.000 -0.958
       0.000  0.822 -0.000  0.570  0.000
     occupation matrix ns (before diag.):
       0.748 -0.371  0.000 -0.125  0.000
      -0.371  0.436 -0.000 -0.188  0.000
       0.000 -0.000  0.713 -0.000  0.406
      -0.125 -0.188 -0.000  0.932 -0.000
       0.000  0.000  0.406 -0.000  0.408
     ------------------------ ATOM    2 ------------------------
     Tr[ns(  2)] (up, down, total) =   0.87819  4.96088  5.83906
     Atomic magnetic moment for atom   2 =  -4.08269
     SPIN  1
     eigenvalues:
       0.050  0.053  0.060  0.349  0.366
     eigenvectors (columns):
      -0.000 -0.755  0.425 -0.000  0.499
       0.000  0.609  0.172 -0.000  0.774
       0.819 -0.000  0.000 -0.573 -0.000
       0.000 -0.243 -0.889 -0.000  0.389
       0.573 -0.000  0.000  0.819  0.000
     occupation matrix ns (before diag.):
       0.133  0.121 -0.000  0.058  0.000
       0.121  0.241 -0.000  0.093  0.000
      -0.000 -0.000  0.148  0.000 -0.140
       0.058  0.093  0.000  0.106 -0.000
       0.000  0.000 -0.140 -0.000  0.251
     SPIN  2
     eigenvalues:
       0.985  0.985  0.997  0.997  0.997
     eigenvectors (columns):
      -0.000 -0.571 -0.335 -0.750  0.000
      -0.000 -0.767  0.544  0.341 -0.000
      -0.591  0.000 -0.000  0.000  0.806
      -0.000 -0.294 -0.769  0.567 -0.000
       0.806 -0.000 -0.000  0.000  0.591
     occupation matrix ns (before diag.):
       0.993 -0.005  0.000 -0.002  0.000
      -0.005  0.990 -0.000 -0.003  0.000
       0.000 -0.000  0.993 -0.000  0.006
      -0.002 -0.003 -0.000  0.996 -0.000
       0.000  0.000  0.006 -0.000  0.989

     Number of occupied Hubbard levels =   14.0430

     HUBBARD ENERGY =    0.2548  (Ry)

     total cpu time spent up to now is      184.1 secs

     total energy              =   -1152.69475156 Ry
     estimated scf accuracy    <       0.00000793 Ry

     total magnetization       =    -2.02 Bohr mag/cell
     absolute magnetization    =     6.78 Bohr mag/cell

     iteration # 15     ecut=   120.00 Ry     beta= 0.70
     Davidson diagonalization with overlap

---- Real-time Memory Report at c_bands before calling an iterative solver
           258 MiB given to the printing process from OS
           225 MiB allocation reported by mallinfo(arena+hblkhd)
        660437 MiB available memory on the node where the printing process lives
------------------
     ethr =  7.21E-09,  avg # of iterations =  2.2

     =================== HUBBARD OCCUPATIONS ===================
     ------------------------ ATOM    1 ------------------------
     Tr[ns(  1)] (up, down, total) =   4.96729  3.23662  8.20391
     Atomic magnetic moment for atom   1 =   1.73067
     SPIN  1
     eigenvalues:
       0.988  0.990  0.996  0.996  0.997
     eigenvectors (columns):
      -0.000 -0.603 -0.797  0.000  0.041
      -0.000 -0.743  0.580 -0.000  0.334
      -0.551  0.000  0.000  0.834  0.000
      -0.000 -0.290  0.171 -0.000 -0.942
       0.834 -0.000  0.000  0.551  0.000
     occupation matrix ns (before diag.):
       0.994 -0.003  0.000 -0.001  0.000
      -0.003  0.993 -0.000 -0.002  0.000
       0.000 -0.000  0.994 -0.000  0.004
      -0.001 -0.002 -0.000  0.996 -0.000
       0.000  0.000  0.004 -0.000  0.991
     SPIN  2
     eigenvalues:
       0.127  0.127  0.994  0.994  0.995
     eigenvectors (columns):
      -0.533  0.000  0.813  0.000  0.234
      -0.802  0.000 -0.573 -0.000  0.166
      -0.000 -0.570 -0.000  0.822  0.000
      -0.269  0.000  0.099  0.000 -0.958
       0.000  0.822 -0.000  0.570  0.000
     occupation matrix ns (before diag.):
       0.748 -0.371  0.000 -0.125  0.000
      -0.371  0.436 -0.000 -0.188  0.000
       0.000 -0.000  0.713 -0.000  0.406
      -0.125 -0.188 -0.000  0.932 -0.000
       0.000  0.000  0.406 -0.000  0.408
     ------------------------ ATOM    2 ------------------------
     Tr[ns(  2)] (up, down, total) =   0.87947  4.96097  5.84044
     Atomic magnetic moment for atom   2 =  -4.08150
     SPIN  1
     eigenvalues:
       0.050  0.054  0.060  0.348  0.367
     eigenvectors (columns):
      -0.000  0.749 -0.438 -0.000  0.497
       0.000 -0.610 -0.163 -0.000  0.776
       0.818  0.000 -0.000 -0.576 -0.000
       0.000  0.259  0.884 -0.000  0.389
       0.576  0.000 -0.000  0.818  0.000
     occupation matrix ns (before diag.):
       0.132  0.121 -0.000  0.058  0.000
       0.121  0.242 -0.000  0.094  0.000
      -0.000 -0.000  0.149  0.000 -0.140
       0.058  0.094  0.000  0.106 -0.000
       0.000  0.000 -0.140 -0.000  0.249
     SPIN  2
     eigenvalues:
       0.985  0.985  0.997  0.997  0.997
     eigenvectors (columns):
      -0.000 -0.571 -0.331 -0.751  0.000
      -0.000 -0.767  0.542  0.344 -0.000
      -0.592  0.000 -0.000  0.000  0.806
      -0.000 -0.294 -0.772  0.563 -0.000
       0.806 -0.000 -0.000  0.000  0.592
     occupation matrix ns (before diag.):
       0.993 -0.005  0.000 -0.002  0.000
      -0.005  0.990 -0.000 -0.003  0.000
       0.000 -0.000  0.993 -0.000  0.006
      -0.002 -0.003 -0.000  0.996 -0.000
       0.000  0.000  0.006 -0.000  0.989

     Number of occupied Hubbard levels =   14.0443

     HUBBARD ENERGY =    0.2548  (Ry)

     total cpu time spent up to now is      196.0 secs

     total energy              =   -1152.69475457 Ry
     estimated scf accuracy    <       0.00000148 Ry

     total magnetization       =    -2.02 Bohr mag/cell
     absolute magnetization    =     6.78 Bohr mag/cell

     iteration # 16     ecut=   120.00 Ry     beta= 0.70
     Davidson diagonalization with overlap

---- Real-time Memory Report at c_bands before calling an iterative solver
           258 MiB given to the printing process from OS
           225 MiB allocation reported by mallinfo(arena+hblkhd)
        660437 MiB available memory on the node where the printing process lives
------------------
     ethr =  1.34E-09,  avg # of iterations =  4.6

     =================== HUBBARD OCCUPATIONS ===================
     ------------------------ ATOM    1 ------------------------
     Tr[ns(  1)] (up, down, total) =   4.96730  3.23664  8.20394
     Atomic magnetic moment for atom   1 =   1.73065
     SPIN  1
     eigenvalues:
       0.988  0.990  0.996  0.996  0.997
     eigenvectors (columns):
      -0.000 -0.603 -0.797  0.000  0.041
      -0.000 -0.743  0.580 -0.000  0.334
      -0.551  0.000  0.000  0.834  0.000
      -0.000 -0.290  0.171 -0.000 -0.942
       0.834 -0.000  0.000  0.551  0.000
     occupation matrix ns (before diag.):
       0.994 -0.003  0.000 -0.001  0.000
      -0.003  0.993 -0.000 -0.002  0.000
       0.000 -0.000  0.994 -0.000  0.004
      -0.001 -0.002 -0.000  0.996 -0.000
       0.000  0.000  0.004 -0.000  0.991
     SPIN  2
     eigenvalues:
       0.127  0.127  0.994  0.994  0.995
     eigenvectors (columns):
       0.533  0.000  0.813  0.000 -0.234
       0.802  0.000 -0.573 -0.000 -0.167
       0.000 -0.570 -0.000  0.822 -0.000
       0.269  0.000  0.099  0.000  0.958
      -0.000  0.822 -0.000  0.570 -0.000
     occupation matrix ns (before diag.):
       0.748 -0.371  0.000 -0.125  0.000
      -0.371  0.436 -0.000 -0.188  0.000
       0.000 -0.000  0.713 -0.000  0.406
      -0.125 -0.188 -0.000  0.932 -0.000
       0.000  0.000  0.406 -0.000  0.408
     ------------------------ ATOM    2 ------------------------
     Tr[ns(  2)] (up, down, total) =   0.87947  4.96090  5.84037
     Atomic magnetic moment for atom   2 =  -4.08142
     SPIN  1
     eigenvalues:
       0.050  0.053  0.060  0.349  0.367
     eigenvectors (columns):
      -0.000  0.749 -0.441 -0.000  0.494
       0.000 -0.607 -0.161 -0.000  0.778
       0.816  0.000 -0.000 -0.579 -0.000
       0.000  0.264  0.883 -0.000  0.389
       0.579  0.000 -0.000  0.816  0.000
     occupation matrix ns (before diag.):
       0.131  0.121 -0.000  0.057  0.000
       0.121  0.243 -0.000  0.094  0.000
      -0.000 -0.000  0.150  0.000 -0.141
       0.057  0.094  0.000  0.106 -0.000
       0.000  0.000 -0.141 -0.000  0.249
     SPIN  2
     eigenvalues:
       0.985  0.985  0.997  0.997  0.997
     eigenvectors (columns):
      -0.000 -0.571 -0.341 -0.747  0.000
      -0.000 -0.767  0.547  0.336 -0.000
      -0.592  0.000 -0.000  0.000  0.806
      -0.000 -0.293 -0.765  0.574 -0.000
       0.806 -0.000 -0.000  0.000  0.592
     occupation matrix ns (before diag.):
       0.993 -0.005  0.000 -0.002  0.000
      -0.005  0.990 -0.000 -0.003  0.000
       0.000 -0.000  0.993 -0.000  0.006
      -0.002 -0.003 -0.000  0.996 -0.000
       0.000  0.000  0.006 -0.000  0.989

     Number of occupied Hubbard levels =   14.0443

     HUBBARD ENERGY =    0.2549  (Ry)

     total cpu time spent up to now is      210.7 secs

     total energy              =   -1152.69475648 Ry
     estimated scf accuracy    <       0.00000146 Ry

     total magnetization       =    -2.02 Bohr mag/cell
     absolute magnetization    =     6.78 Bohr mag/cell

     iteration # 17     ecut=   120.00 Ry     beta= 0.70
     Davidson diagonalization with overlap

---- Real-time Memory Report at c_bands before calling an iterative solver
           258 MiB given to the printing process from OS
           225 MiB allocation reported by mallinfo(arena+hblkhd)
        657101 MiB available memory on the node where the printing process lives
------------------
     ethr =  1.33E-09,  avg # of iterations =  2.5

     =================== HUBBARD OCCUPATIONS ===================
     ------------------------ ATOM    1 ------------------------
     Tr[ns(  1)] (up, down, total) =   4.96729  3.23657  8.20386
     Atomic magnetic moment for atom   1 =   1.73072
     SPIN  1
     eigenvalues:
       0.988  0.990  0.996  0.996  0.997
     eigenvectors (columns):
      -0.000 -0.603 -0.797  0.000  0.040
      -0.000 -0.743  0.580 -0.000  0.334
      -0.551  0.000  0.000  0.834  0.000
      -0.000 -0.290  0.172 -0.000 -0.942
       0.834 -0.000  0.000  0.551  0.000
     occupation matrix ns (before diag.):
       0.994 -0.003  0.000 -0.001  0.000
      -0.003  0.993 -0.000 -0.002  0.000
       0.000 -0.000  0.994 -0.000  0.004
      -0.001 -0.002 -0.000  0.996 -0.000
       0.000  0.000  0.004 -0.000  0.991
     SPIN  2
     eigenvalues:
       0.127  0.127  0.994  0.994  0.995
     eigenvectors (columns):
      -0.533  0.000  0.814  0.000  0.233
      -0.802  0.000 -0.573 -0.000  0.167
      -0.000 -0.570 -0.000  0.822  0.000
      -0.270  0.000  0.098  0.000 -0.958
       0.000  0.822 -0.000  0.570  0.000
     occupation matrix ns (before diag.):
       0.748 -0.371  0.000 -0.125  0.000
      -0.371  0.436 -0.000 -0.188  0.000
       0.000 -0.000  0.713 -0.000  0.406
      -0.125 -0.188 -0.000  0.932 -0.000
       0.000  0.000  0.406 -0.000  0.408
     ------------------------ ATOM    2 ------------------------
     Tr[ns(  2)] (up, down, total) =   0.88030  4.96096  5.84126
     Atomic magnetic moment for atom   2 =  -4.08066
     SPIN  1
     eigenvalues:
       0.050  0.054  0.060  0.349  0.367
     eigenvectors (columns):
      -0.000  0.743 -0.457 -0.000  0.489
       0.000 -0.606 -0.151 -0.000  0.781
       0.813  0.000 -0.000 -0.582 -0.000
       0.000  0.283  0.877 -0.000  0.389
       0.582  0.000 -0.000  0.813  0.000
     occupation matrix ns (before diag.):
       0.130  0.120 -0.000  0.057  0.000
       0.120  0.245 -0.000  0.094  0.000
      -0.000 -0.000  0.151  0.000 -0.141
       0.057  0.094  0.000  0.106 -0.000
       0.000  0.000 -0.141 -0.000  0.248
     SPIN  2
     eigenvalues:
       0.985  0.985  0.997  0.997  0.997
     eigenvectors (columns):
      -0.000 -0.571 -0.338 -0.748  0.000
      -0.000 -0.767  0.545  0.339 -0.000
      -0.592  0.000 -0.000  0.000  0.806
      -0.000 -0.293 -0.767  0.570 -0.000
       0.806 -0.000 -0.000  0.000  0.592
     occupation matrix ns (before diag.):
       0.993 -0.005  0.000 -0.002  0.000
      -0.005  0.990 -0.000 -0.003  0.000
       0.000 -0.000  0.993 -0.000  0.006
      -0.002 -0.003 -0.000  0.996 -0.000
       0.000  0.000  0.006 -0.000  0.989

     Number of occupied Hubbard levels =   14.0451

     HUBBARD ENERGY =    0.2548  (Ry)

     total cpu time spent up to now is      223.8 secs

     total energy              =   -1152.69475959 Ry
     estimated scf accuracy    <       0.00000177 Ry

     total magnetization       =    -2.02 Bohr mag/cell
     absolute magnetization    =     6.78 Bohr mag/cell

     iteration # 18     ecut=   120.00 Ry     beta= 0.70
     Davidson diagonalization with overlap

---- Real-time Memory Report at c_bands before calling an iterative solver
           258 MiB given to the printing process from OS
           225 MiB allocation reported by mallinfo(arena+hblkhd)
        659538 MiB available memory on the node where the printing process lives
------------------
     ethr =  1.33E-09,  avg # of iterations =  2.6

     =================== HUBBARD OCCUPATIONS ===================
     ------------------------ ATOM    1 ------------------------
     Tr[ns(  1)] (up, down, total) =   4.96730  3.23658  8.20388
     Atomic magnetic moment for atom   1 =   1.73072
     SPIN  1
     eigenvalues:
       0.988  0.990  0.996  0.996  0.997
     eigenvectors (columns):
      -0.000 -0.603 -0.797  0.000  0.040
      -0.000 -0.743  0.580 -0.000  0.334
      -0.551  0.000  0.000  0.834  0.000
      -0.000 -0.289  0.172 -0.000 -0.942
       0.834 -0.000  0.000  0.551  0.000
     occupation matrix ns (before diag.):
       0.994 -0.003  0.000 -0.001  0.000
      -0.003  0.993 -0.000 -0.002  0.000
       0.000 -0.000  0.994 -0.000  0.004
      -0.001 -0.002 -0.000  0.996 -0.000
       0.000  0.000  0.004 -0.000  0.991
     SPIN  2
     eigenvalues:
       0.127  0.127  0.994  0.994  0.995
     eigenvectors (columns):
      -0.533  0.000  0.814  0.000  0.233
      -0.802  0.000 -0.573 -0.000  0.168
      -0.000 -0.570 -0.000  0.822  0.000
      -0.270  0.000  0.097  0.000 -0.958
       0.000  0.822 -0.000  0.570  0.000
     occupation matrix ns (before diag.):
       0.748 -0.371  0.000 -0.125  0.000
      -0.371  0.436 -0.000 -0.188  0.000
       0.000 -0.000  0.713 -0.000  0.406
      -0.125 -0.188 -0.000  0.932 -0.000
       0.000  0.000  0.406 -0.000  0.408
     ------------------------ ATOM    2 ------------------------
     Tr[ns(  2)] (up, down, total) =   0.88020  4.96093  5.84113
     Atomic magnetic moment for atom   2 =  -4.08074
     SPIN  1
     eigenvalues:
       0.050  0.054  0.060  0.348  0.368
     eigenvectors (columns):
      -0.000 -0.740  0.466 -0.000  0.484
       0.000  0.604  0.146 -0.000  0.783
       0.811 -0.000  0.000 -0.584 -0.000
       0.000 -0.295 -0.873 -0.000  0.390
       0.584 -0.000  0.000  0.811  0.000
     occupation matrix ns (before diag.):
       0.129  0.120 -0.000  0.056  0.000
       0.120  0.246 -0.000  0.095  0.000
      -0.000 -0.000  0.152  0.000 -0.141
       0.056  0.095  0.000  0.107 -0.000
       0.000  0.000 -0.141 -0.000  0.247
     SPIN  2
     eigenvalues:
       0.985  0.985  0.997  0.997  0.997
     eigenvectors (columns):
      -0.000 -0.571 -0.341 -0.747  0.000
      -0.000 -0.767  0.546  0.337 -0.000
      -0.592  0.000 -0.000  0.000  0.806
      -0.000 -0.293 -0.765  0.573 -0.000
       0.806 -0.000 -0.000  0.000  0.592
     occupation matrix ns (before diag.):
       0.993 -0.005  0.000 -0.002  0.000
      -0.005  0.990 -0.000 -0.003  0.000
       0.000 -0.000  0.993 -0.000  0.006
      -0.002 -0.003 -0.000  0.996 -0.000
       0.000  0.000  0.006 -0.000  0.989

     Number of occupied Hubbard levels =   14.0450

     HUBBARD ENERGY =    0.2548  (Ry)

     total cpu time spent up to now is      235.9 secs

     total energy              =   -1152.69476158 Ry
     estimated scf accuracy    <       0.00000080 Ry

     total magnetization       =    -2.02 Bohr mag/cell
     absolute magnetization    =     6.78 Bohr mag/cell

     iteration # 19     ecut=   120.00 Ry     beta= 0.70
     Davidson diagonalization with overlap

---- Real-time Memory Report at c_bands before calling an iterative solver
           258 MiB given to the printing process from OS
           225 MiB allocation reported by mallinfo(arena+hblkhd)
        662229 MiB available memory on the node where the printing process lives
------------------
     ethr =  7.29E-10,  avg # of iterations =  3.5

     =================== HUBBARD OCCUPATIONS ===================
     ------------------------ ATOM    1 ------------------------
     Tr[ns(  1)] (up, down, total) =   4.96730  3.23661  8.20391
     Atomic magnetic moment for atom   1 =   1.73069
     SPIN  1
     eigenvalues:
       0.988  0.990  0.996  0.996  0.997
     eigenvectors (columns):
      -0.000 -0.603 -0.796  0.000  0.040
      -0.000 -0.743  0.580 -0.000  0.334
      -0.551  0.000  0.000  0.834  0.000
      -0.000 -0.289  0.172 -0.000 -0.942
       0.834 -0.000  0.000  0.551  0.000
     occupation matrix ns (before diag.):
       0.994 -0.003  0.000 -0.001  0.000
      -0.003  0.993 -0.000 -0.002  0.000
       0.000 -0.000  0.994 -0.000  0.004
      -0.001 -0.002 -0.000  0.996 -0.000
       0.000  0.000  0.004 -0.000  0.991
     SPIN  2
     eigenvalues:
       0.127  0.127  0.994  0.994  0.995
     eigenvectors (columns):
       0.533  0.000  0.814  0.000 -0.232
       0.802  0.000 -0.573 -0.000 -0.168
       0.000 -0.570 -0.000  0.822 -0.000
       0.270  0.000  0.097  0.000  0.958
      -0.000  0.822 -0.000  0.570 -0.000
     occupation matrix ns (before diag.):
       0.748 -0.371  0.000 -0.125  0.000
      -0.371  0.436 -0.000 -0.188  0.000
       0.000 -0.000  0.713 -0.000  0.406
      -0.125 -0.188 -0.000  0.932 -0.000
       0.000  0.000  0.406 -0.000  0.408
     ------------------------ ATOM    2 ------------------------
     Tr[ns(  2)] (up, down, total) =   0.87996  4.96091  5.84087
     Atomic magnetic moment for atom   2 =  -4.08096
     SPIN  1
     eigenvalues:
       0.050  0.053  0.061  0.349  0.367
     eigenvectors (columns):
      -0.000  0.737 -0.476 -0.000  0.481
       0.000 -0.603 -0.141 -0.000  0.785
       0.810  0.000 -0.000 -0.586 -0.000
       0.000  0.306  0.868 -0.000  0.391
       0.586  0.000 -0.000  0.810  0.000
     occupation matrix ns (before diag.):
       0.127  0.119 -0.000  0.056  0.000
       0.119  0.247 -0.000  0.095  0.000
      -0.000 -0.000  0.153  0.000 -0.142
       0.056  0.095  0.000  0.107 -0.000
       0.000  0.000 -0.142 -0.000  0.246
     SPIN  2
     eigenvalues:
       0.985  0.985  0.997  0.997  0.997
     eigenvectors (columns):
      -0.000 -0.570 -0.344 -0.746  0.000
      -0.000 -0.767  0.547  0.334 -0.000
      -0.592  0.000 -0.000  0.000  0.806
      -0.000 -0.293 -0.763  0.576 -0.000
       0.806 -0.000 -0.000  0.000  0.592
     occupation matrix ns (before diag.):
       0.993 -0.005  0.000 -0.002  0.000
      -0.005  0.990 -0.000 -0.003  0.000
       0.000 -0.000  0.993 -0.000  0.006
      -0.002 -0.003 -0.000  0.996 -0.000
       0.000  0.000  0.006 -0.000  0.989

     Number of occupied Hubbard levels =   14.0448

     HUBBARD ENERGY =    0.2550  (Ry)

     total cpu time spent up to now is      248.8 secs

     total energy              =   -1152.69475954 Ry
     estimated scf accuracy    <       0.00000034 Ry

     total magnetization       =    -2.02 Bohr mag/cell
     absolute magnetization    =     6.78 Bohr mag/cell

     iteration # 20     ecut=   120.00 Ry     beta= 0.70
     Davidson diagonalization with overlap

---- Real-time Memory Report at c_bands before calling an iterative solver
           258 MiB given to the printing process from OS
           225 MiB allocation reported by mallinfo(arena+hblkhd)
        657100 MiB available memory on the node where the printing process lives
------------------
     ethr =  3.11E-10,  avg # of iterations =  4.0

     =================== HUBBARD OCCUPATIONS ===================
     ------------------------ ATOM    1 ------------------------
     Tr[ns(  1)] (up, down, total) =   4.96730  3.23664  8.20394
     Atomic magnetic moment for atom   1 =   1.73065
     SPIN  1
     eigenvalues:
       0.988  0.990  0.996  0.996  0.997
     eigenvectors (columns):
      -0.000 -0.603 -0.796  0.000  0.040
      -0.000 -0.743  0.580 -0.000  0.334
      -0.551  0.000  0.000  0.835  0.000
      -0.000 -0.289  0.172 -0.000 -0.942
       0.835 -0.000  0.000  0.551  0.000
     occupation matrix ns (before diag.):
       0.994 -0.003  0.000 -0.001  0.000
      -0.003  0.993 -0.000 -0.002  0.000
       0.000 -0.000  0.994 -0.000  0.004
      -0.001 -0.002 -0.000  0.996 -0.000
       0.000  0.000  0.004 -0.000  0.991
     SPIN  2
     eigenvalues:
       0.127  0.127  0.994  0.994  0.995
     eigenvectors (columns):
      -0.533  0.000  0.814  0.000  0.232
      -0.802  0.000 -0.573 -0.000  0.168
      -0.000 -0.570 -0.000  0.822  0.000
      -0.270  0.000  0.096  0.000 -0.958
       0.000  0.822 -0.000  0.570  0.000
     occupation matrix ns (before diag.):
       0.748 -0.371  0.000 -0.125  0.000
      -0.371  0.436 -0.000 -0.188  0.000
       0.000 -0.000  0.713 -0.000  0.406
      -0.125 -0.188 -0.000  0.932 -0.000
       0.000  0.000  0.406 -0.000  0.408
     ------------------------ ATOM    2 ------------------------
     Tr[ns(  2)] (up, down, total) =   0.88035  4.96091  5.84126
     Atomic magnetic moment for atom   2 =  -4.08056
     SPIN  1
     eigenvalues:
       0.050  0.053  0.061  0.349  0.366
     eigenvectors (columns):
      -0.000  0.728 -0.496 -0.000  0.473
       0.000 -0.601 -0.131 -0.000  0.788
       0.808  0.000 -0.000 -0.589 -0.000
       0.000  0.329  0.858 -0.000  0.394
       0.589  0.000 -0.000  0.808  0.000
     occupation matrix ns (before diag.):
       0.125  0.117 -0.000  0.055  0.000
       0.117  0.248 -0.000  0.096  0.000
      -0.000 -0.000  0.154  0.000 -0.142
       0.055  0.096  0.000  0.107 -0.000
       0.000  0.000 -0.142 -0.000  0.246
     SPIN  2
     eigenvalues:
       0.985  0.985  0.997  0.997  0.997
     eigenvectors (columns):
      -0.000 -0.570 -0.344 -0.746  0.000
      -0.000 -0.767  0.547  0.334 -0.000
      -0.592  0.000 -0.000  0.000  0.806
      -0.000 -0.293 -0.763  0.576 -0.000
       0.806 -0.000 -0.000  0.000  0.592
     occupation matrix ns (before diag.):
       0.993 -0.005  0.000 -0.002  0.000
      -0.005  0.990 -0.000 -0.003  0.000
       0.000 -0.000  0.993 -0.000  0.006
      -0.002 -0.003 -0.000  0.996 -0.000
       0.000  0.000  0.006 -0.000  0.989

     Number of occupied Hubbard levels =   14.0452

     HUBBARD ENERGY =    0.2551  (Ry)

     total cpu time spent up to now is      263.6 secs

     total energy              =   -1152.69475579 Ry
     estimated scf accuracy    <       0.00000024 Ry

     total magnetization       =    -2.02 Bohr mag/cell
     absolute magnetization    =     6.78 Bohr mag/cell

     iteration # 21     ecut=   120.00 Ry     beta= 0.70
     Davidson diagonalization with overlap

---- Real-time Memory Report at c_bands before calling an iterative solver
           258 MiB given to the printing process from OS
           225 MiB allocation reported by mallinfo(arena+hblkhd)
        661961 MiB available memory on the node where the printing process lives
------------------
     ethr =  2.15E-10,  avg # of iterations =  5.1

     =================== HUBBARD OCCUPATIONS ===================
     ------------------------ ATOM    1 ------------------------
     Tr[ns(  1)] (up, down, total) =   4.96729  3.23663  8.20393
     Atomic magnetic moment for atom   1 =   1.73066
     SPIN  1
     eigenvalues:
       0.988  0.990  0.996  0.996  0.997
     eigenvectors (columns):
      -0.000 -0.604 -0.796  0.000  0.040
      -0.000 -0.743  0.580 -0.000  0.334
      -0.550  0.000  0.000  0.835  0.000
      -0.000 -0.289  0.172 -0.000 -0.942
       0.835 -0.000  0.000  0.550  0.000
     occupation matrix ns (before diag.):
       0.994 -0.003  0.000 -0.001  0.000
      -0.003  0.993 -0.000 -0.002  0.000
       0.000 -0.000  0.994 -0.000  0.004
      -0.001 -0.002 -0.000  0.996 -0.000
       0.000  0.000  0.004 -0.000  0.991
     SPIN  2
     eigenvalues:
       0.127  0.127  0.994  0.994  0.995
     eigenvectors (columns):
      -0.532  0.000  0.814  0.000  0.231
      -0.802  0.000 -0.573 -0.000  0.169
      -0.000 -0.570 -0.000  0.822  0.000
      -0.270  0.000  0.096  0.000 -0.958
       0.000  0.822 -0.000  0.570  0.000
     occupation matrix ns (before diag.):
       0.748 -0.370  0.000 -0.125  0.000
      -0.370  0.436 -0.000 -0.188  0.000
       0.000 -0.000  0.713 -0.000  0.406
      -0.125 -0.188 -0.000  0.932 -0.000
       0.000  0.000  0.406 -0.000  0.409
     ------------------------ ATOM    2 ------------------------
     Tr[ns(  2)] (up, down, total) =   0.88079  4.96090  5.84168
     Atomic magnetic moment for atom   2 =  -4.08011
     SPIN  1
     eigenvalues:
       0.050  0.053  0.061  0.350  0.366
     eigenvectors (columns):
      -0.000  0.715 -0.524 -0.000  0.462
       0.000 -0.599 -0.119 -0.000  0.792
       0.806  0.000 -0.000 -0.592 -0.000
       0.000  0.360  0.843 -0.000  0.399
       0.592  0.000 -0.000  0.806  0.000
     occupation matrix ns (before diag.):
       0.122  0.115 -0.000  0.054  0.000
       0.115  0.250 -0.000  0.098  0.000
      -0.000 -0.000  0.155  0.000 -0.143
       0.054  0.098  0.000  0.109 -0.000
       0.000  0.000 -0.143 -0.000  0.245
     SPIN  2
     eigenvalues:
       0.985  0.985  0.997  0.997  0.997
     eigenvectors (columns):
      -0.000 -0.570 -0.345 -0.746  0.000
      -0.000 -0.768  0.547  0.333 -0.000
      -0.592  0.000 -0.000  0.000  0.806
      -0.000 -0.293 -0.763  0.577 -0.000
       0.806 -0.000 -0.000  0.000  0.592
     occupation matrix ns (before diag.):
       0.993 -0.005  0.000 -0.002  0.000
      -0.005  0.990 -0.000 -0.003  0.000
       0.000 -0.000  0.993 -0.000  0.006
      -0.002 -0.003 -0.000  0.996 -0.000
       0.000  0.000  0.006 -0.000  0.989

     Number of occupied Hubbard levels =   14.0456

     HUBBARD ENERGY =    0.2551  (Ry)

     total cpu time spent up to now is      280.9 secs

     total energy              =   -1152.69476602 Ry
     estimated scf accuracy    <       0.00000012 Ry

     total magnetization       =    -2.02 Bohr mag/cell
     absolute magnetization    =     6.78 Bohr mag/cell

     iteration # 22     ecut=   120.00 Ry     beta= 0.70
     Davidson diagonalization with overlap

---- Real-time Memory Report at c_bands before calling an iterative solver
           258 MiB given to the printing process from OS
           225 MiB allocation reported by mallinfo(arena+hblkhd)
        654433 MiB available memory on the node where the printing process lives
------------------
     ethr =  1.07E-10,  avg # of iterations =  3.6

     =================== HUBBARD OCCUPATIONS ===================
     ------------------------ ATOM    1 ------------------------
     Tr[ns(  1)] (up, down, total) =   4.96730  3.23661  8.20391
     Atomic magnetic moment for atom   1 =   1.73068
     SPIN  1
     eigenvalues:
       0.988  0.990  0.996  0.996  0.997
     eigenvectors (columns):
      -0.000 -0.604 -0.796  0.000  0.040
      -0.000 -0.743  0.580 -0.000  0.334
      -0.550  0.000  0.000  0.835  0.000
      -0.000 -0.289  0.172 -0.000 -0.942
       0.835 -0.000  0.000  0.550  0.000
     occupation matrix ns (before diag.):
       0.994 -0.003  0.000 -0.001  0.000
      -0.003  0.993 -0.000 -0.002  0.000
       0.000 -0.000  0.994 -0.000  0.004
      -0.001 -0.002 -0.000  0.996 -0.000
       0.000  0.000  0.004 -0.000  0.991
     SPIN  2
     eigenvalues:
       0.127  0.127  0.994  0.994  0.995
     eigenvectors (columns):
      -0.532  0.000  0.814  0.000  0.231
      -0.802  0.000 -0.573 -0.000  0.169
      -0.000 -0.570 -0.000  0.822  0.000
      -0.270  0.000  0.095  0.000 -0.958
       0.000  0.822 -0.000  0.570  0.000
     occupation matrix ns (before diag.):
       0.748 -0.370  0.000 -0.125  0.000
      -0.370  0.436 -0.000 -0.188  0.000
       0.000 -0.000  0.713 -0.000  0.406
      -0.125 -0.188 -0.000  0.932 -0.000
       0.000  0.000  0.406 -0.000  0.409
     ------------------------ ATOM    2 ------------------------
     Tr[ns(  2)] (up, down, total) =   0.88074  4.96088  5.84162
     Atomic magnetic moment for atom   2 =  -4.08015
     SPIN  1
     eigenvalues:
       0.050  0.053  0.061  0.350  0.365
     eigenvectors (columns):
      -0.000  0.710 -0.535 -0.000  0.458
       0.000 -0.598 -0.114 -0.000  0.793
       0.805  0.000 -0.000 -0.593 -0.000
       0.000  0.372  0.837 -0.000  0.401
       0.593  0.000 -0.000  0.805  0.000
     occupation matrix ns (before diag.):
       0.121  0.114 -0.000  0.054  0.000
       0.114  0.250 -0.000  0.098  0.000
      -0.000 -0.000  0.156  0.000 -0.143
       0.054  0.098  0.000  0.109 -0.000
       0.000  0.000 -0.143 -0.000  0.245
     SPIN  2
     eigenvalues:
       0.985  0.985  0.997  0.997  0.997
     eigenvectors (columns):
      -0.000 -0.570 -0.346 -0.746  0.000
      -0.000 -0.768  0.548  0.333 -0.000
      -0.592  0.000 -0.000  0.000  0.806
      -0.000 -0.293 -0.762  0.577 -0.000
       0.806 -0.000 -0.000  0.000  0.592
     occupation matrix ns (before diag.):
       0.993 -0.005  0.000 -0.002  0.000
      -0.005  0.990 -0.000 -0.003  0.000
       0.000 -0.000  0.993 -0.000  0.006
      -0.002 -0.003 -0.000  0.996 -0.000
       0.000  0.000  0.006 -0.000  0.989

     Number of occupied Hubbard levels =   14.0455

     HUBBARD ENERGY =    0.2551  (Ry)

     total cpu time spent up to now is      295.5 secs

     total energy              =   -1152.69476692 Ry
     estimated scf accuracy    <       0.00000002 Ry

     total magnetization       =    -2.02 Bohr mag/cell
     absolute magnetization    =     6.78 Bohr mag/cell

     iteration # 23     ecut=   120.00 Ry     beta= 0.70
     Davidson diagonalization with overlap

---- Real-time Memory Report at c_bands before calling an iterative solver
           258 MiB given to the printing process from OS
           225 MiB allocation reported by mallinfo(arena+hblkhd)
        647205 MiB available memory on the node where the printing process lives
------------------
     ethr =  2.03E-11,  avg # of iterations =  5.0

     =================== HUBBARD OCCUPATIONS ===================
     ------------------------ ATOM    1 ------------------------
     Tr[ns(  1)] (up, down, total) =   4.96730  3.23661  8.20391
     Atomic magnetic moment for atom   1 =   1.73068
     SPIN  1
     eigenvalues:
       0.988  0.990  0.996  0.996  0.997
     eigenvectors (columns):
      -0.000 -0.604 -0.796  0.000  0.040
      -0.000 -0.743  0.580 -0.000  0.334
      -0.550  0.000  0.000  0.835  0.000
      -0.000 -0.289  0.172 -0.000 -0.942
       0.835 -0.000  0.000  0.550  0.000
     occupation matrix ns (before diag.):
       0.994 -0.003  0.000 -0.001  0.000
      -0.003  0.993 -0.000 -0.002  0.000
       0.000 -0.000  0.994 -0.000  0.004
      -0.001 -0.002 -0.000  0.996 -0.000
       0.000  0.000  0.004 -0.000  0.991
     SPIN  2
     eigenvalues:
       0.127  0.127  0.994  0.994  0.995
     eigenvectors (columns):
      -0.532  0.000  0.814  0.000  0.231
      -0.802  0.000 -0.572 -0.000  0.169
      -0.000 -0.570 -0.000  0.822  0.000
      -0.270  0.000  0.095  0.000 -0.958
       0.000  0.822 -0.000  0.570  0.000
     occupation matrix ns (before diag.):
       0.748 -0.370  0.000 -0.125  0.000
      -0.370  0.436 -0.000 -0.188  0.000
       0.000 -0.000  0.713 -0.000  0.406
      -0.125 -0.188 -0.000  0.932 -0.000
       0.000  0.000  0.406 -0.000  0.409
     ------------------------ ATOM    2 ------------------------
     Tr[ns(  2)] (up, down, total) =   0.88086  4.96088  5.84174
     Atomic magnetic moment for atom   2 =  -4.08003
     SPIN  1
     eigenvalues:
       0.050  0.053  0.062  0.350  0.365
     eigenvectors (columns):
      -0.000  0.706 -0.542 -0.000  0.456
       0.000 -0.598 -0.111 -0.000  0.794
       0.805  0.000 -0.000 -0.594 -0.000
       0.000  0.380  0.833 -0.000  0.402
       0.594  0.000 -0.000  0.805  0.000
     occupation matrix ns (before diag.):
       0.121  0.113 -0.000  0.053  0.000
       0.113  0.250 -0.000  0.099  0.000
      -0.000 -0.000  0.156  0.000 -0.143
       0.053  0.099  0.000  0.109 -0.000
       0.000  0.000 -0.143 -0.000  0.245
     SPIN  2
     eigenvalues:
       0.985  0.985  0.997  0.997  0.997
     eigenvectors (columns):
      -0.000 -0.570 -0.346 -0.746  0.000
      -0.000 -0.768  0.548  0.333 -0.000
      -0.592  0.000 -0.000  0.000  0.806
      -0.000 -0.293 -0.762  0.577 -0.000
       0.806 -0.000 -0.000  0.000  0.592
     occupation matrix ns (before diag.):
       0.993 -0.005  0.000 -0.002  0.000
      -0.005  0.990 -0.000 -0.003  0.000
       0.000 -0.000  0.993 -0.000  0.006
      -0.002 -0.003 -0.000  0.996 -0.000
       0.000  0.000  0.006 -0.000  0.989

     Number of occupied Hubbard levels =   14.0456

     HUBBARD ENERGY =    0.2551  (Ry)

     total cpu time spent up to now is      312.9 secs

     total energy              =   -1152.69476741 Ry
     estimated scf accuracy    <          7.7E-09 Ry

     total magnetization       =    -2.02 Bohr mag/cell
     absolute magnetization    =     6.78 Bohr mag/cell

     iteration # 24     ecut=   120.00 Ry     beta= 0.70
     Davidson diagonalization with overlap

---- Real-time Memory Report at c_bands before calling an iterative solver
           258 MiB given to the printing process from OS
           225 MiB allocation reported by mallinfo(arena+hblkhd)
        643457 MiB available memory on the node where the printing process lives
------------------
     ethr =  7.04E-12,  avg # of iterations =  4.2

     =================== HUBBARD OCCUPATIONS ===================
     ------------------------ ATOM    1 ------------------------
     Tr[ns(  1)] (up, down, total) =   4.96730  3.23663  8.20393
     Atomic magnetic moment for atom   1 =   1.73067
     SPIN  1
     eigenvalues:
       0.988  0.990  0.996  0.996  0.997
     eigenvectors (columns):
      -0.000 -0.604 -0.796  0.000  0.040
      -0.000 -0.743  0.580 -0.000  0.334
      -0.550  0.000  0.000  0.835  0.000
      -0.000 -0.289  0.172 -0.000 -0.942
       0.835 -0.000  0.000  0.550  0.000
     occupation matrix ns (before diag.):
       0.994 -0.003  0.000 -0.001  0.000
      -0.003  0.993 -0.000 -0.002  0.000
       0.000 -0.000  0.994 -0.000  0.004
      -0.001 -0.002 -0.000  0.996 -0.000
       0.000  0.000  0.004 -0.000  0.991
     SPIN  2
     eigenvalues:
       0.127  0.127  0.994  0.994  0.995
     eigenvectors (columns):
      -0.532  0.000  0.814  0.000  0.231
      -0.802  0.000 -0.572 -0.000  0.169
      -0.000 -0.570 -0.000  0.822  0.000
      -0.270  0.000  0.095  0.000 -0.958
       0.000  0.822 -0.000  0.570  0.000
     occupation matrix ns (before diag.):
       0.748 -0.370  0.000 -0.125  0.000
      -0.370  0.436 -0.000 -0.188  0.000
       0.000 -0.000  0.713 -0.000  0.406
      -0.125 -0.188 -0.000  0.932 -0.000
       0.000  0.000  0.406 -0.000  0.409
     ------------------------ ATOM    2 ------------------------
     Tr[ns(  2)] (up, down, total) =   0.88089  4.96088  5.84177
     Atomic magnetic moment for atom   2 =  -4.07999
     SPIN  1
     eigenvalues:
       0.050  0.053  0.062  0.350  0.365
     eigenvectors (columns):
      -0.000  0.705 -0.545 -0.000  0.455
       0.000 -0.597 -0.110 -0.000  0.794
       0.804  0.000 -0.000 -0.594 -0.000
       0.000  0.383  0.831 -0.000  0.403
       0.594  0.000 -0.000  0.804  0.000
     occupation matrix ns (before diag.):
       0.120  0.113 -0.000  0.053  0.000
       0.113  0.250 -0.000  0.099  0.000
      -0.000 -0.000  0.156  0.000 -0.143
       0.053  0.099  0.000  0.110 -0.000
       0.000  0.000 -0.143 -0.000  0.245
     SPIN  2
     eigenvalues:
       0.985  0.985  0.997  0.997  0.997
     eigenvectors (columns):
      -0.000 -0.570 -0.346 -0.746  0.000
      -0.000 -0.768  0.548  0.333 -0.000
      -0.592  0.000 -0.000  0.000  0.806
      -0.000 -0.293 -0.762  0.577 -0.000
       0.806 -0.000 -0.000  0.000  0.592
     occupation matrix ns (before diag.):
       0.993 -0.005  0.000 -0.002  0.000
      -0.005  0.990 -0.000 -0.003  0.000
       0.000 -0.000  0.993 -0.000  0.006
      -0.002 -0.003 -0.000  0.996 -0.000
       0.000  0.000  0.006 -0.000  0.989

     Number of occupied Hubbard levels =   14.0457

     HUBBARD ENERGY =    0.2551  (Ry)

     total cpu time spent up to now is      328.6 secs

     total energy              =   -1152.69476759 Ry
     estimated scf accuracy    <          3.2E-09 Ry

     total magnetization       =    -2.02 Bohr mag/cell
     absolute magnetization    =     6.77 Bohr mag/cell

     iteration # 25     ecut=   120.00 Ry     beta= 0.70
     Davidson diagonalization with overlap

---- Real-time Memory Report at c_bands before calling an iterative solver
           258 MiB given to the printing process from OS
           225 MiB allocation reported by mallinfo(arena+hblkhd)
        641990 MiB available memory on the node where the printing process lives
------------------
     ethr =  2.94E-12,  avg # of iterations =  2.3

     =================== HUBBARD OCCUPATIONS ===================
     ------------------------ ATOM    1 ------------------------
     Tr[ns(  1)] (up, down, total) =   4.96730  3.23663  8.20393
     Atomic magnetic moment for atom   1 =   1.73066
     SPIN  1
     eigenvalues:
       0.988  0.990  0.996  0.996  0.997
     eigenvectors (columns):
      -0.000 -0.604 -0.796  0.000  0.040
      -0.000 -0.743  0.580 -0.000  0.334
      -0.550  0.000  0.000  0.835  0.000
      -0.000 -0.289  0.172 -0.000 -0.942
       0.835 -0.000  0.000  0.550  0.000
     occupation matrix ns (before diag.):
       0.994 -0.003  0.000 -0.001  0.000
      -0.003  0.993 -0.000 -0.002  0.000
       0.000 -0.000  0.994 -0.000  0.004
      -0.001 -0.002 -0.000  0.996 -0.000
       0.000  0.000  0.004 -0.000  0.991
     SPIN  2
     eigenvalues:
       0.127  0.127  0.994  0.994  0.995
     eigenvectors (columns):
      -0.532  0.000  0.814  0.000  0.231
      -0.802  0.000 -0.572 -0.000  0.169
      -0.000 -0.570 -0.000  0.822  0.000
      -0.270  0.000  0.095  0.000 -0.958
       0.000  0.822 -0.000  0.570  0.000
     occupation matrix ns (before diag.):
       0.748 -0.370  0.000 -0.125  0.000
      -0.370  0.436 -0.000 -0.188  0.000
       0.000 -0.000  0.713 -0.000  0.406
      -0.125 -0.188 -0.000  0.932 -0.000
       0.000  0.000  0.406 -0.000  0.409
     ------------------------ ATOM    2 ------------------------
     Tr[ns(  2)] (up, down, total) =   0.88085  4.96088  5.84174
     Atomic magnetic moment for atom   2 =  -4.08003
     SPIN  1
     eigenvalues:
       0.050  0.053  0.062  0.351  0.365
     eigenvectors (columns):
      -0.000  0.705 -0.545 -0.000  0.455
       0.000 -0.598 -0.110 -0.000  0.794
       0.804  0.000 -0.000 -0.594 -0.000
       0.000  0.383  0.831 -0.000  0.403
       0.594  0.000 -0.000  0.804  0.000
     occupation matrix ns (before diag.):
       0.120  0.113 -0.000  0.053  0.000
       0.113  0.250 -0.000  0.099  0.000
      -0.000 -0.000  0.156  0.000 -0.143
       0.053  0.099  0.000  0.110 -0.000
       0.000  0.000 -0.143 -0.000  0.245
     SPIN  2
     eigenvalues:
       0.985  0.985  0.997  0.997  0.997
     eigenvectors (columns):
      -0.000 -0.570 -0.345 -0.746  0.000
      -0.000 -0.768  0.548  0.333 -0.000
      -0.592  0.000 -0.000  0.000  0.806
      -0.000 -0.293 -0.762  0.577 -0.000
       0.806 -0.000 -0.000  0.000  0.592
     occupation matrix ns (before diag.):
       0.993 -0.005  0.000 -0.002  0.000
      -0.005  0.990 -0.000 -0.003  0.000
       0.000 -0.000  0.993 -0.000  0.006
      -0.002 -0.003 -0.000  0.996 -0.000
       0.000  0.000  0.006 -0.000  0.989

     Number of occupied Hubbard levels =   14.0457

     HUBBARD ENERGY =    0.2551  (Ry)

     total cpu time spent up to now is      340.7 secs

     total energy              =   -1152.69476759 Ry
     estimated scf accuracy    <          2.1E-09 Ry

     total magnetization       =    -2.02 Bohr mag/cell
     absolute magnetization    =     6.77 Bohr mag/cell

     iteration # 26     ecut=   120.00 Ry     beta= 0.70
     Davidson diagonalization with overlap

---- Real-time Memory Report at c_bands before calling an iterative solver
           258 MiB given to the printing process from OS
           225 MiB allocation reported by mallinfo(arena+hblkhd)
        636809 MiB available memory on the node where the printing process lives
------------------
     ethr =  1.87E-12,  avg # of iterations =  3.4

     =================== HUBBARD OCCUPATIONS ===================
     ------------------------ ATOM    1 ------------------------
     Tr[ns(  1)] (up, down, total) =   4.96730  3.23663  8.20393
     Atomic magnetic moment for atom   1 =   1.73066
     SPIN  1
     eigenvalues:
       0.988  0.990  0.996  0.996  0.997
     eigenvectors (columns):
      -0.000 -0.604 -0.796  0.000  0.040
      -0.000 -0.743  0.580 -0.000  0.334
      -0.550  0.000  0.000  0.835  0.000
      -0.000 -0.289  0.172 -0.000 -0.942
       0.835 -0.000  0.000  0.550  0.000
     occupation matrix ns (before diag.):
       0.994 -0.003  0.000 -0.001  0.000
      -0.003  0.993 -0.000 -0.002  0.000
       0.000 -0.000  0.994 -0.000  0.004
      -0.001 -0.002 -0.000  0.996 -0.000
       0.000  0.000  0.004 -0.000  0.991
     SPIN  2
     eigenvalues:
       0.127  0.127  0.994  0.994  0.995
     eigenvectors (columns):
      -0.532  0.000  0.814  0.000  0.231
      -0.802  0.000 -0.572 -0.000  0.169
      -0.000 -0.570 -0.000  0.822  0.000
      -0.270  0.000  0.095  0.000 -0.958
       0.000  0.822 -0.000  0.570  0.000
     occupation matrix ns (before diag.):
       0.748 -0.370  0.000 -0.125  0.000
      -0.370  0.436 -0.000 -0.188  0.000
       0.000 -0.000  0.713 -0.000  0.406
      -0.125 -0.188 -0.000  0.932 -0.000
       0.000  0.000  0.406 -0.000  0.409
     ------------------------ ATOM    2 ------------------------
     Tr[ns(  2)] (up, down, total) =   0.88088  4.96088  5.84176
     Atomic magnetic moment for atom   2 =  -4.08001
     SPIN  1
     eigenvalues:
       0.050  0.053  0.062  0.350  0.365
     eigenvectors (columns):
      -0.000  0.705 -0.545 -0.000  0.454
       0.000 -0.598 -0.110 -0.000  0.794
       0.804  0.000 -0.000 -0.594 -0.000
       0.000  0.383  0.831 -0.000  0.403
       0.594  0.000 -0.000  0.804  0.000
     occupation matrix ns (before diag.):
       0.120  0.113 -0.000  0.053  0.000
       0.113  0.250 -0.000  0.099  0.000
      -0.000 -0.000  0.156  0.000 -0.143
       0.053  0.099  0.000  0.110 -0.000
       0.000  0.000 -0.143 -0.000  0.245
     SPIN  2
     eigenvalues:
       0.985  0.985  0.997  0.997  0.997
     eigenvectors (columns):
      -0.000 -0.570 -0.345 -0.746  0.000
      -0.000 -0.768  0.548  0.333 -0.000
      -0.592  0.000 -0.000  0.000  0.806
      -0.000 -0.293 -0.762  0.577 -0.000
       0.806 -0.000 -0.000  0.000  0.592
     occupation matrix ns (before diag.):
       0.993 -0.005  0.000 -0.002  0.000
      -0.005  0.990 -0.000 -0.003  0.000
       0.000 -0.000  0.993 -0.000  0.006
      -0.002 -0.003 -0.000  0.996 -0.000
       0.000  0.000  0.006 -0.000  0.989

     Number of occupied Hubbard levels =   14.0457

     HUBBARD ENERGY =    0.2551  (Ry)
 
     Magnetic moment per site  (integrated on atomic sphere of radius R)
     atom   1 (R=0.183)  charge= 15.3185  magn=  1.7006
     atom   2 (R=0.183)  charge= 12.9569  magn= -3.7588
     atom   3 (R=0.170)  charge=  7.8630  magn=  0.1013
     atom   4 (R=0.170)  charge=  7.8703  magn=  0.1350
     atom   5 (R=0.170)  charge=  5.1253  magn= -0.0235
     atom   6 (R=0.170)  charge=  5.1253  magn= -0.0235
     atom   7 (R=0.170)  charge=  5.1273  magn= -0.0279
     atom   8 (R=0.170)  charge=  5.1273  magn= -0.0279
     atom   9 (R=0.170)  charge=  5.1162  magn= -0.0379
     atom  10 (R=0.170)  charge=  5.1162  magn= -0.0379
     atom  11 (R=0.170)  charge=  5.0994  magn=  0.0104
     atom  12 (R=0.170)  charge=  5.0994  magn=  0.0104

     total cpu time spent up to now is      354.0 secs

     End of self-consistent calculation

 ------ SPIN UP ------------


          k = 0.0832 0.0668 0.0754 ( 17752 PWs)   bands (ev):

   -91.5951 -73.6371 -62.6539 -62.5649 -52.2343 -52.1963 -52.1723 -39.7493
   -39.7267 -39.7157 -27.1129 -27.0719 -27.0010 -26.9243 -26.8853 -26.8567
    -7.4492  -6.0890  -5.8735  -5.7118  -5.6389  -5.5396  -5.2130  -4.9469
     3.8936   3.9845   4.4620   4.8328   5.0212   5.1782   5.7417   6.1409
     6.2520   6.5214   6.8122   7.1775   7.2551   7.6115   7.9679   8.0935
     8.2809   8.5316   8.6680   8.9868   9.2683   9.5565   9.7442  10.0339
    10.2056  10.5046  10.7180  10.9048  11.0628  13.9241  14.4892  14.7208
    14.9089  15.0986  15.6257  15.9547  16.1650  16.2963  16.5833  16.8200
    18.7453  19.5038

     occupation numbers 
     1.0000   1.0000   1.0000   1.0000   1.0000   1.0000   1.0000   1.0000
     1.0000   1.0000   1.0000   1.0000   1.0000   1.0000   1.0000   1.0000
     1.0000   1.0000   1.0000   1.0000   1.0000   1.0000   1.0000   1.0000
     1.0000   1.0000   1.0000   1.0000   1.0000   1.0000   1.0000   1.0000
     1.0000   1.0000   1.0000   1.0000   1.0000   1.0000   1.0000   1.0000
     1.0000   1.0000   1.0000   1.0000   1.0000   1.0000   1.0000   1.0000
     1.0000   1.0000   1.0000   1.0000   1.0000   1.0755   0.1500   0.0088
     0.0003   0.0000   0.0000   0.0000   0.0000   0.0000   0.0000   0.0000
     0.0000   0.0000

          k = 0.0828 0.0668 0.2263 ( 17773 PWs)   bands (ev):

   -91.5951 -73.6371 -62.6537 -62.5652 -52.2344 -52.1963 -52.1723 -39.7493
   -39.7267 -39.7157 -27.1200 -27.0705 -26.9958 -26.9394 -26.8816 -26.8460
    -7.2383  -6.1220  -5.9658  -5.8237  -5.5829  -5.5151  -5.2672  -4.9992
     3.8744   3.9998   4.5578   4.7896   5.1072   5.2050   5.8104   6.0403
     6.1998   6.6604   6.8754   7.0420   7.4202   7.6174   7.9268   8.0820
     8.2267   8.5708   8.6848   8.9084   9.3236   9.4649   9.6580   9.8627
    10.1565  10.4718  10.6983  10.9675  11.0764  14.2353  14.4766  14.6376
    14.8143  15.1214  15.5055  15.9325  16.0528  16.3212  16.4501  16.7933
    19.2981  19.6528

     occupation numbers 
     1.0000   1.0000   1.0000   1.0000   1.0000   1.0000   1.0000   1.0000
     1.0000   1.0000   1.0000   1.0000   1.0000   1.0000   1.0000   1.0000
     1.0000   1.0000   1.0000   1.0000   1.0000   1.0000   1.0000   1.0000
     1.0000   1.0000   1.0000   1.0000   1.0000   1.0000   1.0000   1.0000
     1.0000   1.0000   1.0000   1.0000   1.0000   1.0000   1.0000   1.0000
     1.0000   1.0000   1.0000   1.0000   1.0000   1.0000   1.0000   1.0000
     1.0000   1.0000   1.0000   1.0000   1.0000   0.7450   0.1683   0.0285
     0.0019   0.0000   0.0000   0.0000   0.0000   0.0000   0.0000   0.0000
     0.0000   0.0000

          k = 0.0825 0.0668 0.3772 ( 17774 PWs)   bands (ev):

   -91.5951 -73.6372 -62.6534 -62.5654 -52.2344 -52.1963 -52.1723 -39.7493
   -39.7267 -39.7157 -27.1251 -27.0719 -26.9887 -26.9525 -26.8788 -26.8375
    -6.8612  -6.3723  -6.0664  -5.9965  -5.5416  -5.3913  -5.2426  -5.0795
     3.8810   3.9912   4.4615   4.7498   5.1071   5.4624   5.8823   6.0706
     6.3319   6.6352   6.8824   7.1712   7.2911   7.5281   7.8289   7.9049
     8.1918   8.3291   8.6001   9.0471   9.2765   9.4792   9.8042  10.0452
    10.3064  10.4138  10.5680  10.9863  11.0481  14.2577  14.5393  14.6871
    14.9206  15.0821  15.3876  15.8283  15.9636  16.3275  16.3997  16.6815
    19.4866  19.6205

     occupation numbers 
     1.0000   1.0000   1.0000   1.0000   1.0000   1.0000   1.0000   1.0000
     1.0000   1.0000   1.0000   1.0000   1.0000   1.0000   1.0000   1.0000
     1.0000   1.0000   1.0000   1.0000   1.0000   1.0000   1.0000   1.0000
     1.0000   1.0000   1.0000   1.0000   1.0000   1.0000   1.0000   1.0000
     1.0000   1.0000   1.0000   1.0000   1.0000   1.0000   1.0000   1.0000
     1.0000   1.0000   1.0000   1.0000   1.0000   1.0000   1.0000   1.0000
     1.0000   1.0000   1.0000   1.0000   1.0000   0.6851   0.0912   0.0145
     0.0002   0.0000   0.0000   0.0000   0.0000   0.0000   0.0000   0.0000
     0.0000   0.0000

          k = 0.0842 0.0668-0.3773 ( 17781 PWs)   bands (ev):

   -91.5951 -73.6372 -62.6534 -62.5654 -52.2344 -52.1963 -52.1723 -39.7493
   -39.7267 -39.7157 -27.1250 -27.0719 -26.9888 -26.9525 -26.8789 -26.8375
    -6.8314  -6.4307  -6.1002  -5.9971  -5.4824  -5.3741  -5.2366  -5.0870
     3.9061   3.9823   4.4345   4.7490   5.1356   5.4130   5.8906   6.1235
     6.3442   6.5243   6.7336   6.9880   7.3757   7.5898   7.7765   8.0136
     8.1807   8.4639   8.6327   9.0101   9.2548   9.5453   9.8050  10.1729
    10.2668  10.4708  10.6277  10.9125  11.0087  14.2857  14.4988  14.7174
    14.8941  15.1281  15.4395  15.7532  16.0575  16.2723  16.4431  16.6365
    19.3498  19.5429

     occupation numbers 
     1.0000   1.0000   1.0000   1.0000   1.0000   1.0000   1.0000   1.0000
     1.0000   1.0000   1.0000   1.0000   1.0000   1.0000   1.0000   1.0000
     1.0000   1.0000   1.0000   1.0000   1.0000   1.0000   1.0000   1.0000
     1.0000   1.0000   1.0000   1.0000   1.0000   1.0000   1.0000   1.0000
     1.0000   1.0000   1.0000   1.0000   1.0000   1.0000   1.0000   1.0000
     1.0000   1.0000   1.0000   1.0000   1.0000   1.0000   1.0000   1.0000
     1.0000   1.0000   1.0000   1.0000   1.0000   0.6080   0.1370   0.0093
     0.0004   0.0000   0.0000   0.0000   0.0000   0.0000   0.0000   0.0000
     0.0000   0.0000

          k = 0.0839 0.0668-0.2264 ( 17775 PWs)   bands (ev):

   -91.5951 -73.6371 -62.6536 -62.5651 -52.2344 -52.1963 -52.1723 -39.7493
   -39.7267 -39.7157 -27.1201 -27.0705 -26.9959 -26.9393 -26.8818 -26.8459
    -7.2234  -6.1803  -6.0563  -5.8618  -5.4820  -5.4110  -5.2538  -5.0220
     3.9133   4.0071   4.5467   4.7610   5.0589   5.1642   5.8040   6.0976
     6.2281   6.4891   6.7069   6.9878   7.2464   7.6283   7.8709   8.2654
     8.4141   8.5676   8.7700   8.9354   9.1872   9.5868   9.7903  10.0198
    10.3318  10.4563  10.7147  10.8162  11.0247  14.2992  14.4430  14.6619
    14.8547  15.0879  15.5704  15.8853  16.1280  16.2570  16.5768  16.6889
    19.2365  19.3631

     occupation numbers 
     1.0000   1.0000   1.0000   1.0000   1.0000   1.0000   1.0000   1.0000
     1.0000   1.0000   1.0000   1.0000   1.0000   1.0000   1.0000   1.0000
     1.0000   1.0000   1.0000   1.0000   1.0000   1.0000   1.0000   1.0000
     1.0000   1.0000   1.0000   1.0000   1.0000   1.0000   1.0000   1.0000
     1.0000   1.0000   1.0000   1.0000   1.0000   1.0000   1.0000   1.0000
     1.0000   1.0000   1.0000   1.0000   1.0000   1.0000   1.0000   1.0000
     1.0000   1.0000   1.0000   1.0000   1.0000   0.5706   0.2246   0.0206
     0.0009   0.0000   0.0000   0.0000   0.0000   0.0000   0.0000   0.0000
     0.0000   0.0000

          k = 0.0835 0.0668-0.0755 ( 17763 PWs)   bands (ev):

   -91.5951 -73.6371 -62.6539 -62.5649 -52.2343 -52.1963 -52.1723 -39.7493
   -39.7267 -39.7157 -27.1130 -27.0718 -27.0011 -26.9242 -26.8855 -26.8566
    -7.4445  -6.1069  -5.9532  -5.7529  -5.5473  -5.4856  -5.1999  -4.9596
     3.9085   4.0028   4.4707   4.8220   4.9550   5.1171   5.9195   6.0701
     6.1893   6.4066   6.9442   7.0313   7.2263   7.6080   7.8511   8.1550
     8.2788   8.6202   8.8139   9.0082   9.0938   9.5941  10.0456  10.1318
    10.2556  10.4023  10.6307  10.8491  11.0609  13.9774  14.4132  14.8014
    14.9235  15.0747  15.6254  16.0162  16.1325  16.2615  16.6301  16.7970
    18.7181  19.3042

     occupation numbers 
     1.0000   1.0000   1.0000   1.0000   1.0000   1.0000   1.0000   1.0000
     1.0000   1.0000   1.0000   1.0000   1.0000   1.0000   1.0000   1.0000
     1.0000   1.0000   1.0000   1.0000   1.0000   1.0000   1.0000   1.0000
     1.0000   1.0000   1.0000   1.0000   1.0000   1.0000   1.0000   1.0000
     1.0000   1.0000   1.0000   1.0000   1.0000   1.0000   1.0000   1.0000
     1.0000   1.0000   1.0000   1.0000   1.0000   1.0000   1.0000   1.0000
     1.0000   1.0000   1.0000   1.0000   1.0000   1.0833   0.2835   0.0024
     0.0002   0.0000   0.0000   0.0000   0.0000   0.0000   0.0000   0.0000
     0.0000   0.0000

          k = 0.0832 0.2004 0.0754 ( 17751 PWs)   bands (ev):

   -91.5951 -73.6371 -62.6539 -62.5649 -52.2343 -52.1963 -52.1723 -39.7493
   -39.7267 -39.7157 -27.1124 -27.0707 -27.0008 -26.9248 -26.8867 -26.8572
    -7.3006  -6.2278  -5.9706  -5.7248  -5.6788  -5.4898  -5.1626  -4.9523
     3.9861   4.0699   4.5877   4.9406   4.9967   5.3918   5.7601   6.0404
     6.1626   6.4257   6.6668   7.0404   7.2900   7.6709   7.8026   8.0546
     8.2283   8.3726   8.8412   9.1033   9.2003   9.4648   9.8640  10.0500
    10.1306  10.3704  10.6777  10.8752  11.0748  14.0369  14.5902  14.7571
    14.9879  15.0772  15.5080  16.0227  16.2228  16.3359  16.4999  16.7924
    19.2712  19.5275

     occupation numbers 
     1.0000   1.0000   1.0000   1.0000   1.0000   1.0000   1.0000   1.0000
     1.0000   1.0000   1.0000   1.0000   1.0000   1.0000   1.0000   1.0000
     1.0000   1.0000   1.0000   1.0000   1.0000   1.0000   1.0000   1.0000
     1.0000   1.0000   1.0000   1.0000   1.0000   1.0000   1.0000   1.0000
     1.0000   1.0000   1.0000   1.0000   1.0000   1.0000   1.0000   1.0000
     1.0000   1.0000   1.0000   1.0000   1.0000   1.0000   1.0000   1.0000
     1.0000   1.0000   1.0000   1.0000   1.0000   1.0697   0.0515   0.0050
     0.0001   0.0000   0.0000   0.0000   0.0000   0.0000   0.0000   0.0000
     0.0000   0.0000

          k = 0.0828 0.2004 0.2263 ( 17779 PWs)   bands (ev):

   -91.5951 -73.6371 -62.6537 -62.5651 -52.2344 -52.1963 -52.1723 -39.7493
   -39.7267 -39.7157 -27.1207 -27.0702 -26.9955 -26.9398 -26.8820 -26.8454
    -7.1019  -6.2262  -6.0026  -5.7885  -5.6649  -5.5087  -5.2737  -4.9971
     3.9754   4.0654   4.6594   4.8577   5.1539   5.4419   5.7445   6.0155
     6.2310   6.6021   6.7137   6.9573   7.2969   7.5949   7.7651   7.9452
     8.2680   8.5453   8.7318   9.0206   9.1366   9.5356   9.6919   9.8984
    10.1320  10.3705  10.7268  10.8839  11.0570  14.3047  14.6081  14.6585
    14.8976  15.1251  15.4095  15.9469  16.0840  16.3216  16.4726  16.7515
    19.5045  19.7522

     occupation numbers 
     1.0000   1.0000   1.0000   1.0000   1.0000   1.0000   1.0000   1.0000
     1.0000   1.0000   1.0000   1.0000   1.0000   1.0000   1.0000   1.0000
     1.0000   1.0000   1.0000   1.0000   1.0000   1.0000   1.0000   1.0000
     1.0000   1.0000   1.0000   1.0000   1.0000   1.0000   1.0000   1.0000
     1.0000   1.0000   1.0000   1.0000   1.0000   1.0000   1.0000   1.0000
     1.0000   1.0000   1.0000   1.0000   1.0000   1.0000   1.0000   1.0000
     1.0000   1.0000   1.0000   1.0000   1.0000   0.5555   0.0415   0.0216
     0.0004   0.0000   0.0000   0.0000   0.0000   0.0000   0.0000   0.0000
     0.0000   0.0000

          k = 0.0825 0.2004 0.3772 ( 17778 PWs)   bands (ev):

   -91.5951 -73.6372 -62.6534 -62.5654 -52.2344 -52.1963 -52.1723 -39.7493
   -39.7267 -39.7157 -27.1265 -27.0730 -26.9886 -26.9523 -26.8780 -26.8363
    -6.7553  -6.3829  -6.0616  -5.9313  -5.6706  -5.4159  -5.3024  -5.0867
     3.9579   4.0487   4.6272   4.9298   5.1967   5.4822   5.7900   5.9670
     6.3350   6.4942   6.9554   7.1082   7.3193   7.5888   7.6938   7.8229
     8.1817   8.3698   8.6502   8.9229   9.1824   9.3343   9.5692  10.0969
    10.3036  10.4258  10.6338  10.9331  11.0656  14.3608  14.5642  14.7992
    14.9815  15.1700  15.3290  15.7901  15.9693  16.3508  16.4392  16.6177
    19.4446  19.6884

     occupation numbers 
     1.0000   1.0000   1.0000   1.0000   1.0000   1.0000   1.0000   1.0000
     1.0000   1.0000   1.0000   1.0000   1.0000   1.0000   1.0000   1.0000
     1.0000   1.0000   1.0000   1.0000   1.0000   1.0000   1.0000   1.0000
     1.0000   1.0000   1.0000   1.0000   1.0000   1.0000   1.0000   1.0000
     1.0000   1.0000   1.0000   1.0000   1.0000   1.0000   1.0000   1.0000
     1.0000   1.0000   1.0000   1.0000   1.0000   1.0000   1.0000   1.0000
     1.0000   1.0000   1.0000   1.0000   1.0000   0.4059   0.0695   0.0025
     0.0001   0.0000   0.0000   0.0000   0.0000   0.0000   0.0000   0.0000
     0.0000   0.0000

          k = 0.0842 0.2004-0.3773 ( 17768 PWs)   bands (ev):

   -91.5951 -73.6372 -62.6534 -62.5654 -52.2344 -52.1963 -52.1723 -39.7493
   -39.7266 -39.7157 -27.1265 -27.0730 -26.9887 -26.9522 -26.8781 -26.8363
    -6.7454  -6.3985  -6.1286  -5.9272  -5.5556  -5.4861  -5.2376  -5.1171
     3.9576   4.0424   4.6249   4.9415   5.1910   5.4683   5.7968   5.9213
     6.2568   6.5869   6.8858   6.9498   7.3455   7.5657   7.6927   8.0487
     8.2302   8.4072   8.5565   8.8525   9.1849   9.4172   9.5499  10.1635
    10.2823  10.5303  10.5920  10.9480  11.0303  14.3891  14.5467  14.7771
    14.9667  15.2487  15.4729  15.6945  16.0324  16.3459  16.4158  16.5660
    19.4166  19.5189

     occupation numbers 
     1.0000   1.0000   1.0000   1.0000   1.0000   1.0000   1.0000   1.0000
     1.0000   1.0000   1.0000   1.0000   1.0000   1.0000   1.0000   1.0000
     1.0000   1.0000   1.0000   1.0000   1.0000   1.0000   1.0000   1.0000
     1.0000   1.0000   1.0000   1.0000   1.0000   1.0000   1.0000   1.0000
     1.0000   1.0000   1.0000   1.0000   1.0000   1.0000   1.0000   1.0000
     1.0000   1.0000   1.0000   1.0000   1.0000   1.0000   1.0000   1.0000
     1.0000   1.0000   1.0000   1.0000   1.0000   0.3372   0.0842   0.0036
     0.0001   0.0000   0.0000   0.0000   0.0000   0.0000   0.0000   0.0000
     0.0000   0.0000

          k = 0.0839 0.2004-0.2264 ( 17773 PWs)   bands (ev):

   -91.5951 -73.6372 -62.6536 -62.5651 -52.2344 -52.1963 -52.1723 -39.7493
   -39.7267 -39.7157 -27.1208 -27.0701 -26.9957 -26.9396 -26.8822 -26.8453
    -7.0957  -6.2745  -6.0862  -5.7980  -5.5552  -5.4128  -5.3072  -5.0127
     3.9628   4.0766   4.6700   4.8587   5.1343   5.3952   5.7268   5.9980
     6.1860   6.4390   6.6766   7.1011   7.1278   7.6004   7.7377   8.0523
     8.4050   8.5583   8.6973   8.9488   9.3200   9.5324   9.6833  10.0135
    10.1345  10.4090  10.6538  10.9317  11.0583  14.3534  14.5788  14.7466
    14.8420  15.2116  15.4619  15.9593  16.1644  16.3436  16.4517  16.6406
    19.2826  19.5666

     occupation numbers 
     1.0000   1.0000   1.0000   1.0000   1.0000   1.0000   1.0000   1.0000
     1.0000   1.0000   1.0000   1.0000   1.0000   1.0000   1.0000   1.0000
     1.0000   1.0000   1.0000   1.0000   1.0000   1.0000   1.0000   1.0000
     1.0000   1.0000   1.0000   1.0000   1.0000   1.0000   1.0000   1.0000
     1.0000   1.0000   1.0000   1.0000   1.0000   1.0000   1.0000   1.0000
     1.0000   1.0000   1.0000   1.0000   1.0000   1.0000   1.0000   1.0000
     1.0000   1.0000   1.0000   1.0000   1.0000   0.4248   0.0589   0.0059
     0.0011   0.0000   0.0000   0.0000   0.0000   0.0000   0.0000   0.0000
     0.0000   0.0000

          k = 0.0835 0.2004-0.0755 ( 17767 PWs)   bands (ev):

   -91.5951 -73.6371 -62.6539 -62.5649 -52.2343 -52.1963 -52.1723 -39.7493
   -39.7267 -39.7157 -27.1125 -27.0706 -27.0008 -26.9247 -26.8869 -26.8571
    -7.2985  -6.2520  -6.0227  -5.7338  -5.5940  -5.4697  -5.1660  -4.9600
     3.9702   4.0948   4.6066   4.8969   4.9980   5.3476   5.7816   5.9902
     6.1772   6.4659   6.6409   6.8766   7.3732   7.7085   7.7416   7.9780
     8.2019   8.5097   8.9424   9.0296   9.3679   9.4792   9.8243   9.9789
    10.1452  10.4209  10.6665  10.8506  11.1099  14.0953  14.5602  14.7092
    15.0242  15.1441  15.4987  16.0635  16.2214  16.3482  16.5168  16.7426
    19.1451  19.3617

     occupation numbers 
     1.0000   1.0000   1.0000   1.0000   1.0000   1.0000   1.0000   1.0000
     1.0000   1.0000   1.0000   1.0000   1.0000   1.0000   1.0000   1.0000
     1.0000   1.0000   1.0000   1.0000   1.0000   1.0000   1.0000   1.0000
     1.0000   1.0000   1.0000   1.0000   1.0000   1.0000   1.0000   1.0000
     1.0000   1.0000   1.0000   1.0000   1.0000   1.0000   1.0000   1.0000
     1.0000   1.0000   1.0000   1.0000   1.0000   1.0000   1.0000   1.0000
     1.0000   1.0000   1.0000   1.0000   1.0000   1.0216   0.0727   0.0105
     0.0000   0.0000   0.0000   0.0000   0.0000   0.0000   0.0000   0.0000
     0.0000   0.0000

          k = 0.0832 0.3340 0.0754 ( 17768 PWs)   bands (ev):

   -91.5951 -73.6371 -62.6539 -62.5649 -52.2343 -52.1963 -52.1723 -39.7493
   -39.7267 -39.7157 -27.1119 -27.0696 -27.0005 -26.9254 -26.8880 -26.8577
    -7.0473  -6.5660  -5.9159  -5.7577  -5.6946  -5.4869  -5.1280  -4.9561
     4.0788   4.1693   4.7864   4.8922   5.1896   5.5416   5.7126   5.9576
     6.0319   6.2818   6.6061   6.8927   7.2894   7.5873   7.7995   8.0368
     8.2680   8.5501   8.7615   8.9993   9.1974   9.3062   9.7661   9.9709
    10.0842  10.4947  10.6466  10.8364  11.1623  14.1275  14.6505  14.8163
    15.0379  15.2269  15.3477  16.0580  16.2404  16.3372  16.4639  16.7588
    19.3558  19.5742

     occupation numbers 
     1.0000   1.0000   1.0000   1.0000   1.0000   1.0000   1.0000   1.0000
     1.0000   1.0000   1.0000   1.0000   1.0000   1.0000   1.0000   1.0000
     1.0000   1.0000   1.0000   1.0000   1.0000   1.0000   1.0000   1.0000
     1.0000   1.0000   1.0000   1.0000   1.0000   1.0000   1.0000   1.0000
     1.0000   1.0000   1.0000   1.0000   1.0000   1.0000   1.0000   1.0000
     1.0000   1.0000   1.0000   1.0000   1.0000   1.0000   1.0000   1.0000
     1.0000   1.0000   1.0000   1.0000   1.0000   0.9774   0.0241   0.0018
     0.0000   0.0000   0.0000   0.0000   0.0000   0.0000   0.0000   0.0000
     0.0000   0.0000

          k = 0.0828 0.3340 0.2263 ( 17769 PWs)   bands (ev):

   -91.5951 -73.6372 -62.6537 -62.5651 -52.2344 -52.1963 -52.1723 -39.7493
   -39.7267 -39.7157 -27.1214 -27.0699 -26.9953 -26.9402 -26.8823 -26.8448
    -6.8713  -6.4745  -5.9714  -5.8536  -5.6153  -5.5237  -5.3066  -4.9956
     4.0747   4.1383   4.7918   4.9685   5.2000   5.5336   5.7878   5.9641
     6.3148   6.4634   6.6218   6.9764   7.1479   7.3600   7.6747   7.9320
     8.2322   8.5402   8.6760   9.0204   9.3079   9.5120   9.6139   9.7490
    10.1384  10.4413  10.6559  10.7674  11.1820  14.3362  14.6695  14.8496
    14.9705  15.0947  15.3092  15.8418  16.1901  16.3545  16.5079  16.6850
    19.2320  19.7800

     occupation numbers 
     1.0000   1.0000   1.0000   1.0000   1.0000   1.0000   1.0000   1.0000
     1.0000   1.0000   1.0000   1.0000   1.0000   1.0000   1.0000   1.0000
     1.0000   1.0000   1.0000   1.0000   1.0000   1.0000   1.0000   1.0000
     1.0000   1.0000   1.0000   1.0000   1.0000   1.0000   1.0000   1.0000
     1.0000   1.0000   1.0000   1.0000   1.0000   1.0000   1.0000   1.0000
     1.0000   1.0000   1.0000   1.0000   1.0000   1.0000   1.0000   1.0000
     1.0000   1.0000   1.0000   1.0000   1.0000   0.4698   0.0186   0.0010
     0.0001   0.0000   0.0000   0.0000   0.0000   0.0000   0.0000   0.0000
     0.0000   0.0000

          k = 0.0825 0.3340 0.3772 ( 17776 PWs)   bands (ev):

   -91.5950 -73.6372 -62.6534 -62.5654 -52.2344 -52.1963 -52.1723 -39.7493
   -39.7267 -39.7157 -27.1280 -27.0741 -26.9885 -26.9520 -26.8772 -26.8351
    -6.6017  -6.4181  -6.0426  -5.9043  -5.7387  -5.5437  -5.3258  -5.0864
     4.0477   4.1002   4.8466   5.0943   5.2699   5.4266   5.8411   5.8796
     6.2446   6.4124   7.0414   7.0932   7.3502   7.4491   7.5462   7.8973
     8.2172   8.3149   8.5604   8.7174   9.1343   9.3295   9.4589  10.0283
    10.2555  10.4762  10.5925  10.9281  11.1755  14.5390  14.6146  14.8800
    14.9793  15.1594  15.2427  15.7782  16.0284  16.4121  16.4759  16.5450
    19.1965  19.7796

     occupation numbers 
     1.0000   1.0000   1.0000   1.0000   1.0000   1.0000   1.0000   1.0000
     1.0000   1.0000   1.0000   1.0000   1.0000   1.0000   1.0000   1.0000
     1.0000   1.0000   1.0000   1.0000   1.0000   1.0000   1.0000   1.0000
     1.0000   1.0000   1.0000   1.0000   1.0000   1.0000   1.0000   1.0000
     1.0000   1.0000   1.0000   1.0000   1.0000   1.0000   1.0000   1.0000
     1.0000   1.0000   1.0000   1.0000   1.0000   1.0000   1.0000   1.0000
     1.0000   1.0000   1.0000   1.0000   1.0000   0.0915   0.0383   0.0006
     0.0001   0.0000   0.0000   0.0000   0.0000   0.0000   0.0000   0.0000
     0.0000   0.0000

          k = 0.0842 0.3340-0.3773 ( 17774 PWs)   bands (ev):

   -91.5950 -73.6372 -62.6534 -62.5654 -52.2344 -52.1963 -52.1723 -39.7493
   -39.7266 -39.7157 -27.1280 -27.0741 -26.9886 -26.9519 -26.8773 -26.8351
    -6.6096  -6.4595  -6.0126  -5.8431  -5.7500  -5.6132  -5.2333  -5.1304
     4.0371   4.0961   4.8458   5.0562   5.2472   5.5433   5.6817   5.8803
     6.1901   6.5893   6.9237   7.1640   7.2825   7.3829   7.7173   7.9529
     8.1105   8.2632   8.5002   8.8446   9.0997   9.2964   9.4665  10.1513
    10.2741  10.4283  10.6192  10.9463  11.1450  14.4884  14.6876  14.8878
    14.9875  15.1578  15.4908  15.6732  16.0577  16.3754  16.4607  16.5055
    19.2971  19.5410

     occupation numbers 
     1.0000   1.0000   1.0000   1.0000   1.0000   1.0000   1.0000   1.0000
     1.0000   1.0000   1.0000   1.0000   1.0000   1.0000   1.0000   1.0000
     1.0000   1.0000   1.0000   1.0000   1.0000   1.0000   1.0000   1.0000
     1.0000   1.0000   1.0000   1.0000   1.0000   1.0000   1.0000   1.0000
     1.0000   1.0000   1.0000   1.0000   1.0000   1.0000   1.0000   1.0000
     1.0000   1.0000   1.0000   1.0000   1.0000   1.0000   1.0000   1.0000
     1.0000   1.0000   1.0000   1.0000   1.0000   0.1511   0.0144   0.0005
     0.0001   0.0000   0.0000   0.0000   0.0000   0.0000   0.0000   0.0000
     0.0000   0.0000

          k = 0.0839 0.3340-0.2264 ( 17773 PWs)   bands (ev):

   -91.5951 -73.6372 -62.6536 -62.5651 -52.2343 -52.1963 -52.1723 -39.7493
   -39.7267 -39.7157 -27.1214 -27.0698 -26.9955 -26.9400 -26.8825 -26.8448
    -6.8770  -6.5320  -5.9792  -5.7736  -5.6477  -5.4499  -5.3269  -5.0072
     4.0469   4.1376   4.7980   4.9043   5.2182   5.5827   5.7548   5.8789
     6.2392   6.3657   6.7120   7.0005   7.2691   7.3838   7.6664   7.9761
     8.0946   8.4325   8.7520   8.8854   9.4125   9.4869   9.7682  10.0092
    10.0649  10.2845  10.6809  10.8598  11.1411  14.3832  14.6831  14.8441
    15.0111  15.2127  15.3458  15.9332  16.2834  16.3691  16.4228  16.5634
    19.3249  19.5112

     occupation numbers 
     1.0000   1.0000   1.0000   1.0000   1.0000   1.0000   1.0000   1.0000
     1.0000   1.0000   1.0000   1.0000   1.0000   1.0000   1.0000   1.0000
     1.0000   1.0000   1.0000   1.0000   1.0000   1.0000   1.0000   1.0000
     1.0000   1.0000   1.0000   1.0000   1.0000   1.0000   1.0000   1.0000
     1.0000   1.0000   1.0000   1.0000   1.0000   1.0000   1.0000   1.0000
     1.0000   1.0000   1.0000   1.0000   1.0000   1.0000   1.0000   1.0000
     1.0000   1.0000   1.0000   1.0000   1.0000   0.3508   0.0153   0.0011
     0.0000   0.0000   0.0000   0.0000   0.0000   0.0000   0.0000   0.0000
     0.0000   0.0000

          k = 0.0835 0.3340-0.0755 ( 17783 PWs)   bands (ev):

   -91.5951 -73.6371 -62.6539 -62.5649 -52.2343 -52.1963 -52.1723 -39.7493
   -39.7267 -39.7157 -27.1119 -27.0695 -27.0006 -26.9252 -26.8882 -26.8576
    -7.0488  -6.5868  -5.9558  -5.7382  -5.6100  -5.5072  -5.1382  -4.9581
     4.0604   4.1795   4.7652   4.8986   5.1803   5.5754   5.6680   5.8476
     6.0788   6.4066   6.5024   6.8735   7.3505   7.5623   7.8417   7.9730
     8.2169   8.5168   8.7861   9.0082   9.1891   9.5239   9.7915   9.9248
    10.0169  10.4936  10.6562  10.8655  11.1561  14.2028  14.6148  14.7993
    15.0480  15.1970  15.4440  16.1056  16.3092  16.3591  16.4225  16.6919
    19.3352  19.5038

     occupation numbers 
     1.0000   1.0000   1.0000   1.0000   1.0000   1.0000   1.0000   1.0000
     1.0000   1.0000   1.0000   1.0000   1.0000   1.0000   1.0000   1.0000
     1.0000   1.0000   1.0000   1.0000   1.0000   1.0000   1.0000   1.0000
     1.0000   1.0000   1.0000   1.0000   1.0000   1.0000   1.0000   1.0000
     1.0000   1.0000   1.0000   1.0000   1.0000   1.0000   1.0000   1.0000
     1.0000   1.0000   1.0000   1.0000   1.0000   1.0000   1.0000   1.0000
     1.0000   1.0000   1.0000   1.0000   1.0000   0.8265   0.0382   0.0025
     0.0000   0.0000   0.0000   0.0000   0.0000   0.0000   0.0000   0.0000
     0.0000   0.0000

          k = 0.2498 0.0668 0.0753 ( 17763 PWs)   bands (ev):

   -91.5951 -73.6371 -62.6539 -62.5649 -52.2343 -52.1963 -52.1723 -39.7493
   -39.7267 -39.7157 -27.1127 -27.0717 -27.0032 -26.9259 -26.8853 -26.8567
    -7.2408  -6.1123  -5.9580  -5.7591  -5.6501  -5.5006  -5.2351  -5.0884
     3.9167   4.0607   4.6564   4.9423   5.0968   5.2693   5.5653   6.0455
     6.3713   6.5695   6.8708   7.0610   7.1466   7.5207   7.6938   7.9142
     8.1922   8.5627   8.9705   9.1431   9.4259   9.5100   9.6783   9.9087
    10.2044  10.3774  10.8183  10.9369  11.0723  13.9509  14.4471  14.7809
    14.9292  15.2495  15.7538  15.9784  16.0861  16.2392  16.3821  16.7743
    19.4612  19.5769

     occupation numbers 
     1.0000   1.0000   1.0000   1.0000   1.0000   1.0000   1.0000   1.0000
     1.0000   1.0000   1.0000   1.0000   1.0000   1.0000   1.0000   1.0000
     1.0000   1.0000   1.0000   1.0000   1.0000   1.0000   1.0000   1.0000
     1.0000   1.0000   1.0000   1.0000   1.0000   1.0000   1.0000   1.0000
     1.0000   1.0000   1.0000   1.0000   1.0000   1.0000   1.0000   1.0000
     1.0000   1.0000   1.0000   1.0000   1.0000   1.0000   1.0000   1.0000
     1.0000   1.0000   1.0000   1.0000   1.0000   1.0811   0.2171   0.0034
     0.0002   0.0000   0.0000   0.0000   0.0000   0.0000   0.0000   0.0000
     0.0000   0.0000

          k = 0.2495 0.0668 0.2262 ( 17769 PWs)   bands (ev):

   -91.5951 -73.6371 -62.6537 -62.5651 -52.2344 -52.1963 -52.1723 -39.7493
   -39.7267 -39.7157 -27.1196 -27.0705 -26.9977 -26.9409 -26.8818 -26.8459
    -7.0561  -6.1050  -5.9038  -5.7655  -5.7249  -5.6661  -5.2699  -5.0945
     3.9096   4.0698   4.7253   4.9017   5.1310   5.2882   5.6272   6.0105
     6.4546   6.6227   6.7584   7.0202   7.1368   7.5203   7.7626   7.9388
     8.2032   8.4624   8.9716   9.1701   9.3191   9.5872   9.7291   9.9932
    10.0773  10.2425  10.6698  10.9558  11.1614  14.1028  14.3827  14.8477
    14.9318  15.2444  15.5945  15.8823  16.0003  16.2773  16.3898  16.7865
    19.6100  19.7642

     occupation numbers 
     1.0000   1.0000   1.0000   1.0000   1.0000   1.0000   1.0000   1.0000
     1.0000   1.0000   1.0000   1.0000   1.0000   1.0000   1.0000   1.0000
     1.0000   1.0000   1.0000   1.0000   1.0000   1.0000   1.0000   1.0000
     1.0000   1.0000   1.0000   1.0000   1.0000   1.0000   1.0000   1.0000
     1.0000   1.0000   1.0000   1.0000   1.0000   1.0000   1.0000   1.0000
     1.0000   1.0000   1.0000   1.0000   1.0000   1.0000   1.0000   1.0000
     1.0000   1.0000   1.0000   1.0000   1.0000   1.0125   0.3521   0.0010
     0.0002   0.0000   0.0000   0.0000   0.0000   0.0000   0.0000   0.0000
     0.0000   0.0000

          k = 0.2491 0.0668 0.3771 ( 17767 PWs)   bands (ev):

   -91.5951 -73.6372 -62.6535 -62.5653 -52.2344 -52.1963 -52.1723 -39.7493
   -39.7267 -39.7157 -27.1247 -27.0718 -26.9905 -26.9540 -26.8791 -26.8374
    -6.7251  -6.2178  -6.0921  -5.9485  -5.7205  -5.5429  -5.2452  -5.1094
     3.9480   4.0866   4.6397   4.8891   5.0931   5.3807   5.6791   5.8324
     6.3653   6.6716   6.8846   7.0091   7.2125   7.5002   7.8065   7.9920
     8.0682   8.3439   8.6630   9.1702   9.3872   9.7068   9.8851  10.0473
    10.1543  10.4463  10.5626  10.9002  11.1777  14.2039  14.5362  14.7033
    14.9940  15.2037  15.4568  15.8007  16.1187  16.2770  16.3989  16.6848
    19.3133  19.5227

     occupation numbers 
     1.0000   1.0000   1.0000   1.0000   1.0000   1.0000   1.0000   1.0000
     1.0000   1.0000   1.0000   1.0000   1.0000   1.0000   1.0000   1.0000
     1.0000   1.0000   1.0000   1.0000   1.0000   1.0000   1.0000   1.0000
     1.0000   1.0000   1.0000   1.0000   1.0000   1.0000   1.0000   1.0000
     1.0000   1.0000   1.0000   1.0000   1.0000   1.0000   1.0000   1.0000
     1.0000   1.0000   1.0000   1.0000   1.0000   1.0000   1.0000   1.0000
     1.0000   1.0000   1.0000   1.0000   1.0000   0.8238   0.0942   0.0114
     0.0001   0.0000   0.0000   0.0000   0.0000   0.0000   0.0000   0.0000
     0.0000   0.0000

          k = 0.2509 0.0668-0.3773 ( 17759 PWs)   bands (ev):

   -91.5951 -73.6372 -62.6535 -62.5653 -52.2344 -52.1963 -52.1723 -39.7493
   -39.7267 -39.7157 -27.1247 -27.0719 -26.9906 -26.9539 -26.8793 -26.8373
    -6.6462  -6.3680  -6.1445  -5.9784  -5.6609  -5.4426  -5.2229  -5.1139
     3.9836   4.0848   4.5690   4.9577   5.1540   5.2937   5.6902   5.8282
     6.1486   6.4592   6.7413   6.9749   7.1375   7.7409   7.8730   8.0688
     8.2231   8.4096   8.7496   9.0430   9.3016   9.6204  10.0422  10.1753
    10.2645  10.4520  10.6472  10.8715  11.1253  14.1430  14.5960  14.8165
    14.9892  15.2790  15.3650  15.7964  16.1644  16.2640  16.4556  16.6099
    19.0220  19.3264

     occupation numbers 
     1.0000   1.0000   1.0000   1.0000   1.0000   1.0000   1.0000   1.0000
     1.0000   1.0000   1.0000   1.0000   1.0000   1.0000   1.0000   1.0000
     1.0000   1.0000   1.0000   1.0000   1.0000   1.0000   1.0000   1.0000
     1.0000   1.0000   1.0000   1.0000   1.0000   1.0000   1.0000   1.0000
     1.0000   1.0000   1.0000   1.0000   1.0000   1.0000   1.0000   1.0000
     1.0000   1.0000   1.0000   1.0000   1.0000   1.0000   1.0000   1.0000
     1.0000   1.0000   1.0000   1.0000   1.0000   0.9516   0.0480   0.0018
     0.0001   0.0000   0.0000   0.0000   0.0000   0.0000   0.0000   0.0000
     0.0000   0.0000

          k = 0.2505 0.0668-0.2265 ( 17769 PWs)   bands (ev):

   -91.5951 -73.6371 -62.6536 -62.5651 -52.2344 -52.1963 -52.1723 -39.7493
   -39.7267 -39.7157 -27.1197 -27.0704 -26.9980 -26.9406 -26.8822 -26.8457
    -7.0142  -6.2164  -6.1261  -5.8821  -5.5325  -5.4311  -5.2229  -5.1128
     3.9863   4.0786   4.6329   4.9205   5.1329   5.3099   5.7101   5.8595
     6.0120   6.3693   6.6410   6.7779   7.0566   7.6027   8.0085   8.2900
     8.5088   8.6582   8.8659   9.0875   9.1645   9.5304  10.0055  10.1590
    10.2146  10.4386  10.6155  10.9174  11.1059  14.0888  14.5885  14.7692
    15.0417  15.2167  15.5884  15.8281  16.0838  16.2618  16.4283  16.7734
    18.9597  19.4058

     occupation numbers 
     1.0000   1.0000   1.0000   1.0000   1.0000   1.0000   1.0000   1.0000
     1.0000   1.0000   1.0000   1.0000   1.0000   1.0000   1.0000   1.0000
     1.0000   1.0000   1.0000   1.0000   1.0000   1.0000   1.0000   1.0000
     1.0000   1.0000   1.0000   1.0000   1.0000   1.0000   1.0000   1.0000
     1.0000   1.0000   1.0000   1.0000   1.0000   1.0000   1.0000   1.0000
     1.0000   1.0000   1.0000   1.0000   1.0000   1.0000   1.0000   1.0000
     1.0000   1.0000   1.0000   1.0000   1.0000   1.0289   0.0525   0.0041
     0.0000   0.0000   0.0000   0.0000   0.0000   0.0000   0.0000   0.0000
     0.0000   0.0000

          k = 0.2502 0.0668-0.0756 ( 17754 PWs)   bands (ev):

   -91.5951 -73.6371 -62.6539 -62.5649 -52.2343 -52.1963 -52.1723 -39.7493
   -39.7267 -39.7157 -27.1128 -27.0715 -27.0033 -26.9257 -26.8856 -26.8566
    -7.2274  -6.1448  -6.0785  -5.8173  -5.4926  -5.4137  -5.2657  -5.0806
     3.9563   4.0818   4.6334   4.8763   5.0670   5.3163   5.5909   6.0261
     6.1431   6.5151   6.7214   6.9404   7.1557   7.3767   7.8228   8.2168
     8.3079   8.6387   8.9789   9.1669   9.2148   9.6457   9.7986  10.0498
    10.2761  10.3853  10.6753  10.9459  11.0853  14.0428  14.3927  14.8279
    14.9901  15.1987  15.7552  15.9745  16.1061  16.2100  16.4017  16.8050
    19.1922  19.3979

     occupation numbers 
     1.0000   1.0000   1.0000   1.0000   1.0000   1.0000   1.0000   1.0000
     1.0000   1.0000   1.0000   1.0000   1.0000   1.0000   1.0000   1.0000
     1.0000   1.0000   1.0000   1.0000   1.0000   1.0000   1.0000   1.0000
     1.0000   1.0000   1.0000   1.0000   1.0000   1.0000   1.0000   1.0000
     1.0000   1.0000   1.0000   1.0000   1.0000   1.0000   1.0000   1.0000
     1.0000   1.0000   1.0000   1.0000   1.0000   1.0000   1.0000   1.0000
     1.0000   1.0000   1.0000   1.0000   1.0000   1.0666   0.3287   0.0015
     0.0001   0.0000   0.0000   0.0000   0.0000   0.0000   0.0000   0.0000
     0.0000   0.0000

          k = 0.2498 0.2004 0.0753 ( 17761 PWs)   bands (ev):

   -91.5951 -73.6371 -62.6539 -62.5649 -52.2343 -52.1963 -52.1723 -39.7493
   -39.7267 -39.7157 -27.1121 -27.0705 -27.0028 -26.9264 -26.8865 -26.8572
    -7.1166  -6.2635  -5.9928  -5.7765  -5.7165  -5.4601  -5.1811  -5.0512
     3.8877   4.0991   4.7291   4.9342   5.1474   5.2986   5.7423   5.8900
     6.2887   6.5833   6.9048   7.0267   7.2836   7.3999   7.7645   8.0217
     8.2042   8.5669   8.7558   9.1534   9.2713   9.5156   9.6442   9.9296
    10.1844  10.4057  10.6966  10.8443  11.0343  13.9989  14.5424  14.7909
    14.9604  15.2494  15.6827  15.9877  16.0292  16.2298  16.4429  16.8267
    19.5691  19.7224

     occupation numbers 
     1.0000   1.0000   1.0000   1.0000   1.0000   1.0000   1.0000   1.0000
     1.0000   1.0000   1.0000   1.0000   1.0000   1.0000   1.0000   1.0000
     1.0000   1.0000   1.0000   1.0000   1.0000   1.0000   1.0000   1.0000
     1.0000   1.0000   1.0000   1.0000   1.0000   1.0000   1.0000   1.0000
     1.0000   1.0000   1.0000   1.0000   1.0000   1.0000   1.0000   1.0000
     1.0000   1.0000   1.0000   1.0000   1.0000   1.0000   1.0000   1.0000
     1.0000   1.0000   1.0000   1.0000   1.0000   1.0818   0.0882   0.0028
     0.0001   0.0000   0.0000   0.0000   0.0000   0.0000   0.0000   0.0000
     0.0000   0.0000

          k = 0.2495 0.2004 0.2262 ( 17772 PWs)   bands (ev):

   -91.5951 -73.6371 -62.6537 -62.5651 -52.2344 -52.1963 -52.1723 -39.7493
   -39.7267 -39.7157 -27.1203 -27.0701 -26.9974 -26.9413 -26.8821 -26.8453
    -6.9406  -6.2311  -5.9510  -5.8440  -5.7420  -5.5782  -5.2429  -5.0690
     3.8902   4.1147   4.7619   4.9222   5.1268   5.3984   5.7246   5.9032
     6.4036   6.6377   6.8233   6.8829   7.1322   7.4219   7.8361   8.0704
     8.3756   8.5178   8.8880   9.1584   9.2417   9.4649   9.6081   9.9000
    10.0189  10.2973  10.6333  10.9265  11.0911  14.0716  14.5748  14.7556
    15.0345  15.1400  15.4833  15.9049  16.0090  16.2505  16.4717  16.8245
    19.5867  19.6887

     occupation numbers 
     1.0000   1.0000   1.0000   1.0000   1.0000   1.0000   1.0000   1.0000
     1.0000   1.0000   1.0000   1.0000   1.0000   1.0000   1.0000   1.0000
     1.0000   1.0000   1.0000   1.0000   1.0000   1.0000   1.0000   1.0000
     1.0000   1.0000   1.0000   1.0000   1.0000   1.0000   1.0000   1.0000
     1.0000   1.0000   1.0000   1.0000   1.0000   1.0000   1.0000   1.0000
     1.0000   1.0000   1.0000   1.0000   1.0000   1.0000   1.0000   1.0000
     1.0000   1.0000   1.0000   1.0000   1.0000   1.0459   0.0617   0.0051
     0.0000   0.0000   0.0000   0.0000   0.0000   0.0000   0.0000   0.0000
     0.0000   0.0000

          k = 0.2491 0.2004 0.3771 ( 17779 PWs)   bands (ev):

   -91.5951 -73.6372 -62.6535 -62.5653 -52.2344 -52.1963 -52.1723 -39.7493
   -39.7267 -39.7157 -27.1262 -27.0728 -26.9903 -26.9537 -26.8783 -26.8361
    -6.6334  -6.3003  -6.1420  -5.8924  -5.7261  -5.5229  -5.2970  -5.1027
     3.9036   4.1134   4.6887   5.0254   5.1055   5.4356   5.6016   5.9071
     6.2562   6.5776   6.8798   7.0325   7.2327   7.5113   7.8980   8.0501
     8.1340   8.4836   8.8513   9.1741   9.2040   9.3600   9.6540  10.0197
    10.1406  10.3889  10.5034  10.9376  11.1666  14.2176  14.6333  14.7134
    14.9516  15.1594  15.3715  15.8366  16.1701  16.2562  16.4470  16.7003
    19.3028  19.6071

     occupation numbers 
     1.0000   1.0000   1.0000   1.0000   1.0000   1.0000   1.0000   1.0000
     1.0000   1.0000   1.0000   1.0000   1.0000   1.0000   1.0000   1.0000
     1.0000   1.0000   1.0000   1.0000   1.0000   1.0000   1.0000   1.0000
     1.0000   1.0000   1.0000   1.0000   1.0000   1.0000   1.0000   1.0000
     1.0000   1.0000   1.0000   1.0000   1.0000   1.0000   1.0000   1.0000
     1.0000   1.0000   1.0000   1.0000   1.0000   1.0000   1.0000   1.0000
     1.0000   1.0000   1.0000   1.0000   1.0000   0.7905   0.0302   0.0098
     0.0001   0.0000   0.0000   0.0000   0.0000   0.0000   0.0000   0.0000
     0.0000   0.0000

          k = 0.2509 0.2004-0.3773 ( 17774 PWs)   bands (ev):

   -91.5951 -73.6372 -62.6534 -62.5653 -52.2344 -52.1963 -52.1723 -39.7493
   -39.7267 -39.7157 -27.1261 -27.0729 -26.9905 -26.9535 -26.8784 -26.8361
    -6.6120  -6.3179  -6.2464  -5.8995  -5.6765  -5.4542  -5.2465  -5.1424
     3.9260   4.0806   4.6422   5.0323   5.1724   5.3636   5.6072   5.8885
     6.1725   6.4604   6.7967   7.0150   7.3316   7.6059   7.6937   8.1431
     8.3469   8.5347   8.6968   9.0781   9.1843   9.4618   9.7861  10.0757
    10.1951  10.3217  10.6607  10.8814  11.1521  14.2162  14.6348  14.7572
    15.0063  15.3072  15.3614  15.8279  16.1780  16.3503  16.4042  16.5882
    19.1035  19.4646

     occupation numbers 
     1.0000   1.0000   1.0000   1.0000   1.0000   1.0000   1.0000   1.0000
     1.0000   1.0000   1.0000   1.0000   1.0000   1.0000   1.0000   1.0000
     1.0000   1.0000   1.0000   1.0000   1.0000   1.0000   1.0000   1.0000
     1.0000   1.0000   1.0000   1.0000   1.0000   1.0000   1.0000   1.0000
     1.0000   1.0000   1.0000   1.0000   1.0000   1.0000   1.0000   1.0000
     1.0000   1.0000   1.0000   1.0000   1.0000   1.0000   1.0000   1.0000
     1.0000   1.0000   1.0000   1.0000   1.0000   0.7939   0.0296   0.0050
     0.0000   0.0000   0.0000   0.0000   0.0000   0.0000   0.0000   0.0000
     0.0000   0.0000

          k = 0.2505 0.2004-0.2265 ( 17770 PWs)   bands (ev):

   -91.5951 -73.6371 -62.6536 -62.5651 -52.2344 -52.1963 -52.1723 -39.7493
   -39.7267 -39.7157 -27.1204 -27.0700 -26.9977 -26.9409 -26.8825 -26.8451
    -6.9231  -6.3279  -6.1363  -5.8299  -5.5622  -5.4217  -5.2612  -5.0940
     3.9252   4.0915   4.6409   4.9308   5.1526   5.4377   5.7236   5.8865
     6.0785   6.4026   6.6689   6.8843   7.3160   7.5249   7.7800   8.1496
     8.4571   8.6625   8.7153   9.0740   9.3781   9.6135   9.8117   9.9034
    10.1473  10.2846  10.6721  10.9115  11.0900  14.1702  14.5960  14.7717
    15.0004  15.3066  15.6232  15.8847  16.1077  16.2927  16.4033  16.7281
    19.1042  19.4721

     occupation numbers 
     1.0000   1.0000   1.0000   1.0000   1.0000   1.0000   1.0000   1.0000
     1.0000   1.0000   1.0000   1.0000   1.0000   1.0000   1.0000   1.0000
     1.0000   1.0000   1.0000   1.0000   1.0000   1.0000   1.0000   1.0000
     1.0000   1.0000   1.0000   1.0000   1.0000   1.0000   1.0000   1.0000
     1.0000   1.0000   1.0000   1.0000   1.0000   1.0000   1.0000   1.0000
     1.0000   1.0000   1.0000   1.0000   1.0000   1.0000   1.0000   1.0000
     1.0000   1.0000   1.0000   1.0000   1.0000   0.8995   0.0481   0.0039
     0.0000   0.0000   0.0000   0.0000   0.0000   0.0000   0.0000   0.0000
     0.0000   0.0000

          k = 0.2502 0.2004-0.0756 ( 17762 PWs)   bands (ev):

   -91.5951 -73.6371 -62.6538 -62.5649 -52.2343 -52.1963 -52.1723 -39.7493
   -39.7267 -39.7157 -27.1123 -27.0703 -27.0030 -26.9262 -26.8869 -26.8571
    -7.1102  -6.3060  -6.0957  -5.7870  -5.5481  -5.4213  -5.2201  -5.0487
     3.9008   4.1114   4.6729   4.9238   5.0945   5.3564   5.6837   5.9626
     6.1557   6.6093   6.7387   7.0327   7.0791   7.5393   7.6818   8.1837
     8.3627   8.5942   8.6971   9.0892   9.3575   9.5382   9.7617  10.0553
    10.1947  10.3708  10.5605  10.9193  11.0492  14.1332  14.4828  14.7051
    15.0444  15.2967  15.6889  16.0254  16.1380  16.2169  16.4079  16.7959
    19.2965  19.5547

     occupation numbers 
     1.0000   1.0000   1.0000   1.0000   1.0000   1.0000   1.0000   1.0000
     1.0000   1.0000   1.0000   1.0000   1.0000   1.0000   1.0000   1.0000
     1.0000   1.0000   1.0000   1.0000   1.0000   1.0000   1.0000   1.0000
     1.0000   1.0000   1.0000   1.0000   1.0000   1.0000   1.0000   1.0000
     1.0000   1.0000   1.0000   1.0000   1.0000   1.0000   1.0000   1.0000
     1.0000   1.0000   1.0000   1.0000   1.0000   1.0000   1.0000   1.0000
     1.0000   1.0000   1.0000   1.0000   1.0000   0.9683   0.1591   0.0111
     0.0000   0.0000   0.0000   0.0000   0.0000   0.0000   0.0000   0.0000
     0.0000   0.0000

          k = 0.2498 0.3340 0.0753 ( 17755 PWs)   bands (ev):

   -91.5951 -73.6371 -62.6539 -62.5650 -52.2343 -52.1963 -52.1723 -39.7493
   -39.7267 -39.7157 -27.1116 -27.0693 -27.0025 -26.9270 -26.8878 -26.8577
    -6.9076  -6.5242  -5.9660  -5.8209  -5.7666  -5.4353  -5.1288  -5.0224
     3.9486   4.0659   4.7453   4.8171   5.2876   5.3917   5.7768   5.9980
     6.2916   6.5051   6.7617   7.0244   7.3917   7.4496   7.8553   8.0084
     8.1966   8.4204   8.7722   9.0002   9.2520   9.4358   9.6007   9.9536
    10.2515  10.4006  10.5986  10.7358  10.9888  14.1206  14.4573  14.8928
    15.0309  15.2648  15.5251  15.9674  16.0636  16.3094  16.4205  16.8535
    19.5872  19.7092

     occupation numbers 
     1.0000   1.0000   1.0000   1.0000   1.0000   1.0000   1.0000   1.0000
     1.0000   1.0000   1.0000   1.0000   1.0000   1.0000   1.0000   1.0000
     1.0000   1.0000   1.0000   1.0000   1.0000   1.0000   1.0000   1.0000
     1.0000   1.0000   1.0000   1.0000   1.0000   1.0000   1.0000   1.0000
     1.0000   1.0000   1.0000   1.0000   1.0000   1.0000   1.0000   1.0000
     1.0000   1.0000   1.0000   1.0000   1.0000   1.0000   1.0000   1.0000
     1.0000   1.0000   1.0000   1.0000   1.0000   0.9879   0.1993   0.0004
     0.0000   0.0000   0.0000   0.0000   0.0000   0.0000   0.0000   0.0000
     0.0000   0.0000

          k = 0.2495 0.3340 0.2262 ( 17772 PWs)   bands (ev):

   -91.5951 -73.6372 -62.6537 -62.5652 -52.2344 -52.1963 -52.1723 -39.7493
   -39.7267 -39.7157 -27.1209 -27.0698 -26.9971 -26.9417 -26.8824 -26.8447
    -6.7487  -6.4250  -5.9971  -5.9332  -5.7292  -5.5077  -5.2129  -5.0576
     3.9490   4.0844   4.7320   4.9233   5.2562   5.4189   5.6544   6.1257
     6.3462   6.5484   6.7749   6.8719   7.2656   7.4492   7.7236   8.0776
     8.4422   8.5318   8.8871   9.0111   9.2414   9.4262   9.6189   9.8151
    10.0257  10.2826  10.5374  10.8889  11.0150  14.1582  14.5865  14.8006
    14.9752  15.1371  15.3534  15.9084  16.0634  16.3238  16.4692  16.8291
    19.3582  19.6890

     occupation numbers 
     1.0000   1.0000   1.0000   1.0000   1.0000   1.0000   1.0000   1.0000
     1.0000   1.0000   1.0000   1.0000   1.0000   1.0000   1.0000   1.0000
     1.0000   1.0000   1.0000   1.0000   1.0000   1.0000   1.0000   1.0000
     1.0000   1.0000   1.0000   1.0000   1.0000   1.0000   1.0000   1.0000
     1.0000   1.0000   1.0000   1.0000   1.0000   1.0000   1.0000   1.0000
     1.0000   1.0000   1.0000   1.0000   1.0000   1.0000   1.0000   1.0000
     1.0000   1.0000   1.0000   1.0000   1.0000   0.9236   0.0538   0.0024
     0.0001   0.0000   0.0000   0.0000   0.0000   0.0000   0.0000   0.0000
     0.0000   0.0000

          k = 0.2491 0.3340 0.3771 ( 17782 PWs)   bands (ev):

   -91.5951 -73.6372 -62.6535 -62.5654 -52.2344 -52.1963 -52.1723 -39.7493
   -39.7267 -39.7157 -27.1276 -27.0738 -26.9902 -26.9534 -26.8775 -26.8349
    -6.5188  -6.3166  -6.1909  -6.0363  -5.5893  -5.4976  -5.3797  -5.1030
     3.9432   4.0685   4.7161   5.0487   5.1969   5.4174   5.6028   5.9763
     6.2143   6.6623   6.8273   7.0619   7.2661   7.5375   7.7341   8.0966
     8.2898   8.5278   8.9139   9.0075   9.2246   9.3421   9.4986   9.8975
    10.0726  10.2938  10.4795  10.9220  11.1293  14.3210  14.6085  14.7564
    14.9015  15.0645  15.3848  15.8420  16.2314  16.2913  16.4623  16.6841
    19.0842  19.6246

     occupation numbers 
     1.0000   1.0000   1.0000   1.0000   1.0000   1.0000   1.0000   1.0000
     1.0000   1.0000   1.0000   1.0000   1.0000   1.0000   1.0000   1.0000
     1.0000   1.0000   1.0000   1.0000   1.0000   1.0000   1.0000   1.0000
     1.0000   1.0000   1.0000   1.0000   1.0000   1.0000   1.0000   1.0000
     1.0000   1.0000   1.0000   1.0000   1.0000   1.0000   1.0000   1.0000
     1.0000   1.0000   1.0000   1.0000   1.0000   1.0000   1.0000   1.0000
     1.0000   1.0000   1.0000   1.0000   1.0000   0.5108   0.0413   0.0050
     0.0004   0.0000   0.0000   0.0000   0.0000   0.0000   0.0000   0.0000
     0.0000   0.0000

          k = 0.2509 0.3340-0.3773 ( 17781 PWs)   bands (ev):

   -91.5951 -73.6372 -62.6534 -62.5654 -52.2344 -52.1963 -52.1723 -39.7493
   -39.7267 -39.7157 -27.1276 -27.0738 -26.9904 -26.9532 -26.8776 -26.8349
    -6.5574  -6.4038  -6.1311  -5.9583  -5.6419  -5.4914  -5.2604  -5.1691
     3.9447   4.0464   4.6539   4.9637   5.2038   5.3990   5.7156   5.9624
     6.2205   6.5974   6.8894   7.0920   7.2915   7.3884   7.7521   8.0288
     8.4217   8.5384   8.7089   9.0157   9.2582   9.3667   9.5637   9.9825
    10.0666  10.3014  10.6317  10.8901  11.0895  14.2799  14.6025  14.8837
    14.9636  15.2691  15.4484  15.7801  16.2390  16.3751  16.4395  16.5140
    18.9406  19.5574

     occupation numbers 
     1.0000   1.0000   1.0000   1.0000   1.0000   1.0000   1.0000   1.0000
     1.0000   1.0000   1.0000   1.0000   1.0000   1.0000   1.0000   1.0000
     1.0000   1.0000   1.0000   1.0000   1.0000   1.0000   1.0000   1.0000
     1.0000   1.0000   1.0000   1.0000   1.0000   1.0000   1.0000   1.0000
     1.0000   1.0000   1.0000   1.0000   1.0000   1.0000   1.0000   1.0000
     1.0000   1.0000   1.0000   1.0000   1.0000   1.0000   1.0000   1.0000
     1.0000   1.0000   1.0000   1.0000   1.0000   0.6242   0.0444   0.0005
     0.0001   0.0000   0.0000   0.0000   0.0000   0.0000   0.0000   0.0000
     0.0000   0.0000

          k = 0.2505 0.3340-0.2265 ( 17766 PWs)   bands (ev):

   -91.5951 -73.6372 -62.6536 -62.5652 -52.2343 -52.1963 -52.1723 -39.7493
   -39.7267 -39.7157 -27.1211 -27.0696 -26.9975 -26.9411 -26.8828 -26.8447
    -6.7666  -6.5284  -6.0691  -5.8279  -5.6149  -5.4016  -5.2836  -5.0821
     3.9488   4.0559   4.5931   4.8813   5.1538   5.5490   5.7883   5.9613
     6.2537   6.4874   6.8630   6.9270   7.2696   7.5166   7.7364   7.8921
     8.2882   8.6008   8.6919   9.0443   9.4706   9.5629   9.6869   9.8702
    10.1060  10.2385  10.6714  10.8909  10.9799  14.1969  14.6081  14.8469
    14.9654  15.4288  15.6234  15.9022  16.1621  16.3019  16.4124  16.6519
    19.0066  19.5515

     occupation numbers 
     1.0000   1.0000   1.0000   1.0000   1.0000   1.0000   1.0000   1.0000
     1.0000   1.0000   1.0000   1.0000   1.0000   1.0000   1.0000   1.0000
     1.0000   1.0000   1.0000   1.0000   1.0000   1.0000   1.0000   1.0000
     1.0000   1.0000   1.0000   1.0000   1.0000   1.0000   1.0000   1.0000
     1.0000   1.0000   1.0000   1.0000   1.0000   1.0000   1.0000   1.0000
     1.0000   1.0000   1.0000   1.0000   1.0000   1.0000   1.0000   1.0000
     1.0000   1.0000   1.0000   1.0000   1.0000   0.8406   0.0415   0.0010
     0.0001   0.0000   0.0000   0.0000   0.0000   0.0000   0.0000   0.0000
     0.0000   0.0000

          k = 0.2502 0.3340-0.0756 ( 17766 PWs)   bands (ev):

   -91.5951 -73.6371 -62.6538 -62.5650 -52.2343 -52.1963 -52.1723 -39.7493
   -39.7267 -39.7157 -27.1117 -27.0691 -27.0027 -26.9266 -26.8882 -26.8576
    -6.9116  -6.5621  -6.0621  -5.7938  -5.5788  -5.4544  -5.1634  -5.0272
     3.9456   4.0639   4.6414   4.8636   5.1910   5.4602   5.7824   5.9697
     6.2345   6.6072   6.7841   7.0205   7.2304   7.4493   7.7850   7.9711
     8.3250   8.5184   8.6511   9.0280   9.2159   9.4991   9.7243  10.0532
    10.2361  10.3426  10.5548  10.8531  10.9595  14.2397  14.4129  14.8069
    14.9938  15.4506  15.6053  16.0578  16.1727  16.2608  16.3842  16.7742
    19.2997  19.6534

     occupation numbers 
     1.0000   1.0000   1.0000   1.0000   1.0000   1.0000   1.0000   1.0000
     1.0000   1.0000   1.0000   1.0000   1.0000   1.0000   1.0000   1.0000
     1.0000   1.0000   1.0000   1.0000   1.0000   1.0000   1.0000   1.0000
     1.0000   1.0000   1.0000   1.0000   1.0000   1.0000   1.0000   1.0000
     1.0000   1.0000   1.0000   1.0000   1.0000   1.0000   1.0000   1.0000
     1.0000   1.0000   1.0000   1.0000   1.0000   1.0000   1.0000   1.0000
     1.0000   1.0000   1.0000   1.0000   1.0000   0.7334   0.2842   0.0021
     0.0001   0.0000   0.0000   0.0000   0.0000   0.0000   0.0000   0.0000
     0.0000   0.0000

          k = 0.4165 0.0668 0.0752 ( 17743 PWs)   bands (ev):

   -91.5951 -73.6371 -62.6539 -62.5648 -52.2343 -52.1963 -52.1723 -39.7493
   -39.7268 -39.7157 -27.1126 -27.0713 -27.0053 -26.9274 -26.8853 -26.8567
    -6.9063  -6.2663  -6.1083  -5.8375  -5.6171  -5.4311  -5.3374  -5.1077
     4.0521   4.1131   4.8190   4.8713   5.1232   5.3391   5.6245   5.8576
     6.3444   6.6704   6.7230   6.9714   7.2609   7.3660   7.6953   7.8951
     8.3186   8.6203   8.7679   9.0026   9.3278   9.5323   9.6492   9.8026
    10.3164  10.6196  10.8802  11.0242  11.0746  14.1338  14.4836  14.7633
    15.0413  15.2006  15.7048  15.9744  16.1898  16.2421  16.3458  16.5465
    19.5110  19.8771

     occupation numbers 
     1.0000   1.0000   1.0000   1.0000   1.0000   1.0000   1.0000   1.0000
     1.0000   1.0000   1.0000   1.0000   1.0000   1.0000   1.0000   1.0000
     1.0000   1.0000   1.0000   1.0000   1.0000   1.0000   1.0000   1.0000
     1.0000   1.0000   1.0000   1.0000   1.0000   1.0000   1.0000   1.0000
     1.0000   1.0000   1.0000   1.0000   1.0000   1.0000   1.0000   1.0000
     1.0000   1.0000   1.0000   1.0000   1.0000   1.0000   1.0000   1.0000
     1.0000   1.0000   1.0000   1.0000   1.0000   0.9673   0.1579   0.0045
     0.0000   0.0000   0.0000   0.0000   0.0000   0.0000   0.0000   0.0000
     0.0000   0.0000

          k = 0.4161 0.0668 0.2261 ( 17748 PWs)   bands (ev):

   -91.5951 -73.6371 -62.6538 -62.5650 -52.2344 -52.1963 -52.1723 -39.7493
   -39.7268 -39.7157 -27.1193 -27.0704 -26.9998 -26.9422 -26.8821 -26.8457
    -6.7517  -6.2043  -6.0189  -5.8543  -5.8042  -5.5921  -5.2514  -5.1547
     4.0311   4.1448   4.8480   4.9629   5.0468   5.3531   5.7686   5.8364
     6.2350   6.3910   6.6103   7.0007   7.2160   7.4087   7.7586   7.9596
     8.1556   8.4897   9.1366   9.2471   9.3888   9.5934   9.7681   9.9684
    10.0764  10.4661  10.7398  10.9287  11.1382  14.0960  14.4554  14.9225
    15.0488  15.1856  15.7217  15.8713  16.1620  16.2463  16.4047  16.5442
    19.4087  19.7235

     occupation numbers 
     1.0000   1.0000   1.0000   1.0000   1.0000   1.0000   1.0000   1.0000
     1.0000   1.0000   1.0000   1.0000   1.0000   1.0000   1.0000   1.0000
     1.0000   1.0000   1.0000   1.0000   1.0000   1.0000   1.0000   1.0000
     1.0000   1.0000   1.0000   1.0000   1.0000   1.0000   1.0000   1.0000
     1.0000   1.0000   1.0000   1.0000   1.0000   1.0000   1.0000   1.0000
     1.0000   1.0000   1.0000   1.0000   1.0000   1.0000   1.0000   1.0000
     1.0000   1.0000   1.0000   1.0000   1.0000   1.0208   0.2025   0.0002
     0.0000   0.0000   0.0000   0.0000   0.0000   0.0000   0.0000   0.0000
     0.0000   0.0000

          k = 0.4158 0.0668 0.3770 ( 17764 PWs)   bands (ev):

   -91.5951 -73.6372 -62.6537 -62.5652 -52.2344 -52.1963 -52.1723 -39.7493
   -39.7268 -39.7157 -27.1243 -27.0718 -26.9923 -26.9555 -26.8794 -26.8371
    -6.4740  -6.1726  -6.0347  -5.9707  -5.8288  -5.7901  -5.2260  -5.1422
     4.0425   4.2190   4.8697   4.9528   5.0796   5.3165   5.5206   5.6827
     6.0712   6.6251   6.6780   6.8516   7.2737   7.5092   7.7908   8.0179
     8.2906   8.5575   8.6955   9.1550   9.3477   9.7399   9.9404  10.1445
    10.2799  10.5207  10.6163  10.8037  11.1797  14.1370  14.5092  14.8229
    15.0052  15.3788  15.6586  15.8061  16.1701  16.2947  16.3974  16.5610
    19.1902  19.2564

     occupation numbers 
     1.0000   1.0000   1.0000   1.0000   1.0000   1.0000   1.0000   1.0000
     1.0000   1.0000   1.0000   1.0000   1.0000   1.0000   1.0000   1.0000
     1.0000   1.0000   1.0000   1.0000   1.0000   1.0000   1.0000   1.0000
     1.0000   1.0000   1.0000   1.0000   1.0000   1.0000   1.0000   1.0000
     1.0000   1.0000   1.0000   1.0000   1.0000   1.0000   1.0000   1.0000
     1.0000   1.0000   1.0000   1.0000   1.0000   1.0000   1.0000   1.0000
     1.0000   1.0000   1.0000   1.0000   1.0000   0.9620   0.1239   0.0016
     0.0000   0.0000   0.0000   0.0000   0.0000   0.0000   0.0000   0.0000
     0.0000   0.0000

          k = 0.4175 0.0668-0.3774 ( 17759 PWs)   bands (ev):

   -91.5951 -73.6372 -62.6536 -62.5652 -52.2344 -52.1963 -52.1723 -39.7493
   -39.7268 -39.7157 -27.1243 -27.0718 -26.9924 -26.9554 -26.8795 -26.8371
    -6.4035  -6.2048  -6.1554  -5.9904  -5.9021  -5.6173  -5.2109  -5.1424
     4.0433   4.2405   4.7906   5.0280   5.2320   5.3406   5.3624   5.5834
     5.9955   6.4728   6.6121   6.9847   7.1707   7.6487   7.9270   8.1050
     8.2739   8.4873   8.7304   9.0955   9.3229   9.7188  10.0350  10.1628
    10.3336  10.4416  10.6545  10.8751  11.1744  14.0701  14.6094  14.8879
    14.9895  15.3906  15.5333  15.9037  16.1831  16.2276  16.4226  16.5745
    18.9736  19.2206

     occupation numbers 
     1.0000   1.0000   1.0000   1.0000   1.0000   1.0000   1.0000   1.0000
     1.0000   1.0000   1.0000   1.0000   1.0000   1.0000   1.0000   1.0000
     1.0000   1.0000   1.0000   1.0000   1.0000   1.0000   1.0000   1.0000
     1.0000   1.0000   1.0000   1.0000   1.0000   1.0000   1.0000   1.0000
     1.0000   1.0000   1.0000   1.0000   1.0000   1.0000   1.0000   1.0000
     1.0000   1.0000   1.0000   1.0000   1.0000   1.0000   1.0000   1.0000
     1.0000   1.0000   1.0000   1.0000   1.0000   1.0473   0.0408   0.0005
     0.0001   0.0000   0.0000   0.0000   0.0000   0.0000   0.0000   0.0000
     0.0000   0.0000

          k = 0.4172 0.0668-0.2265 ( 17754 PWs)   bands (ev):

   -91.5951 -73.6371 -62.6537 -62.5650 -52.2344 -52.1963 -52.1723 -39.7493
   -39.7268 -39.7157 -27.1193 -27.0703 -26.9999 -26.9421 -26.8823 -26.8456
    -6.7027  -6.2773  -6.1408  -5.8860  -5.7465  -5.4811  -5.2271  -5.1462
     4.0481   4.1796   4.7388   4.9646   5.2630   5.3996   5.6618   5.7060
     5.9926   6.2396   6.4842   6.9459   7.1241   7.6012   7.9609   8.0874
     8.2482   8.6885   9.0495   9.1721   9.3233   9.6033   9.8109   9.8996
    10.1582  10.5365  10.7346  11.0237  11.1550  14.0491  14.6769  14.8075
    15.0592  15.2363  15.6053  16.0471  16.1194  16.1923  16.3150  16.6631
    19.0444  19.4972

     occupation numbers 
     1.0000   1.0000   1.0000   1.0000   1.0000   1.0000   1.0000   1.0000
     1.0000   1.0000   1.0000   1.0000   1.0000   1.0000   1.0000   1.0000
     1.0000   1.0000   1.0000   1.0000   1.0000   1.0000   1.0000   1.0000
     1.0000   1.0000   1.0000   1.0000   1.0000   1.0000   1.0000   1.0000
     1.0000   1.0000   1.0000   1.0000   1.0000   1.0000   1.0000   1.0000
     1.0000   1.0000   1.0000   1.0000   1.0000   1.0000   1.0000   1.0000
     1.0000   1.0000   1.0000   1.0000   1.0000   1.0629   0.0167   0.0021
     0.0000   0.0000   0.0000   0.0000   0.0000   0.0000   0.0000   0.0000
     0.0000   0.0000

          k = 0.4168 0.0668-0.0757 ( 17741 PWs)   bands (ev):

   -91.5951 -73.6371 -62.6539 -62.5648 -52.2343 -52.1963 -52.1723 -39.7493
   -39.7268 -39.7157 -27.1126 -27.0712 -27.0054 -26.9273 -26.8855 -26.8566
    -6.8895  -6.3074  -6.1340  -5.8609  -5.5509  -5.4135  -5.3504  -5.0929
     4.0752   4.1248   4.7473   4.8666   5.1990   5.3917   5.5747   5.8004
     6.3490   6.4413   6.6849   6.8638   7.2143   7.4683   7.7224   8.0567
     8.4185   8.6112   8.9208   9.1531   9.2581   9.4264   9.5815   9.7333
    10.3567  10.6566  10.8426  11.0509  11.1333  14.1491  14.5585  14.7194
    15.0743  15.1459  15.7096  16.0671  16.1317  16.1860  16.3232  16.6237
    19.3107  19.7580

     occupation numbers 
     1.0000   1.0000   1.0000   1.0000   1.0000   1.0000   1.0000   1.0000
     1.0000   1.0000   1.0000   1.0000   1.0000   1.0000   1.0000   1.0000
     1.0000   1.0000   1.0000   1.0000   1.0000   1.0000   1.0000   1.0000
     1.0000   1.0000   1.0000   1.0000   1.0000   1.0000   1.0000   1.0000
     1.0000   1.0000   1.0000   1.0000   1.0000   1.0000   1.0000   1.0000
     1.0000   1.0000   1.0000   1.0000   1.0000   1.0000   1.0000   1.0000
     1.0000   1.0000   1.0000   1.0000   1.0000   0.9406   0.0741   0.0090
     0.0000   0.0000   0.0000   0.0000   0.0000   0.0000   0.0000   0.0000
     0.0000   0.0000

          k = 0.4165 0.2004 0.0752 ( 17742 PWs)   bands (ev):

   -91.5951 -73.6371 -62.6538 -62.5650 -52.2343 -52.1963 -52.1723 -39.7493
   -39.7268 -39.7157 -27.1120 -27.0701 -27.0050 -26.9279 -26.8865 -26.8571
    -6.8312  -6.3969  -6.0851  -5.8350  -5.6597  -5.4529  -5.3024  -5.0332
     3.9247   4.0619   4.6384   4.8238   5.1838   5.5187   5.6684   6.0441
     6.3543   6.7181   6.9121   7.0358   7.3095   7.4059   7.6192   7.9362
     8.2401   8.5318   8.7687   9.0196   9.1115   9.5225   9.6483   9.9234
    10.2680  10.5219  10.7383  10.8984  11.0150  14.0888  14.4060  14.8724
    14.9774  15.1916  15.7766  15.9728  16.1337  16.2823  16.3533  16.6459
    19.4838  19.8009

     occupation numbers 
     1.0000   1.0000   1.0000   1.0000   1.0000   1.0000   1.0000   1.0000
     1.0000   1.0000   1.0000   1.0000   1.0000   1.0000   1.0000   1.0000
     1.0000   1.0000   1.0000   1.0000   1.0000   1.0000   1.0000   1.0000
     1.0000   1.0000   1.0000   1.0000   1.0000   1.0000   1.0000   1.0000
     1.0000   1.0000   1.0000   1.0000   1.0000   1.0000   1.0000   1.0000
     1.0000   1.0000   1.0000   1.0000   1.0000   1.0000   1.0000   1.0000
     1.0000   1.0000   1.0000   1.0000   1.0000   1.0289   0.2991   0.0006
     0.0001   0.0000   0.0000   0.0000   0.0000   0.0000   0.0000   0.0000
     0.0000   0.0000

          k = 0.4161 0.2004 0.2261 ( 17754 PWs)   bands (ev):

   -91.5951 -73.6371 -62.6537 -62.5651 -52.2344 -52.1963 -52.1723 -39.7493
   -39.7268 -39.7157 -27.1200 -27.0699 -26.9995 -26.9425 -26.8824 -26.8451
    -6.6890  -6.3542  -5.9485  -5.9426  -5.7827  -5.5501  -5.2415  -5.1034
     3.9306   4.0693   4.6986   4.9067   5.1598   5.4663   5.7120   5.9652
     6.1658   6.5026   6.7367   7.0452   7.1707   7.6016   7.8013   7.9702
     8.3852   8.6108   8.9821   9.1201   9.3119   9.5417   9.6002   9.9250
    10.0934  10.3669  10.6292  10.9074  11.0241  13.9946  14.5200  14.8608
    14.9996  15.1732  15.6979  15.8883  16.1326  16.2774  16.4144  16.6656
    19.3044  19.6371

     occupation numbers 
     1.0000   1.0000   1.0000   1.0000   1.0000   1.0000   1.0000   1.0000
     1.0000   1.0000   1.0000   1.0000   1.0000   1.0000   1.0000   1.0000
     1.0000   1.0000   1.0000   1.0000   1.0000   1.0000   1.0000   1.0000
     1.0000   1.0000   1.0000   1.0000   1.0000   1.0000   1.0000   1.0000
     1.0000   1.0000   1.0000   1.0000   1.0000   1.0000   1.0000   1.0000
     1.0000   1.0000   1.0000   1.0000   1.0000   1.0000   1.0000   1.0000
     1.0000   1.0000   1.0000   1.0000   1.0000   1.0824   0.1112   0.0008
     0.0000   0.0000   0.0000   0.0000   0.0000   0.0000   0.0000   0.0000
     0.0000   0.0000

          k = 0.4158 0.2004 0.3770 ( 17763 PWs)   bands (ev):

   -91.5951 -73.6372 -62.6536 -62.5653 -52.2344 -52.1963 -52.1723 -39.7493
   -39.7268 -39.7157 -27.1258 -27.0727 -26.9922 -26.9551 -26.8786 -26.8359
    -6.4500  -6.2895  -6.1424  -5.9965  -5.6985  -5.6370  -5.2728  -5.1299
     3.9516   4.0796   4.7598   4.9220   5.1877   5.3638   5.5637   5.7956
     6.0764   6.5593   6.6506   7.0167   7.2160   7.7132   7.9212   8.1198
     8.4381   8.6330   8.7926   9.0952   9.2980   9.5703   9.8213  10.0239
    10.1859  10.3949  10.4853  10.8062  11.0585  14.0481  14.4794  14.8406
    14.9763  15.3555  15.5449  15.8085  16.1471  16.3038  16.4728  16.6590
    19.1579  19.2106

     occupation numbers 
     1.0000   1.0000   1.0000   1.0000   1.0000   1.0000   1.0000   1.0000
     1.0000   1.0000   1.0000   1.0000   1.0000   1.0000   1.0000   1.0000
     1.0000   1.0000   1.0000   1.0000   1.0000   1.0000   1.0000   1.0000
     1.0000   1.0000   1.0000   1.0000   1.0000   1.0000   1.0000   1.0000
     1.0000   1.0000   1.0000   1.0000   1.0000   1.0000   1.0000   1.0000
     1.0000   1.0000   1.0000   1.0000   1.0000   1.0000   1.0000   1.0000
     1.0000   1.0000   1.0000   1.0000   1.0000   1.0635   0.1641   0.0012
     0.0001   0.0000   0.0000   0.0000   0.0000   0.0000   0.0000   0.0000
     0.0000   0.0000

          k = 0.4175 0.2004-0.3774 ( 17765 PWs)   bands (ev):

   -91.5951 -73.6372 -62.6535 -62.5653 -52.2344 -52.1963 -52.1723 -39.7493
   -39.7268 -39.7157 -27.1258 -27.0727 -26.9923 -26.9550 -26.8787 -26.8359
    -6.4415  -6.3059  -6.1600  -6.0149  -5.7459  -5.5371  -5.2603  -5.1403
     3.9805   4.0567   4.6754   4.9705   5.1595   5.4531   5.5306   5.7473
     6.0488   6.4528   6.7649   7.0226   7.1793   7.5758   7.9947   8.3216
     8.4107   8.5306   8.7739   9.1160   9.2511   9.5795   9.9205  10.0365
    10.2054  10.3983  10.5719  10.7619  11.0485  14.0243  14.5145  14.8802
    15.0388  15.3176  15.5291  15.8886  16.1705  16.2439  16.5036  16.6157
    18.9599  19.2687

     occupation numbers 
     1.0000   1.0000   1.0000   1.0000   1.0000   1.0000   1.0000   1.0000
     1.0000   1.0000   1.0000   1.0000   1.0000   1.0000   1.0000   1.0000
     1.0000   1.0000   1.0000   1.0000   1.0000   1.0000   1.0000   1.0000
     1.0000   1.0000   1.0000   1.0000   1.0000   1.0000   1.0000   1.0000
     1.0000   1.0000   1.0000   1.0000   1.0000   1.0000   1.0000   1.0000
     1.0000   1.0000   1.0000   1.0000   1.0000   1.0000   1.0000   1.0000
     1.0000   1.0000   1.0000   1.0000   1.0000   1.0752   0.1175   0.0006
     0.0000   0.0000   0.0000   0.0000   0.0000   0.0000   0.0000   0.0000
     0.0000   0.0000

          k = 0.4172 0.2004-0.2265 ( 17752 PWs)   bands (ev):

   -91.5951 -73.6371 -62.6537 -62.5651 -52.2344 -52.1963 -52.1723 -39.7493
   -39.7268 -39.7157 -27.1200 -27.0699 -26.9996 -26.9424 -26.8826 -26.8450
    -6.6640  -6.4146  -6.0856  -5.8919  -5.7076  -5.4780  -5.2411  -5.1079
     3.9764   4.0519   4.5776   4.9108   5.1592   5.5609   5.7428   5.8426
     6.1540   6.3853   6.6715   6.9595   7.2682   7.5543   7.8346   7.9934
     8.3911   8.8128   8.9046   9.0979   9.2571   9.5623   9.7262   9.9484
    10.1717  10.4428  10.5735  10.9003  11.0452  14.0031  14.6292  14.7565
    15.0683  15.2351  15.7055  16.0124  16.1339  16.2056  16.4154  16.6457
    19.0526  19.5953

     occupation numbers 
     1.0000   1.0000   1.0000   1.0000   1.0000   1.0000   1.0000   1.0000
     1.0000   1.0000   1.0000   1.0000   1.0000   1.0000   1.0000   1.0000
     1.0000   1.0000   1.0000   1.0000   1.0000   1.0000   1.0000   1.0000
     1.0000   1.0000   1.0000   1.0000   1.0000   1.0000   1.0000   1.0000
     1.0000   1.0000   1.0000   1.0000   1.0000   1.0000   1.0000   1.0000
     1.0000   1.0000   1.0000   1.0000   1.0000   1.0000   1.0000   1.0000
     1.0000   1.0000   1.0000   1.0000   1.0000   1.0811   0.0318   0.0050
     0.0000   0.0000   0.0000   0.0000   0.0000   0.0000   0.0000   0.0000
     0.0000   0.0000

          k = 0.4168 0.2004-0.0757 ( 17739 PWs)   bands (ev):

   -91.5951 -73.6371 -62.6538 -62.5649 -52.2343 -52.1963 -52.1723 -39.7493
   -39.7268 -39.7157 -27.1120 -27.0700 -27.0050 -26.9278 -26.8867 -26.8571
    -6.8211  -6.4255  -6.1241  -5.8371  -5.5891  -5.4308  -5.3271  -5.0310
     3.9416   4.0683   4.5799   4.8199   5.1722   5.5219   5.6927   6.0733
     6.3985   6.6021   6.7643   6.9262   7.3605   7.5143   7.6192   8.0302
     8.1748   8.5153   8.8303   9.0343   9.1689   9.5626   9.7022   9.8667
    10.3064  10.4505  10.7472  10.8913  11.0635  14.1207  14.4531  14.7634
    15.0045  15.2464  15.7957  16.0262  16.1373  16.2288  16.3882  16.6328
    19.3578  19.7052

     occupation numbers 
     1.0000   1.0000   1.0000   1.0000   1.0000   1.0000   1.0000   1.0000
     1.0000   1.0000   1.0000   1.0000   1.0000   1.0000   1.0000   1.0000
     1.0000   1.0000   1.0000   1.0000   1.0000   1.0000   1.0000   1.0000
     1.0000   1.0000   1.0000   1.0000   1.0000   1.0000   1.0000   1.0000
     1.0000   1.0000   1.0000   1.0000   1.0000   1.0000   1.0000   1.0000
     1.0000   1.0000   1.0000   1.0000   1.0000   1.0000   1.0000   1.0000
     1.0000   1.0000   1.0000   1.0000   1.0000   0.9878   0.2065   0.0045
     0.0000   0.0000   0.0000   0.0000   0.0000   0.0000   0.0000   0.0000
     0.0000   0.0000

          k = 0.4165 0.3340 0.0752 ( 17764 PWs)   bands (ev):

   -91.5951 -73.6371 -62.6538 -62.5651 -52.2343 -52.1963 -52.1723 -39.7493
   -39.7268 -39.7157 -27.1114 -27.0690 -27.0046 -26.9284 -26.8877 -26.8576
    -6.7207  -6.5224  -6.0792  -5.8645  -5.7192  -5.4378  -5.2609  -4.9763
     3.8415   3.9827   4.5003   4.8047   5.1579   5.6449   5.8370   6.2017
     6.4954   6.7116   6.8860   7.1720   7.3453   7.4181   7.6276   7.9323
     8.3631   8.3788   8.7194   8.8182   9.1143   9.5130   9.6180  10.0182
    10.1879  10.4083  10.6140  10.8240  10.9392  14.0565  14.3216  14.9415
    14.9658  15.1814  15.7985  15.9904  16.1154  16.3127  16.3784  16.7090
    19.2469  19.9268

     occupation numbers 
     1.0000   1.0000   1.0000   1.0000   1.0000   1.0000   1.0000   1.0000
     1.0000   1.0000   1.0000   1.0000   1.0000   1.0000   1.0000   1.0000
     1.0000   1.0000   1.0000   1.0000   1.0000   1.0000   1.0000   1.0000
     1.0000   1.0000   1.0000   1.0000   1.0000   1.0000   1.0000   1.0000
     1.0000   1.0000   1.0000   1.0000   1.0000   1.0000   1.0000   1.0000
     1.0000   1.0000   1.0000   1.0000   1.0000   1.0000   1.0000   1.0000
     1.0000   1.0000   1.0000   1.0000   1.0000   1.0579   0.5090   0.0002
     0.0001   0.0000   0.0000   0.0000   0.0000   0.0000   0.0000   0.0000
     0.0000   0.0000

          k = 0.4161 0.3340 0.2261 ( 17755 PWs)   bands (ev):

   -91.5951 -73.6371 -62.6536 -62.5652 -52.2344 -52.1963 -52.1723 -39.7493
   -39.7268 -39.7157 -27.1206 -27.0696 -26.9991 -26.9429 -26.8827 -26.8446
    -6.5982  -6.4722  -5.9903  -5.9523  -5.7860  -5.5257  -5.2065  -5.0605
     3.8490   4.0058   4.5621   4.8447   5.1835   5.5781   5.7633   6.0763
     6.1851   6.5636   6.8576   7.0123   7.2361   7.6552   7.8958   8.1331
     8.4646   8.7252   8.8143   8.9447   9.1758   9.4560   9.6120   9.9763
    10.1191  10.2036  10.5180  10.7343  10.9967  13.9470  14.4998  14.8076
    14.9710  15.1761  15.6239  15.8955  16.1465  16.3434  16.4270  16.7454
    19.2091  19.5711

     occupation numbers 
     1.0000   1.0000   1.0000   1.0000   1.0000   1.0000   1.0000   1.0000
     1.0000   1.0000   1.0000   1.0000   1.0000   1.0000   1.0000   1.0000
     1.0000   1.0000   1.0000   1.0000   1.0000   1.0000   1.0000   1.0000
     1.0000   1.0000   1.0000   1.0000   1.0000   1.0000   1.0000   1.0000
     1.0000   1.0000   1.0000   1.0000   1.0000   1.0000   1.0000   1.0000
     1.0000   1.0000   1.0000   1.0000   1.0000   1.0000   1.0000   1.0000
     1.0000   1.0000   1.0000   1.0000   1.0000   1.0805   0.1357   0.0021
     0.0001   0.0000   0.0000   0.0000   0.0000   0.0000   0.0000   0.0000
     0.0000   0.0000

          k = 0.4158 0.3340 0.3770 ( 17766 PWs)   bands (ev):

   -91.5951 -73.6372 -62.6535 -62.5654 -52.2344 -52.1963 -52.1723 -39.7493
   -39.7268 -39.7157 -27.1272 -27.0736 -26.9920 -26.9547 -26.8778 -26.8347
    -6.4533  -6.3582  -6.1446  -6.0546  -5.6223  -5.5287  -5.3095  -5.1225
     3.8542   4.0041   4.6494   4.8521   5.1418   5.5238   5.6324   5.8226
     6.2498   6.4761   6.7659   7.0524   7.3086   7.7038   7.8798   8.2842
     8.5363   8.8375   8.9062   9.0883   9.2608   9.3929   9.7201   9.8911
    10.0702  10.3133  10.4156  10.6043  11.0084  13.9879  14.3768  14.8802
    14.9514  15.3230  15.4603  15.7938  16.1378  16.3303  16.5404  16.7328
    19.1309  19.1676

     occupation numbers 
     1.0000   1.0000   1.0000   1.0000   1.0000   1.0000   1.0000   1.0000
     1.0000   1.0000   1.0000   1.0000   1.0000   1.0000   1.0000   1.0000
     1.0000   1.0000   1.0000   1.0000   1.0000   1.0000   1.0000   1.0000
     1.0000   1.0000   1.0000   1.0000   1.0000   1.0000   1.0000   1.0000
     1.0000   1.0000   1.0000   1.0000   1.0000   1.0000   1.0000   1.0000
     1.0000   1.0000   1.0000   1.0000   1.0000   1.0000   1.0000   1.0000
     1.0000   1.0000   1.0000   1.0000   1.0000   1.0830   0.3664   0.0006
     0.0001   0.0000   0.0000   0.0000   0.0000   0.0000   0.0000   0.0000
     0.0000   0.0000

          k = 0.4175 0.3340-0.3774 ( 17765 PWs)   bands (ev):

   -91.5951 -73.6372 -62.6534 -62.5654 -52.2344 -52.1963 -52.1723 -39.7493
   -39.7268 -39.7157 -27.1272 -27.0736 -26.9921 -26.9546 -26.8778 -26.8347
    -6.4986  -6.3558  -6.1180  -6.0576  -5.6147  -5.4922  -5.3100  -5.1374
     3.8577   3.9970   4.5654   4.9139   5.0387   5.6125   5.6474   5.8334
     6.2550   6.4349   6.8665   7.0739   7.2239   7.4754   8.0840   8.3949
     8.4637   8.6280   8.9362   9.1321   9.2587   9.4351   9.7058   9.9039
    10.0795  10.3250  10.5313  10.6542  10.9312  13.9496  14.4339  14.8770
    15.1033  15.1917  15.6229  15.8114  16.1638  16.2440  16.6011  16.6457
    18.8764  19.2970

     occupation numbers 
     1.0000   1.0000   1.0000   1.0000   1.0000   1.0000   1.0000   1.0000
     1.0000   1.0000   1.0000   1.0000   1.0000   1.0000   1.0000   1.0000
     1.0000   1.0000   1.0000   1.0000   1.0000   1.0000   1.0000   1.0000
     1.0000   1.0000   1.0000   1.0000   1.0000   1.0000   1.0000   1.0000
     1.0000   1.0000   1.0000   1.0000   1.0000   1.0000   1.0000   1.0000
     1.0000   1.0000   1.0000   1.0000   1.0000   1.0000   1.0000   1.0000
     1.0000   1.0000   1.0000   1.0000   1.0000   1.0809   0.2418   0.0006
     0.0000   0.0000   0.0000   0.0000   0.0000   0.0000   0.0000   0.0000
     0.0000   0.0000

          k = 0.4172 0.3340-0.2265 ( 17753 PWs)   bands (ev):

   -91.5951 -73.6371 -62.6536 -62.5652 -52.2343 -52.1963 -52.1723 -39.7493
   -39.7268 -39.7157 -27.1206 -27.0695 -26.9993 -26.9426 -26.8829 -26.8445
    -6.6168  -6.5047  -6.0748  -5.9230  -5.6377  -5.5045  -5.2389  -5.0730
     3.8537   4.0002   4.4623   4.9087   5.0148   5.7003   5.8124   5.9754
     6.3098   6.5443   6.7871   7.0417   7.2875   7.5338   7.8460   8.0934
     8.3541   8.7236   8.9109   9.0139   9.2575   9.4083   9.6273   9.9955
    10.0713  10.3775  10.4965  10.8418  10.9311  13.9043  14.6155  14.7378
    15.0547  15.2443  15.8257  15.9614  16.1574  16.1972  16.5180  16.6178
    18.8896  19.6358

     occupation numbers 
     1.0000   1.0000   1.0000   1.0000   1.0000   1.0000   1.0000   1.0000
     1.0000   1.0000   1.0000   1.0000   1.0000   1.0000   1.0000   1.0000
     1.0000   1.0000   1.0000   1.0000   1.0000   1.0000   1.0000   1.0000
     1.0000   1.0000   1.0000   1.0000   1.0000   1.0000   1.0000   1.0000
     1.0000   1.0000   1.0000   1.0000   1.0000   1.0000   1.0000   1.0000
     1.0000   1.0000   1.0000   1.0000   1.0000   1.0000   1.0000   1.0000
     1.0000   1.0000   1.0000   1.0000   1.0000   1.0700   0.0378   0.0068
     0.0000   0.0000   0.0000   0.0000   0.0000   0.0000   0.0000   0.0000
     0.0000   0.0000

          k = 0.4168 0.3340-0.0757 ( 17754 PWs)   bands (ev):

   -91.5951 -73.6371 -62.6537 -62.5651 -52.2343 -52.1963 -52.1723 -39.7493
   -39.7268 -39.7157 -27.1114 -27.0689 -27.0047 -26.9282 -26.8879 -26.8576
    -6.7225  -6.5388  -6.1287  -5.8530  -5.6218  -5.4375  -5.2852  -4.9844
     3.8429   3.9832   4.4683   4.8123   5.0985   5.6510   5.8499   6.2773
     6.4851   6.6868   6.9382   7.0660   7.2306   7.5340   7.6437   7.9275
     8.1469   8.4380   8.8190   8.9161   9.1180   9.4367   9.7292   9.9520
    10.2350  10.4110  10.5860  10.8258  10.9910  14.0184  14.4168  14.8032
    14.9836  15.3177  15.8460  16.0458  16.1230  16.2679  16.4524  16.6185
    19.0908  19.9369

     occupation numbers 
     1.0000   1.0000   1.0000   1.0000   1.0000   1.0000   1.0000   1.0000
     1.0000   1.0000   1.0000   1.0000   1.0000   1.0000   1.0000   1.0000
     1.0000   1.0000   1.0000   1.0000   1.0000   1.0000   1.0000   1.0000
     1.0000   1.0000   1.0000   1.0000   1.0000   1.0000   1.0000   1.0000
     1.0000   1.0000   1.0000   1.0000   1.0000   1.0000   1.0000   1.0000
     1.0000   1.0000   1.0000   1.0000   1.0000   1.0000   1.0000   1.0000
     1.0000   1.0000   1.0000   1.0000   1.0000   1.0773   0.2760   0.0023
     0.0001   0.0000   0.0000   0.0000   0.0000   0.0000   0.0000   0.0000
     0.0000   0.0000

 ------ SPIN DOWN ----------


          k = 0.0832 0.0668 0.0754 ( 17752 PWs)   bands (ev):

   -89.6556 -78.0841 -62.5407 -62.4146 -50.1355 -50.1140 -50.1020 -44.4211
   -44.3422 -44.3127 -26.9283 -26.9103 -26.8747 -26.7788 -26.6848 -26.6524
    -7.4919  -6.2055  -5.8758  -5.8320  -5.6220  -5.5748  -5.2742  -4.9230
     3.4172   3.5464   3.6959   3.8445   3.9872   4.6865   5.4336   5.6807
     5.9206   6.3388   6.5060   6.9231   7.1057   7.2131   7.4180   7.7424
     7.8595   8.1457   8.3210   8.5045   8.6732   9.0513   9.1521   9.3765
     9.7261   9.9400  10.1455  10.2305  10.6097  10.8022  11.0118  11.1349
    14.6621  14.9302  15.1228  15.4868  15.5505  16.0291  17.2523  17.4569
    18.6612  19.5731

     occupation numbers 
     1.0000   1.0000   1.0000   1.0000   1.0000   1.0000   1.0000   1.0000
     1.0000   1.0000   1.0000   1.0000   1.0000   1.0000   1.0000   1.0000
     1.0000   1.0000   1.0000   1.0000   1.0000   1.0000   1.0000   1.0000
     1.0000   1.0000   1.0000   1.0000   1.0000   1.0000   1.0000   1.0000
     1.0000   1.0000   1.0000   1.0000   1.0000   1.0000   1.0000   1.0000
     1.0000   1.0000   1.0000   1.0000   1.0000   1.0000   1.0000   1.0000
     1.0000   1.0000   1.0000   1.0000   1.0000   1.0000   1.0000   1.0000
     0.0205   0.0002   0.0000   0.0000   0.0000   0.0000   0.0000   0.0000
     0.0000   0.0000

          k = 0.0828 0.0668 0.2263 ( 17773 PWs)   bands (ev):

   -89.6557 -78.0841 -62.5405 -62.4148 -50.1354 -50.1140 -50.1020 -44.4211
   -44.3423 -44.3127 -26.9443 -26.8986 -26.8705 -26.7892 -26.6814 -26.6466
    -7.2828  -6.2481  -6.0199  -5.8196  -5.6340  -5.5474  -5.2921  -5.0076
     3.5321   3.5746   3.6670   3.7617   3.9648   4.7736   5.4507   5.6146
     6.0339   6.2853   6.6922   6.8371   7.1442   7.2817   7.3711   7.7004
     7.9760   8.1222   8.2567   8.5351   8.6961   8.8825   9.0298   9.4968
     9.5754   9.8963  10.0025  10.2907  10.5617  10.7905  11.0889  11.1798
    14.8387  14.9311  15.0996  15.3279  15.5148  15.9587  17.1023  17.3681
    19.2125  19.6945

     occupation numbers 
     1.0000   1.0000   1.0000   1.0000   1.0000   1.0000   1.0000   1.0000
     1.0000   1.0000   1.0000   1.0000   1.0000   1.0000   1.0000   1.0000
     1.0000   1.0000   1.0000   1.0000   1.0000   1.0000   1.0000   1.0000
     1.0000   1.0000   1.0000   1.0000   1.0000   1.0000   1.0000   1.0000
     1.0000   1.0000   1.0000   1.0000   1.0000   1.0000   1.0000   1.0000
     1.0000   1.0000   1.0000   1.0000   1.0000   1.0000   1.0000   1.0000
     1.0000   1.0000   1.0000   1.0000   1.0000   1.0000   1.0000   1.0000
     0.0012   0.0002   0.0000   0.0000   0.0000   0.0000   0.0000   0.0000
     0.0000   0.0000

          k = 0.0825 0.0668 0.3772 ( 17774 PWs)   bands (ev):

   -89.6557 -78.0841 -62.5403 -62.4150 -50.1354 -50.1140 -50.1020 -44.4211
   -44.3423 -44.3127 -26.9536 -26.8937 -26.8657 -26.7996 -26.6775 -26.6417
    -6.9105  -6.4265  -6.2434  -5.9191  -5.5666  -5.4578  -5.2860  -5.0787
     3.5041   3.6098   3.7092   3.7337   3.9172   4.7970   5.5313   5.6912
     6.1432   6.3288   6.5589   6.7894   7.1415   7.3077   7.5110   7.7089
     7.8884   8.0315   8.3392   8.3985   8.5341   8.7430   9.0969   9.2956
     9.6368   9.9378  10.1447  10.4361  10.6268  10.6950  11.1298  11.1768
    14.7782  14.8942  15.2148  15.3011  15.5868  15.8259  17.0218  17.1958
    19.4603  19.6435

     occupation numbers 
     1.0000   1.0000   1.0000   1.0000   1.0000   1.0000   1.0000   1.0000
     1.0000   1.0000   1.0000   1.0000   1.0000   1.0000   1.0000   1.0000
     1.0000   1.0000   1.0000   1.0000   1.0000   1.0000   1.0000   1.0000
     1.0000   1.0000   1.0000   1.0000   1.0000   1.0000   1.0000   1.0000
     1.0000   1.0000   1.0000   1.0000   1.0000   1.0000   1.0000   1.0000
     1.0000   1.0000   1.0000   1.0000   1.0000   1.0000   1.0000   1.0000
     1.0000   1.0000   1.0000   1.0000   1.0000   1.0000   1.0000   1.0000
     0.0035   0.0004   0.0000   0.0000   0.0000   0.0000   0.0000   0.0000
     0.0000   0.0000

          k = 0.0842 0.0668-0.3773 ( 17781 PWs)   bands (ev):

   -89.6557 -78.0841 -62.5403 -62.4149 -50.1354 -50.1140 -50.1020 -44.4211
   -44.3423 -44.3127 -26.9537 -26.8937 -26.8657 -26.7996 -26.6776 -26.6417
    -6.8849  -6.4724  -6.2476  -5.9610  -5.5009  -5.4310  -5.3302  -5.0488
     3.4770   3.6465   3.6917   3.7550   3.9021   4.7600   5.6061   5.7543
     6.0346   6.2958   6.4860   6.6086   7.1349   7.4058   7.5454   7.7771
     7.8906   8.0755   8.2676   8.4165   8.6110   8.7273   9.0755   9.2516
     9.6803   9.9417  10.2905  10.4362  10.5807  10.7773  11.0785  11.1618
    14.8087  14.8907  15.1238  15.4082  15.6101  15.8483  17.0546  17.1400
    19.3541  19.5640

     occupation numbers 
     1.0000   1.0000   1.0000   1.0000   1.0000   1.0000   1.0000   1.0000
     1.0000   1.0000   1.0000   1.0000   1.0000   1.0000   1.0000   1.0000
     1.0000   1.0000   1.0000   1.0000   1.0000   1.0000   1.0000   1.0000
     1.0000   1.0000   1.0000   1.0000   1.0000   1.0000   1.0000   1.0000
     1.0000   1.0000   1.0000   1.0000   1.0000   1.0000   1.0000   1.0000
     1.0000   1.0000   1.0000   1.0000   1.0000   1.0000   1.0000   1.0000
     1.0000   1.0000   1.0000   1.0000   1.0000   1.0000   1.0000   1.0000
     0.0021   0.0005   0.0000   0.0000   0.0000   0.0000   0.0000   0.0000
     0.0000   0.0000

          k = 0.0839 0.0668-0.2264 ( 17775 PWs)   bands (ev):

   -89.6557 -78.0841 -62.5406 -62.4148 -50.1354 -50.1140 -50.1020 -44.4211
   -44.3423 -44.3127 -26.9443 -26.8986 -26.8705 -26.7893 -26.6814 -26.6466
    -7.2687  -6.2758  -6.0790  -5.9144  -5.5607  -5.4547  -5.2824  -4.9923
     3.5013   3.5908   3.7300   3.7747   3.8828   4.7361   5.5527   5.7166
     5.8384   6.2423   6.4403   6.7642   7.1095   7.3063   7.4625   7.7115
     7.9189   8.1901   8.4404   8.5011   8.6830   8.9453   9.0269   9.3490
     9.6550   9.9568  10.2565  10.3868  10.5314  10.8397  11.0162  11.1092
    14.8890  14.9302  15.0141  15.4109  15.5978  16.0041  17.1440  17.2894
    19.2101  19.3454

     occupation numbers 
     1.0000   1.0000   1.0000   1.0000   1.0000   1.0000   1.0000   1.0000
     1.0000   1.0000   1.0000   1.0000   1.0000   1.0000   1.0000   1.0000
     1.0000   1.0000   1.0000   1.0000   1.0000   1.0000   1.0000   1.0000
     1.0000   1.0000   1.0000   1.0000   1.0000   1.0000   1.0000   1.0000
     1.0000   1.0000   1.0000   1.0000   1.0000   1.0000   1.0000   1.0000
     1.0000   1.0000   1.0000   1.0000   1.0000   1.0000   1.0000   1.0000
     1.0000   1.0000   1.0000   1.0000   1.0000   1.0000   1.0000   1.0000
     0.0005   0.0002   0.0000   0.0000   0.0000   0.0000   0.0000   0.0000
     0.0000   0.0000

          k = 0.0835 0.0668-0.0755 ( 17763 PWs)   bands (ev):

   -89.6556 -78.0841 -62.5407 -62.4146 -50.1355 -50.1140 -50.1020 -44.4211
   -44.3422 -44.3127 -26.9283 -26.9104 -26.8746 -26.7788 -26.6848 -26.6524
    -7.4873  -6.2160  -5.9416  -5.8474  -5.6344  -5.4771  -5.2606  -4.9232
     3.4203   3.5491   3.7175   3.8561   3.9298   4.6796   5.5168   5.6684
     5.8415   6.2592   6.4841   6.8939   7.0973   7.3051   7.4227   7.5668
     7.9183   8.0931   8.3432   8.5582   8.8477   8.9937   9.1671   9.2870
     9.7270  10.0889  10.1956  10.3839  10.4947  10.8296  10.9535  11.1038
    14.6917  14.8625  15.1673  15.4943  15.6107  16.0467  17.2683  17.4259
    18.6279  19.3546

     occupation numbers 
     1.0000   1.0000   1.0000   1.0000   1.0000   1.0000   1.0000   1.0000
     1.0000   1.0000   1.0000   1.0000   1.0000   1.0000   1.0000   1.0000
     1.0000   1.0000   1.0000   1.0000   1.0000   1.0000   1.0000   1.0000
     1.0000   1.0000   1.0000   1.0000   1.0000   1.0000   1.0000   1.0000
     1.0000   1.0000   1.0000   1.0000   1.0000   1.0000   1.0000   1.0000
     1.0000   1.0000   1.0000   1.0000   1.0000   1.0000   1.0000   1.0000
     1.0000   1.0000   1.0000   1.0000   1.0000   1.0000   1.0000   1.0000
     0.0135   0.0008   0.0000   0.0000   0.0000   0.0000   0.0000   0.0000
     0.0000   0.0000

          k = 0.0832 0.2004 0.0754 ( 17751 PWs)   bands (ev):

   -89.6556 -78.0841 -62.5407 -62.4146 -50.1355 -50.1140 -50.1020 -44.4211
   -44.3422 -44.3127 -26.9280 -26.9093 -26.8746 -26.7791 -26.6860 -26.6529
    -7.3429  -6.3133  -5.9909  -5.8449  -5.6649  -5.5253  -5.2875  -4.8765
     3.4884   3.6762   3.7425   3.8558   4.0015   4.9126   5.4349   5.7346
     5.9007   6.1704   6.3834   6.7904   6.9779   7.1368   7.3282   7.6270
     7.9157   8.1962   8.3639   8.5397   8.6375   9.0254   9.2039   9.4340
     9.5981  10.0618  10.1376  10.2335  10.5210  10.8216  10.9097  11.2448
    14.6839  14.9838  15.1755  15.4814  15.5922  15.9600  17.2392  17.4669
    19.1917  19.5678

     occupation numbers 
     1.0000   1.0000   1.0000   1.0000   1.0000   1.0000   1.0000   1.0000
     1.0000   1.0000   1.0000   1.0000   1.0000   1.0000   1.0000   1.0000
     1.0000   1.0000   1.0000   1.0000   1.0000   1.0000   1.0000   1.0000
     1.0000   1.0000   1.0000   1.0000   1.0000   1.0000   1.0000   1.0000
     1.0000   1.0000   1.0000   1.0000   1.0000   1.0000   1.0000   1.0000
     1.0000   1.0000   1.0000   1.0000   1.0000   1.0000   1.0000   1.0000
     1.0000   1.0000   1.0000   1.0000   1.0000   1.0000   1.0000   1.0000
     0.0152   0.0001   0.0000   0.0000   0.0000   0.0000   0.0000   0.0000
     0.0000   0.0000

          k = 0.0828 0.2004 0.2263 ( 17779 PWs)   bands (ev):

   -89.6557 -78.0841 -62.5404 -62.4148 -50.1354 -50.1140 -50.1020 -44.4211
   -44.3423 -44.3127 -26.9450 -26.8984 -26.8705 -26.7894 -26.6817 -26.6460
    -7.1462  -6.3188  -6.0271  -5.8493  -5.7290  -5.5409  -5.3127  -4.9788
     3.5908   3.6688   3.7651   3.7759   4.0098   4.9646   5.3547   5.7715
     6.0847   6.2560   6.5042   6.5930   7.0419   7.1693   7.2805   7.5670
     7.8820   8.1493   8.2301   8.7156   8.7819   8.8833   9.2061   9.3681
     9.5835   9.8365  10.0133  10.3376  10.4840  10.8347  10.9999  11.2214
    14.8667  14.9874  15.1027  15.4023  15.5315  15.8779  17.1019  17.3632
    19.4795  19.7302

     occupation numbers 
     1.0000   1.0000   1.0000   1.0000   1.0000   1.0000   1.0000   1.0000
     1.0000   1.0000   1.0000   1.0000   1.0000   1.0000   1.0000   1.0000
     1.0000   1.0000   1.0000   1.0000   1.0000   1.0000   1.0000   1.0000
     1.0000   1.0000   1.0000   1.0000   1.0000   1.0000   1.0000   1.0000
     1.0000   1.0000   1.0000   1.0000   1.0000   1.0000   1.0000   1.0000
     1.0000   1.0000   1.0000   1.0000   1.0000   1.0000   1.0000   1.0000
     1.0000   1.0000   1.0000   1.0000   1.0000   1.0000   1.0000   1.0000
     0.0007   0.0001   0.0000   0.0000   0.0000   0.0000   0.0000   0.0000
     0.0000   0.0000

          k = 0.0825 0.2004 0.3772 ( 17778 PWs)   bands (ev):

   -89.6557 -78.0841 -62.5403 -62.4150 -50.1354 -50.1140 -50.1020 -44.4211
   -44.3423 -44.3127 -26.9549 -26.8949 -26.8658 -26.7994 -26.6767 -26.6405
    -6.8034  -6.4466  -6.1527  -5.9516  -5.7121  -5.4669  -5.3328  -5.0802
     3.5773   3.6943   3.7463   3.8081   4.0090   4.9676   5.4422   5.7131
     6.1700   6.2835   6.4631   6.7003   6.8965   7.2003   7.5099   7.6222
     7.8864   8.0655   8.2383   8.5577   8.6463   8.7608   9.1846   9.3402
     9.4184   9.6977  10.1984  10.5088  10.5530  10.7578  11.1023  11.2075
    14.8304  14.9319  15.2889  15.4249  15.5263  15.7401  17.0283  17.1848
    19.4480  19.7210

     occupation numbers 
     1.0000   1.0000   1.0000   1.0000   1.0000   1.0000   1.0000   1.0000
     1.0000   1.0000   1.0000   1.0000   1.0000   1.0000   1.0000   1.0000
     1.0000   1.0000   1.0000   1.0000   1.0000   1.0000   1.0000   1.0000
     1.0000   1.0000   1.0000   1.0000   1.0000   1.0000   1.0000   1.0000
     1.0000   1.0000   1.0000   1.0000   1.0000   1.0000   1.0000   1.0000
     1.0000   1.0000   1.0000   1.0000   1.0000   1.0000   1.0000   1.0000
     1.0000   1.0000   1.0000   1.0000   1.0000   1.0000   1.0000   1.0000
     0.0014   0.0002   0.0000   0.0000   0.0000   0.0000   0.0000   0.0000
     0.0000   0.0000

          k = 0.0842 0.2004-0.3773 ( 17768 PWs)   bands (ev):

   -89.6557 -78.0841 -62.5403 -62.4150 -50.1354 -50.1140 -50.1020 -44.4211
   -44.3423 -44.3127 -26.9550 -26.8949 -26.8657 -26.7995 -26.6767 -26.6405
    -6.7967  -6.4468  -6.2080  -5.9669  -5.6094  -5.5209  -5.3187  -5.0684
     3.5776   3.6900   3.7050   3.8525   4.0023   4.9366   5.4877   5.7404
     6.0535   6.1968   6.4761   6.6376   7.0049   7.2525   7.4896   7.6134
     7.8386   8.1633   8.3549   8.4805   8.5634   8.7823   9.0891   9.3208
     9.4752   9.7755  10.3105  10.5195  10.5709  10.6418  11.1125  11.2435
    14.8905  14.9082  15.2218  15.4843  15.6009  15.7598  17.0452  17.1395
    19.4331  19.5498

     occupation numbers 
     1.0000   1.0000   1.0000   1.0000   1.0000   1.0000   1.0000   1.0000
     1.0000   1.0000   1.0000   1.0000   1.0000   1.0000   1.0000   1.0000
     1.0000   1.0000   1.0000   1.0000   1.0000   1.0000   1.0000   1.0000
     1.0000   1.0000   1.0000   1.0000   1.0000   1.0000   1.0000   1.0000
     1.0000   1.0000   1.0000   1.0000   1.0000   1.0000   1.0000   1.0000
     1.0000   1.0000   1.0000   1.0000   1.0000   1.0000   1.0000   1.0000
     1.0000   1.0000   1.0000   1.0000   1.0000   1.0000   1.0000   1.0000
     0.0005   0.0003   0.0000   0.0000   0.0000   0.0000   0.0000   0.0000
     0.0000   0.0000

          k = 0.0839 0.2004-0.2264 ( 17773 PWs)   bands (ev):

   -89.6557 -78.0841 -62.5405 -62.4148 -50.1354 -50.1140 -50.1020 -44.4211
   -44.3423 -44.3127 -26.9450 -26.8984 -26.8705 -26.7895 -26.6818 -26.6459
    -7.1404  -6.3423  -6.1176  -5.8653  -5.6259  -5.5057  -5.3147  -4.9700
     3.5715   3.6543   3.7330   3.8634   3.9667   4.9323   5.4275   5.7670
     5.9831   6.1411   6.3036   6.7465   7.0146   7.1271   7.4155   7.6222
     7.8271   8.1883   8.3547   8.5823   8.7162   8.8895   9.1650   9.4128
     9.6768   9.9369  10.1770  10.2626  10.5108  10.6786  11.0855  11.2594
    14.8834  15.0271  15.0980  15.3826  15.6954  15.9101  17.1381  17.2927
    19.2660  19.5918

     occupation numbers 
     1.0000   1.0000   1.0000   1.0000   1.0000   1.0000   1.0000   1.0000
     1.0000   1.0000   1.0000   1.0000   1.0000   1.0000   1.0000   1.0000
     1.0000   1.0000   1.0000   1.0000   1.0000   1.0000   1.0000   1.0000
     1.0000   1.0000   1.0000   1.0000   1.0000   1.0000   1.0000   1.0000
     1.0000   1.0000   1.0000   1.0000   1.0000   1.0000   1.0000   1.0000
     1.0000   1.0000   1.0000   1.0000   1.0000   1.0000   1.0000   1.0000
     1.0000   1.0000   1.0000   1.0000   1.0000   1.0000   1.0000   1.0000
     0.0005   0.0000   0.0000   0.0000   0.0000   0.0000   0.0000   0.0000
     0.0000   0.0000

          k = 0.0835 0.2004-0.0755 ( 17767 PWs)   bands (ev):

   -89.6556 -78.0841 -62.5407 -62.4146 -50.1355 -50.1140 -50.1020 -44.4211
   -44.3422 -44.3127 -26.9279 -26.9094 -26.8746 -26.7791 -26.6860 -26.6529
    -7.3408  -6.3279  -6.0480  -5.8140  -5.6518  -5.4950  -5.2811  -4.8774
     3.4780   3.6757   3.7482   3.8820   3.9699   4.8989   5.4961   5.6656
     5.9258   6.0679   6.3930   6.7164   7.0472   7.1425   7.3402   7.5974
     7.9105   8.2034   8.3561   8.5110   8.7031   9.0917   9.1605   9.4480
     9.6776  10.0162  10.1364  10.2632  10.5230  10.7962  10.9352  11.2650
    14.7108  14.9380  15.2115  15.4825  15.6695  15.9739  17.2636  17.4355
    19.0566  19.4005

     occupation numbers 
     1.0000   1.0000   1.0000   1.0000   1.0000   1.0000   1.0000   1.0000
     1.0000   1.0000   1.0000   1.0000   1.0000   1.0000   1.0000   1.0000
     1.0000   1.0000   1.0000   1.0000   1.0000   1.0000   1.0000   1.0000
     1.0000   1.0000   1.0000   1.0000   1.0000   1.0000   1.0000   1.0000
     1.0000   1.0000   1.0000   1.0000   1.0000   1.0000   1.0000   1.0000
     1.0000   1.0000   1.0000   1.0000   1.0000   1.0000   1.0000   1.0000
     1.0000   1.0000   1.0000   1.0000   1.0000   1.0000   1.0000   1.0000
     0.0102   0.0002   0.0000   0.0000   0.0000   0.0000   0.0000   0.0000
     0.0000   0.0000

          k = 0.0832 0.3340 0.0754 ( 17768 PWs)   bands (ev):

   -89.6556 -78.0841 -62.5406 -62.4146 -50.1355 -50.1140 -50.1020 -44.4211
   -44.3422 -44.3127 -26.9276 -26.9084 -26.8745 -26.7795 -26.6871 -26.6534
    -7.0875  -6.6248  -5.9725  -5.8376  -5.7047  -5.5052  -5.3291  -4.8312
     3.5875   3.7491   3.8206   3.9215   3.9972   5.2123   5.3299   5.7880
     5.8475   6.0999   6.2237   6.5453   6.9649   7.0474   7.3522   7.5475
     7.9585   8.1583   8.2769   8.5142   8.9047   9.0255   9.1855   9.2762
     9.5392   9.9779  10.0603  10.3171  10.5667  10.7850  10.9575  11.3553
    14.6548  15.1440  15.2083  15.4794  15.5800  15.9081  17.2172  17.4827
    19.3005  19.6046

     occupation numbers 
     1.0000   1.0000   1.0000   1.0000   1.0000   1.0000   1.0000   1.0000
     1.0000   1.0000   1.0000   1.0000   1.0000   1.0000   1.0000   1.0000
     1.0000   1.0000   1.0000   1.0000   1.0000   1.0000   1.0000   1.0000
     1.0000   1.0000   1.0000   1.0000   1.0000   1.0000   1.0000   1.0000
     1.0000   1.0000   1.0000   1.0000   1.0000   1.0000   1.0000   1.0000
     1.0000   1.0000   1.0000   1.0000   1.0000   1.0000   1.0000   1.0000
     1.0000   1.0000   1.0000   1.0000   1.0000   1.0000   1.0000   1.0000
     0.0227   0.0000   0.0000   0.0000   0.0000   0.0000   0.0000   0.0000
     0.0000   0.0000

          k = 0.0828 0.3340 0.2263 ( 17769 PWs)   bands (ev):

   -89.6557 -78.0841 -62.5404 -62.4148 -50.1354 -50.1140 -50.1020 -44.4211
   -44.3423 -44.3127 -26.9456 -26.8982 -26.8705 -26.7896 -26.6820 -26.6455
    -6.9144  -6.5349  -6.0058  -5.9123  -5.7296  -5.5345  -5.3710  -4.9506
     3.6690   3.7458   3.8229   3.8738   4.0291   5.0755   5.4850   5.7823
     6.0227   6.2603   6.3783   6.5246   6.8052   7.0453   7.2064   7.6119
     7.8075   8.0061   8.2122   8.5968   8.8681   9.0408   9.3500   9.4278
     9.5340   9.7290   9.9529  10.3866  10.5307  10.7589  10.9419  11.3241
    14.8318  15.0894  15.2424  15.3254  15.5215  15.8504  17.1033  17.3636
    19.1969  19.8507

     occupation numbers 
     1.0000   1.0000   1.0000   1.0000   1.0000   1.0000   1.0000   1.0000
     1.0000   1.0000   1.0000   1.0000   1.0000   1.0000   1.0000   1.0000
     1.0000   1.0000   1.0000   1.0000   1.0000   1.0000   1.0000   1.0000
     1.0000   1.0000   1.0000   1.0000   1.0000   1.0000   1.0000   1.0000
     1.0000   1.0000   1.0000   1.0000   1.0000   1.0000   1.0000   1.0000
     1.0000   1.0000   1.0000   1.0000   1.0000   1.0000   1.0000   1.0000
     1.0000   1.0000   1.0000   1.0000   1.0000   1.0000   1.0000   1.0000
     0.0014   0.0000   0.0000   0.0000   0.0000   0.0000   0.0000   0.0000
     0.0000   0.0000

          k = 0.0825 0.3340 0.3772 ( 17776 PWs)   bands (ev):

   -89.6558 -78.0841 -62.5402 -62.4150 -50.1354 -50.1140 -50.1020 -44.4211
   -44.3423 -44.3127 -26.9562 -26.8961 -26.8658 -26.7992 -26.6758 -26.6393
    -6.6499  -6.4720  -6.0824  -5.9791  -5.8094  -5.6102  -5.3188  -5.0811
     3.6645   3.7341   3.8437   3.9085   4.0462   5.1140   5.4916   5.7080
     6.0328   6.2044   6.4017   6.6903   6.8395   7.1378   7.4653   7.6122
     7.7724   7.9197   8.1998   8.4116   8.6920   8.9995   9.2066   9.3147
     9.4544   9.6043  10.1951  10.4710  10.5653  10.6779  11.1072  11.2939
    14.9288  14.9994  15.3397  15.3703  15.5053  15.7101  17.0580  17.1810
    19.2005  19.8494

     occupation numbers 
     1.0000   1.0000   1.0000   1.0000   1.0000   1.0000   1.0000   1.0000
     1.0000   1.0000   1.0000   1.0000   1.0000   1.0000   1.0000   1.0000
     1.0000   1.0000   1.0000   1.0000   1.0000   1.0000   1.0000   1.0000
     1.0000   1.0000   1.0000   1.0000   1.0000   1.0000   1.0000   1.0000
     1.0000   1.0000   1.0000   1.0000   1.0000   1.0000   1.0000   1.0000
     1.0000   1.0000   1.0000   1.0000   1.0000   1.0000   1.0000   1.0000
     1.0000   1.0000   1.0000   1.0000   1.0000   1.0000   1.0000   1.0000
     0.0002   0.0000   0.0000   0.0000   0.0000   0.0000   0.0000   0.0000
     0.0000   0.0000

          k = 0.0842 0.3340-0.3773 ( 17774 PWs)   bands (ev):

   -89.6558 -78.0841 -62.5403 -62.4150 -50.1354 -50.1140 -50.1020 -44.4211
   -44.3423 -44.3127 -26.9563 -26.8960 -26.8658 -26.7993 -26.6758 -26.6393
    -6.6594  -6.5027  -6.0674  -5.9269  -5.7882  -5.6858  -5.2795  -5.0839
     3.6853   3.7092   3.7980   3.9594   4.0256   5.1825   5.3232   5.6964
     6.0479   6.1319   6.5255   6.8026   7.0023   7.0685   7.3006   7.4272
     7.8412   8.0052   8.2061   8.4712   8.6010   9.0609   9.1216   9.2798
     9.4785   9.6669  10.3383  10.4346  10.5285  10.6120  11.1352  11.3217
    14.9600  15.0682  15.2709  15.3867  15.6167  15.6975  17.0505  17.1624
    19.3281  19.5872

     occupation numbers 
     1.0000   1.0000   1.0000   1.0000   1.0000   1.0000   1.0000   1.0000
     1.0000   1.0000   1.0000   1.0000   1.0000   1.0000   1.0000   1.0000
     1.0000   1.0000   1.0000   1.0000   1.0000   1.0000   1.0000   1.0000
     1.0000   1.0000   1.0000   1.0000   1.0000   1.0000   1.0000   1.0000
     1.0000   1.0000   1.0000   1.0000   1.0000   1.0000   1.0000   1.0000
     1.0000   1.0000   1.0000   1.0000   1.0000   1.0000   1.0000   1.0000
     1.0000   1.0000   1.0000   1.0000   1.0000   1.0000   1.0000   1.0000
     0.0001   0.0000   0.0000   0.0000   0.0000   0.0000   0.0000   0.0000
     0.0000   0.0000

          k = 0.0839 0.3340-0.2264 ( 17773 PWs)   bands (ev):

   -89.6557 -78.0841 -62.5405 -62.4148 -50.1354 -50.1140 -50.1020 -44.4211
   -44.3423 -44.3127 -26.9456 -26.8982 -26.8705 -26.7897 -26.6821 -26.6454
    -6.9198  -6.5819  -6.0174  -5.8238  -5.7396  -5.5656  -5.3380  -4.9490
     3.6656   3.7090   3.7995   3.8934   4.0404   5.1445   5.3331   5.6416
     6.1176   6.2290   6.3646   6.5480   7.0087   7.0613   7.2095   7.5122
     7.7065   8.0684   8.2613   8.5341   8.7207   9.0290   9.2614   9.5753
     9.6227   9.8700  10.1185  10.2680  10.4314  10.6658  11.0662  11.3518
    14.8858  15.1216  15.2457  15.3770  15.6820  15.8083  17.1392  17.3180
    19.3443  19.5465

     occupation numbers 
     1.0000   1.0000   1.0000   1.0000   1.0000   1.0000   1.0000   1.0000
     1.0000   1.0000   1.0000   1.0000   1.0000   1.0000   1.0000   1.0000
     1.0000   1.0000   1.0000   1.0000   1.0000   1.0000   1.0000   1.0000
     1.0000   1.0000   1.0000   1.0000   1.0000   1.0000   1.0000   1.0000
     1.0000   1.0000   1.0000   1.0000   1.0000   1.0000   1.0000   1.0000
     1.0000   1.0000   1.0000   1.0000   1.0000   1.0000   1.0000   1.0000
     1.0000   1.0000   1.0000   1.0000   1.0000   1.0000   1.0000   1.0000
     0.0005   0.0000   0.0000   0.0000   0.0000   0.0000   0.0000   0.0000
     0.0000   0.0000

          k = 0.0835 0.3340-0.0755 ( 17783 PWs)   bands (ev):

   -89.6556 -78.0841 -62.5406 -62.4146 -50.1355 -50.1140 -50.1020 -44.4211
   -44.3422 -44.3127 -26.9275 -26.9085 -26.8745 -26.7795 -26.6872 -26.6533
    -7.0887  -6.6420  -6.0096  -5.7774  -5.6832  -5.5408  -5.3077  -4.8344
     3.5743   3.7310   3.8323   3.9165   4.0106   5.2135   5.3496   5.6096
     5.8790   6.1545   6.2381   6.5658   6.9739   7.0717   7.3348   7.5368
     7.8561   8.2485   8.3244   8.4585   8.8001   9.0071   9.2063   9.4277
     9.5696  10.0073  10.0757  10.2480  10.6002  10.6875  11.0254  11.3744
    14.6828  15.1107  15.2329  15.5581  15.6034  15.9048  17.2526  17.4619
    19.3080  19.5371

     occupation numbers 
     1.0000   1.0000   1.0000   1.0000   1.0000   1.0000   1.0000   1.0000
     1.0000   1.0000   1.0000   1.0000   1.0000   1.0000   1.0000   1.0000
     1.0000   1.0000   1.0000   1.0000   1.0000   1.0000   1.0000   1.0000
     1.0000   1.0000   1.0000   1.0000   1.0000   1.0000   1.0000   1.0000
     1.0000   1.0000   1.0000   1.0000   1.0000   1.0000   1.0000   1.0000
     1.0000   1.0000   1.0000   1.0000   1.0000   1.0000   1.0000   1.0000
     1.0000   1.0000   1.0000   1.0000   1.0000   1.0000   1.0000   1.0000
     0.0154   0.0000   0.0000   0.0000   0.0000   0.0000   0.0000   0.0000
     0.0000   0.0000

          k = 0.2498 0.0668 0.0753 ( 17763 PWs)   bands (ev):

   -89.6556 -78.0841 -62.5406 -62.4147 -50.1355 -50.1140 -50.1020 -44.4211
   -44.3423 -44.3127 -26.9284 -26.9102 -26.8769 -26.7806 -26.6845 -26.6523
    -7.2838  -6.2242  -5.9562  -5.8452  -5.7307  -5.4739  -5.3394  -5.0318
     3.4977   3.6008   3.7800   3.8557   4.0771   4.9022   5.2634   5.6118
     6.0424   6.2577   6.5390   6.7643   7.0872   7.1889   7.3243   7.5943
     7.8180   7.9987   8.2087   8.5932   8.8446   9.1493   9.3765   9.4617
     9.7134   9.8405  10.0584  10.2501  10.5592  10.8831  10.9844  11.2423
    14.6995  14.9420  15.0269  15.3952  15.5436  16.0579  17.1736  17.4813
    19.3815  19.6194

     occupation numbers 
     1.0000   1.0000   1.0000   1.0000   1.0000   1.0000   1.0000   1.0000
     1.0000   1.0000   1.0000   1.0000   1.0000   1.0000   1.0000   1.0000
     1.0000   1.0000   1.0000   1.0000   1.0000   1.0000   1.0000   1.0000
     1.0000   1.0000   1.0000   1.0000   1.0000   1.0000   1.0000   1.0000
     1.0000   1.0000   1.0000   1.0000   1.0000   1.0000   1.0000   1.0000
     1.0000   1.0000   1.0000   1.0000   1.0000   1.0000   1.0000   1.0000
     1.0000   1.0000   1.0000   1.0000   1.0000   1.0000   1.0000   1.0000
     0.0121   0.0002   0.0000   0.0000   0.0000   0.0000   0.0000   0.0000
     0.0000   0.0000

          k = 0.2495 0.0668 0.2262 ( 17769 PWs)   bands (ev):

   -89.6557 -78.0841 -62.5404 -62.4150 -50.1354 -50.1140 -50.1020 -44.4211
   -44.3423 -44.3127 -26.9444 -26.8983 -26.8727 -26.7909 -26.6813 -26.6464
    -7.1010  -6.2301  -5.9477  -5.8260  -5.7555  -5.6600  -5.3295  -5.0767
     3.5688   3.6670   3.7509   3.8320   4.0278   4.9438   5.2908   5.5249
     6.2042   6.4341   6.4958   6.6881   6.9483   7.1003   7.2879   7.5867
     7.7775   8.0460   8.3601   8.6038   8.8324   9.0255   9.3127   9.4474
     9.8863   9.9486  10.0458  10.2243  10.3688  10.7314  11.1436  11.2270
    14.7688  14.9019  15.1473  15.2863  15.4831  15.9551  17.1267  17.4421
    19.5560  19.8378

     occupation numbers 
     1.0000   1.0000   1.0000   1.0000   1.0000   1.0000   1.0000   1.0000
     1.0000   1.0000   1.0000   1.0000   1.0000   1.0000   1.0000   1.0000
     1.0000   1.0000   1.0000   1.0000   1.0000   1.0000   1.0000   1.0000
     1.0000   1.0000   1.0000   1.0000   1.0000   1.0000   1.0000   1.0000
     1.0000   1.0000   1.0000   1.0000   1.0000   1.0000   1.0000   1.0000
     1.0000   1.0000   1.0000   1.0000   1.0000   1.0000   1.0000   1.0000
     1.0000   1.0000   1.0000   1.0000   1.0000   1.0000   1.0000   1.0000
     0.0041   0.0004   0.0000   0.0000   0.0000   0.0000   0.0000   0.0000
     0.0000   0.0000

          k = 0.2491 0.0668 0.3771 ( 17767 PWs)   bands (ev):

   -89.6557 -78.0841 -62.5402 -62.4152 -50.1354 -50.1140 -50.1020 -44.4211
   -44.3423 -44.3127 -26.9537 -26.8934 -26.8678 -26.8011 -26.6775 -26.6416
    -6.7726  -6.3169  -6.1786  -5.9225  -5.7625  -5.5999  -5.3141  -5.0747
     3.5954   3.6717   3.7588   3.8479   4.0263   4.8755   5.3724   5.5017
     6.1137   6.2322   6.5101   6.7437   6.9439   7.1788   7.3741   7.5536
     7.7809   8.1594   8.3180   8.5482   8.6935   8.9010   9.3373   9.3751
     9.8761   9.9658  10.2333  10.3262  10.4916  10.7672  11.1397  11.2341
    14.7874  14.9064  15.1187  15.2446  15.6406  15.8556  17.1259  17.3268
    19.3167  19.5709

     occupation numbers 
     1.0000   1.0000   1.0000   1.0000   1.0000   1.0000   1.0000   1.0000
     1.0000   1.0000   1.0000   1.0000   1.0000   1.0000   1.0000   1.0000
     1.0000   1.0000   1.0000   1.0000   1.0000   1.0000   1.0000   1.0000
     1.0000   1.0000   1.0000   1.0000   1.0000   1.0000   1.0000   1.0000
     1.0000   1.0000   1.0000   1.0000   1.0000   1.0000   1.0000   1.0000
     1.0000   1.0000   1.0000   1.0000   1.0000   1.0000   1.0000   1.0000
     1.0000   1.0000   1.0000   1.0000   1.0000   1.0000   1.0000   1.0000
     0.0030   0.0003   0.0000   0.0000   0.0000   0.0000   0.0000   0.0000
     0.0000   0.0000

          k = 0.2509 0.0668-0.3773 ( 17759 PWs)   bands (ev):

   -89.6557 -78.0841 -62.5403 -62.4151 -50.1354 -50.1140 -50.1020 -44.4211
   -44.3423 -44.3127 -26.9538 -26.8933 -26.8677 -26.8012 -26.6775 -26.6415
    -6.7060  -6.4070  -6.2259  -6.0102  -5.6836  -5.4954  -5.3841  -5.0056
     3.5336   3.6771   3.7761   3.8922   4.0401   4.8140   5.4561   5.5693
     5.9858   6.0685   6.3793   6.5660   6.8093   7.2763   7.5064   7.6688
     7.9833   8.0768   8.4114   8.5990   8.6852   8.9475   9.1806   9.3847
     9.7492  10.1261  10.2684  10.4149  10.5355  10.8290  11.0521  11.2898
    14.7975  14.8817  15.1097  15.3676  15.7076  15.8735  17.0599  17.3532
    19.0448  19.3449

     occupation numbers 
     1.0000   1.0000   1.0000   1.0000   1.0000   1.0000   1.0000   1.0000
     1.0000   1.0000   1.0000   1.0000   1.0000   1.0000   1.0000   1.0000
     1.0000   1.0000   1.0000   1.0000   1.0000   1.0000   1.0000   1.0000
     1.0000   1.0000   1.0000   1.0000   1.0000   1.0000   1.0000   1.0000
     1.0000   1.0000   1.0000   1.0000   1.0000   1.0000   1.0000   1.0000
     1.0000   1.0000   1.0000   1.0000   1.0000   1.0000   1.0000   1.0000
     1.0000   1.0000   1.0000   1.0000   1.0000   1.0000   1.0000   1.0000
     0.0025   0.0005   0.0000   0.0000   0.0000   0.0000   0.0000   0.0000
     0.0000   0.0000

          k = 0.2505 0.0668-0.2265 ( 17769 PWs)   bands (ev):

   -89.6557 -78.0841 -62.5405 -62.4148 -50.1354 -50.1140 -50.1020 -44.4211
   -44.3423 -44.3127 -26.9445 -26.8983 -26.8726 -26.7910 -26.6814 -26.6463
    -7.0616  -6.2820  -6.1459  -5.9578  -5.5974  -5.4684  -5.3854  -4.9805
     3.5122   3.6636   3.7818   3.8699   4.0219   4.8623   5.5165   5.6117
     5.8686   6.1187   6.3046   6.4530   6.6854   7.2362   7.4672   7.6061
     7.9560   8.3306   8.5546   8.6579   8.8936   9.0089   9.2583   9.3814
     9.6532  10.0385  10.2430  10.3335  10.5373  10.8413  10.9333  11.3429
    14.7426  14.9751  15.0725  15.4142  15.6686  16.0313  17.0204  17.4875
    18.9741  19.4095

     occupation numbers 
     1.0000   1.0000   1.0000   1.0000   1.0000   1.0000   1.0000   1.0000
     1.0000   1.0000   1.0000   1.0000   1.0000   1.0000   1.0000   1.0000
     1.0000   1.0000   1.0000   1.0000   1.0000   1.0000   1.0000   1.0000
     1.0000   1.0000   1.0000   1.0000   1.0000   1.0000   1.0000   1.0000
     1.0000   1.0000   1.0000   1.0000   1.0000   1.0000   1.0000   1.0000
     1.0000   1.0000   1.0000   1.0000   1.0000   1.0000   1.0000   1.0000
     1.0000   1.0000   1.0000   1.0000   1.0000   1.0000   1.0000   1.0000
     0.0063   0.0001   0.0000   0.0000   0.0000   0.0000   0.0000   0.0000
     0.0000   0.0000

          k = 0.2502 0.0668-0.0756 ( 17754 PWs)   bands (ev):

   -89.6556 -78.0841 -62.5407 -62.4146 -50.1355 -50.1140 -50.1020 -44.4211
   -44.3423 -44.3127 -26.9283 -26.9103 -26.8768 -26.7806 -26.6845 -26.6523
    -7.2707  -6.2475  -6.0649  -5.8843  -5.6476  -5.3989  -5.3467  -5.0011
     3.4947   3.6010   3.7827   3.8625   4.0572   4.8789   5.3855   5.5848
     5.9491   6.1307   6.5242   6.5865   6.8982   7.2450   7.3000   7.6291
     7.7886   8.2237   8.3290   8.8200   8.8670   9.0911   9.2438   9.4189
     9.8009   9.8775  10.1436  10.3437  10.4890  10.8925  10.9346  11.2984
    14.7363  14.8314  15.1180  15.4334  15.6205  16.1082  17.1131  17.5197
    19.1815  19.3480

     occupation numbers 
     1.0000   1.0000   1.0000   1.0000   1.0000   1.0000   1.0000   1.0000
     1.0000   1.0000   1.0000   1.0000   1.0000   1.0000   1.0000   1.0000
     1.0000   1.0000   1.0000   1.0000   1.0000   1.0000   1.0000   1.0000
     1.0000   1.0000   1.0000   1.0000   1.0000   1.0000   1.0000   1.0000
     1.0000   1.0000   1.0000   1.0000   1.0000   1.0000   1.0000   1.0000
     1.0000   1.0000   1.0000   1.0000   1.0000   1.0000   1.0000   1.0000
     1.0000   1.0000   1.0000   1.0000   1.0000   1.0000   1.0000   1.0000
     0.0069   0.0014   0.0000   0.0000   0.0000   0.0000   0.0000   0.0000
     0.0000   0.0000

          k = 0.2498 0.2004 0.0753 ( 17761 PWs)   bands (ev):

   -89.6556 -78.0841 -62.5407 -62.4146 -50.1355 -50.1140 -50.1020 -44.4211
   -44.3423 -44.3127 -26.9279 -26.9091 -26.8767 -26.7810 -26.6857 -26.6528
    -7.1625  -6.3498  -6.0274  -5.8577  -5.7240  -5.5001  -5.3048  -4.9727
     3.4738   3.6835   3.7752   3.8504   4.0418   5.0692   5.2900   5.5812
     6.0351   6.3164   6.5201   6.7461   6.9675   7.2380   7.3425   7.6137
     7.8041   8.0174   8.3689   8.4977   8.8530   9.0073   9.2974   9.4270
     9.5947   9.7819  10.0563  10.3434  10.5509  10.8506  10.9044  11.2184
    14.6962  15.0513  15.0819  15.3226  15.6192  16.0290  17.1302  17.5004
    19.5817  19.6564

     occupation numbers 
     1.0000   1.0000   1.0000   1.0000   1.0000   1.0000   1.0000   1.0000
     1.0000   1.0000   1.0000   1.0000   1.0000   1.0000   1.0000   1.0000
     1.0000   1.0000   1.0000   1.0000   1.0000   1.0000   1.0000   1.0000
     1.0000   1.0000   1.0000   1.0000   1.0000   1.0000   1.0000   1.0000
     1.0000   1.0000   1.0000   1.0000   1.0000   1.0000   1.0000   1.0000
     1.0000   1.0000   1.0000   1.0000   1.0000   1.0000   1.0000   1.0000
     1.0000   1.0000   1.0000   1.0000   1.0000   1.0000   1.0000   1.0000
     0.0127   0.0000   0.0000   0.0000   0.0000   0.0000   0.0000   0.0000
     0.0000   0.0000

          k = 0.2495 0.2004 0.2262 ( 17772 PWs)   bands (ev):

   -89.6557 -78.0841 -62.5405 -62.4149 -50.1354 -50.1140 -50.1020 -44.4211
   -44.3423 -44.3127 -26.9448 -26.8980 -26.8726 -26.7911 -26.6817 -26.6458
    -6.9892  -6.3268  -5.9854  -5.9098  -5.7855  -5.5856  -5.3115  -5.0454
     3.5300   3.7166   3.7768   3.8377   4.0295   5.0569   5.3417   5.5392
     6.1900   6.3329   6.5052   6.7240   6.9077   7.0910   7.1731   7.5710
     7.9720   8.0942   8.3404   8.6806   8.8934   8.9772   9.2447   9.4049
     9.6761   9.8432   9.9687  10.1921  10.4310  10.7871  11.0861  11.1957
    14.7318  14.9892  15.1156  15.3831  15.4653  15.9024  17.1168  17.4489
    19.5519  19.7423

     occupation numbers 
     1.0000   1.0000   1.0000   1.0000   1.0000   1.0000   1.0000   1.0000
     1.0000   1.0000   1.0000   1.0000   1.0000   1.0000   1.0000   1.0000
     1.0000   1.0000   1.0000   1.0000   1.0000   1.0000   1.0000   1.0000
     1.0000   1.0000   1.0000   1.0000   1.0000   1.0000   1.0000   1.0000
     1.0000   1.0000   1.0000   1.0000   1.0000   1.0000   1.0000   1.0000
     1.0000   1.0000   1.0000   1.0000   1.0000   1.0000   1.0000   1.0000
     1.0000   1.0000   1.0000   1.0000   1.0000   1.0000   1.0000   1.0000
     0.0074   0.0001   0.0000   0.0000   0.0000   0.0000   0.0000   0.0000
     0.0000   0.0000

          k = 0.2491 0.2004 0.3771 ( 17779 PWs)   bands (ev):

   -89.6557 -78.0841 -62.5403 -62.4152 -50.1354 -50.1140 -50.1020 -44.4211
   -44.3423 -44.3127 -26.9548 -26.8946 -26.8677 -26.8009 -26.6767 -26.6404
    -6.6882  -6.3970  -6.1368  -5.9663  -5.8136  -5.5307  -5.3228  -5.1020
     3.5440   3.6828   3.7766   3.8908   4.0696   5.0000   5.3193   5.5861
     5.9793   6.2889   6.4942   6.6969   6.8832   7.1833   7.3606   7.8476
     7.9117   8.0037   8.2298   8.5428   8.8425   8.9920   9.2719   9.3821
     9.5621   9.7543  10.1802  10.3102  10.5323  10.6757  11.1445  11.2658
    14.7698  14.9320  15.2151  15.2680  15.6045  15.7834  17.1601  17.3178
    19.2979  19.6769

     occupation numbers 
     1.0000   1.0000   1.0000   1.0000   1.0000   1.0000   1.0000   1.0000
     1.0000   1.0000   1.0000   1.0000   1.0000   1.0000   1.0000   1.0000
     1.0000   1.0000   1.0000   1.0000   1.0000   1.0000   1.0000   1.0000
     1.0000   1.0000   1.0000   1.0000   1.0000   1.0000   1.0000   1.0000
     1.0000   1.0000   1.0000   1.0000   1.0000   1.0000   1.0000   1.0000
     1.0000   1.0000   1.0000   1.0000   1.0000   1.0000   1.0000   1.0000
     1.0000   1.0000   1.0000   1.0000   1.0000   1.0000   1.0000   1.0000
     0.0040   0.0002   0.0000   0.0000   0.0000   0.0000   0.0000   0.0000
     0.0000   0.0000

          k = 0.2509 0.2004-0.3773 ( 17774 PWs)   bands (ev):

   -89.6557 -78.0841 -62.5403 -62.4151 -50.1354 -50.1140 -50.1020 -44.4211
   -44.3423 -44.3127 -26.9548 -26.8945 -26.8676 -26.8011 -26.6768 -26.6403
    -6.6777  -6.3653  -6.2802  -5.9740  -5.7285  -5.4984  -5.3535  -5.0588
     3.5382   3.6742   3.7543   3.9069   4.0682   4.9672   5.3343   5.6092
     5.8684   6.2182   6.4631   6.6660   6.8130   7.2669   7.5024   7.7829
     7.8404   8.1343   8.3285   8.5592   8.7204   8.9557   9.1974   9.3800
     9.5847   9.8993  10.2543  10.3481  10.4719  10.6902  11.1409  11.3305
    14.8410  14.9772  15.0649  15.4169  15.6683  15.8532  17.0836  17.3461
    19.1176  19.5089

     occupation numbers 
     1.0000   1.0000   1.0000   1.0000   1.0000   1.0000   1.0000   1.0000
     1.0000   1.0000   1.0000   1.0000   1.0000   1.0000   1.0000   1.0000
     1.0000   1.0000   1.0000   1.0000   1.0000   1.0000   1.0000   1.0000
     1.0000   1.0000   1.0000   1.0000   1.0000   1.0000   1.0000   1.0000
     1.0000   1.0000   1.0000   1.0000   1.0000   1.0000   1.0000   1.0000
     1.0000   1.0000   1.0000   1.0000   1.0000   1.0000   1.0000   1.0000
     1.0000   1.0000   1.0000   1.0000   1.0000   1.0000   1.0000   1.0000
     0.0012   0.0001   0.0000   0.0000   0.0000   0.0000   0.0000   0.0000
     0.0000   0.0000

          k = 0.2505 0.2004-0.2265 ( 17770 PWs)   bands (ev):

   -89.6557 -78.0841 -62.5406 -62.4148 -50.1354 -50.1140 -50.1020 -44.4211
   -44.3423 -44.3127 -26.9449 -26.8980 -26.8724 -26.7913 -26.6818 -26.6457
    -6.9737  -6.3823  -6.1605  -5.9138  -5.6439  -5.4601  -5.3644  -4.9991
     3.5165   3.7007   3.7509   3.8768   3.9946   5.0140   5.3762   5.6204
     5.9198   6.2002   6.3743   6.5488   6.8542   7.1553   7.5108   7.7492
     7.8264   8.2168   8.3615   8.5504   8.8365   8.9871   9.2504   9.5001
     9.7562   9.8296  10.1182  10.2733  10.4267  10.7346  11.0871  11.3290
    14.8480  14.9248  15.1628  15.3543  15.7692  15.9945  17.0398  17.4686
    19.1116  19.5013

     occupation numbers 
     1.0000   1.0000   1.0000   1.0000   1.0000   1.0000   1.0000   1.0000
     1.0000   1.0000   1.0000   1.0000   1.0000   1.0000   1.0000   1.0000
     1.0000   1.0000   1.0000   1.0000   1.0000   1.0000   1.0000   1.0000
     1.0000   1.0000   1.0000   1.0000   1.0000   1.0000   1.0000   1.0000
     1.0000   1.0000   1.0000   1.0000   1.0000   1.0000   1.0000   1.0000
     1.0000   1.0000   1.0000   1.0000   1.0000   1.0000   1.0000   1.0000
     1.0000   1.0000   1.0000   1.0000   1.0000   1.0000   1.0000   1.0000
     0.0010   0.0002   0.0000   0.0000   0.0000   0.0000   0.0000   0.0000
     0.0000   0.0000

          k = 0.2502 0.2004-0.0756 ( 17762 PWs)   bands (ev):

   -89.6556 -78.0841 -62.5408 -62.4145 -50.1355 -50.1140 -50.1020 -44.4211
   -44.3423 -44.3127 -26.9278 -26.9093 -26.8766 -26.7809 -26.6857 -26.6528
    -7.1562  -6.3801  -6.1123  -5.8459  -5.6616  -5.4519  -5.3032  -4.9673
     3.4640   3.6827   3.7966   3.8416   4.0128   5.0618   5.2983   5.6013
     5.9320   6.2848   6.5231   6.5989   6.9396   7.2024   7.3869   7.5679
     7.9172   8.1507   8.3047   8.6612   8.7867   8.9812   9.1666   9.5472
     9.6665   9.7887  10.1526  10.3647  10.4540  10.8280  10.9432  11.2814
    14.7552  14.9503  15.1146  15.3918  15.7299  16.0780  17.1113  17.5104
    19.2749  19.5467

     occupation numbers 
     1.0000   1.0000   1.0000   1.0000   1.0000   1.0000   1.0000   1.0000
     1.0000   1.0000   1.0000   1.0000   1.0000   1.0000   1.0000   1.0000
     1.0000   1.0000   1.0000   1.0000   1.0000   1.0000   1.0000   1.0000
     1.0000   1.0000   1.0000   1.0000   1.0000   1.0000   1.0000   1.0000
     1.0000   1.0000   1.0000   1.0000   1.0000   1.0000   1.0000   1.0000
     1.0000   1.0000   1.0000   1.0000   1.0000   1.0000   1.0000   1.0000
     1.0000   1.0000   1.0000   1.0000   1.0000   1.0000   1.0000   1.0000
     0.0051   0.0001   0.0000   0.0000   0.0000   0.0000   0.0000   0.0000
     0.0000   0.0000

          k = 0.2498 0.3340 0.0753 ( 17755 PWs)   bands (ev):

   -89.6556 -78.0841 -62.5408 -62.4146 -50.1355 -50.1140 -50.1020 -44.4211
   -44.3423 -44.3127 -26.9273 -26.9080 -26.8765 -26.7813 -26.6868 -26.6534
    -6.9582  -6.5920  -6.0189  -5.8851  -5.7642  -5.4852  -5.2867  -4.9226
     3.5218   3.6706   3.8003   3.8496   4.0185   4.9814   5.4584   5.6931
     6.1411   6.3531   6.4808   6.6391   6.8422   7.1121   7.4644   7.7096
     7.8781   8.0418   8.4073   8.5184   8.7161   8.9530   9.0856   9.2794
     9.6089   9.7847  10.0675  10.3859  10.5692  10.7651  10.8425  11.2417
    14.7002  15.0783  15.1893  15.3616  15.6420  15.9437  17.0980  17.5257
    19.5665  19.6814

     occupation numbers 
     1.0000   1.0000   1.0000   1.0000   1.0000   1.0000   1.0000   1.0000
     1.0000   1.0000   1.0000   1.0000   1.0000   1.0000   1.0000   1.0000
     1.0000   1.0000   1.0000   1.0000   1.0000   1.0000   1.0000   1.0000
     1.0000   1.0000   1.0000   1.0000   1.0000   1.0000   1.0000   1.0000
     1.0000   1.0000   1.0000   1.0000   1.0000   1.0000   1.0000   1.0000
     1.0000   1.0000   1.0000   1.0000   1.0000   1.0000   1.0000   1.0000
     1.0000   1.0000   1.0000   1.0000   1.0000   1.0000   1.0000   1.0000
     0.0120   0.0000   0.0000   0.0000   0.0000   0.0000   0.0000   0.0000
     0.0000   0.0000

          k = 0.2495 0.3340 0.2262 ( 17772 PWs)   bands (ev):

   -89.6557 -78.0841 -62.5405 -62.4149 -50.1354 -50.1140 -50.1020 -44.4211
   -44.3423 -44.3127 -26.9452 -26.8978 -26.8724 -26.7913 -26.6820 -26.6453
    -6.8054  -6.4931  -6.0739  -5.9563  -5.7758  -5.5110  -5.3207  -5.0161
     3.5455   3.7493   3.7761   3.8516   4.0255   4.9856   5.4608   5.7269
     6.0827   6.2901   6.5471   6.6792   6.8707   7.0318   7.3082   7.6420
     7.8871   8.1264   8.3716   8.6098   8.8198   9.0761   9.1777   9.2752
     9.6188   9.7804   9.9446  10.2285  10.5000  10.7277  10.9730  11.2050
    14.7685  14.9545  15.2279  15.3517  15.4778  15.8499  17.1134  17.4564
    19.3120  19.7333

     occupation numbers 
     1.0000   1.0000   1.0000   1.0000   1.0000   1.0000   1.0000   1.0000
     1.0000   1.0000   1.0000   1.0000   1.0000   1.0000   1.0000   1.0000
     1.0000   1.0000   1.0000   1.0000   1.0000   1.0000   1.0000   1.0000
     1.0000   1.0000   1.0000   1.0000   1.0000   1.0000   1.0000   1.0000
     1.0000   1.0000   1.0000   1.0000   1.0000   1.0000   1.0000   1.0000
     1.0000   1.0000   1.0000   1.0000   1.0000   1.0000   1.0000   1.0000
     1.0000   1.0000   1.0000   1.0000   1.0000   1.0000   1.0000   1.0000
     0.0041   0.0001   0.0000   0.0000   0.0000   0.0000   0.0000   0.0000
     0.0000   0.0000

          k = 0.2491 0.3340 0.3771 ( 17782 PWs)   bands (ev):

   -89.6557 -78.0841 -62.5404 -62.4151 -50.1354 -50.1140 -50.1020 -44.4211
   -44.3423 -44.3127 -26.9558 -26.8957 -26.8677 -26.8007 -26.6759 -26.6392
    -6.5927  -6.3854  -6.1905  -6.1114  -5.7197  -5.4770  -5.3778  -5.1188
     3.5463   3.7191   3.7595   3.9542   4.0478   4.9756   5.3372   5.7460
     5.8809   6.3149   6.5173   6.7783   6.9087   7.1291   7.4591   7.7908
     7.8547   7.9119   8.2800   8.5744   8.8091   9.1168   9.2635   9.3562
     9.4228   9.5984  10.1652  10.2240  10.5398  10.6537  11.0263  11.3024
    14.8035  14.9572  15.2624  15.2971  15.5411  15.7416  17.1973  17.3155
    19.0484  19.6876

     occupation numbers 
     1.0000   1.0000   1.0000   1.0000   1.0000   1.0000   1.0000   1.0000
     1.0000   1.0000   1.0000   1.0000   1.0000   1.0000   1.0000   1.0000
     1.0000   1.0000   1.0000   1.0000   1.0000   1.0000   1.0000   1.0000
     1.0000   1.0000   1.0000   1.0000   1.0000   1.0000   1.0000   1.0000
     1.0000   1.0000   1.0000   1.0000   1.0000   1.0000   1.0000   1.0000
     1.0000   1.0000   1.0000   1.0000   1.0000   1.0000   1.0000   1.0000
     1.0000   1.0000   1.0000   1.0000   1.0000   1.0000   1.0000   1.0000
     0.0023   0.0001   0.0000   0.0000   0.0000   0.0000   0.0000   0.0000
     0.0000   0.0000

          k = 0.2509 0.3340-0.3773 ( 17781 PWs)   bands (ev):

   -89.6557 -78.0841 -62.5404 -62.4151 -50.1354 -50.1140 -50.1020 -44.4211
   -44.3423 -44.3127 -26.9558 -26.8956 -26.8676 -26.8009 -26.6760 -26.6390
    -6.6289  -6.4360  -6.1837  -6.0259  -5.6956  -5.5510  -5.3264  -5.1073
     3.5799   3.6770   3.7485   3.9421   4.0248   4.9591   5.2188   5.7877
     5.8724   6.3688   6.6114   6.8055   6.9449   7.1770   7.3773   7.4859
     7.7547   8.2391   8.3191   8.5752   8.7659   8.9643   9.2045   9.3841
     9.5221   9.6471  10.1493  10.3022  10.4736  10.6453  11.1195  11.3405
    14.8792  15.0103  15.1943  15.4018  15.6000  15.8262  17.1079  17.3553
    18.9166  19.6222

     occupation numbers 
     1.0000   1.0000   1.0000   1.0000   1.0000   1.0000   1.0000   1.0000
     1.0000   1.0000   1.0000   1.0000   1.0000   1.0000   1.0000   1.0000
     1.0000   1.0000   1.0000   1.0000   1.0000   1.0000   1.0000   1.0000
     1.0000   1.0000   1.0000   1.0000   1.0000   1.0000   1.0000   1.0000
     1.0000   1.0000   1.0000   1.0000   1.0000   1.0000   1.0000   1.0000
     1.0000   1.0000   1.0000   1.0000   1.0000   1.0000   1.0000   1.0000
     1.0000   1.0000   1.0000   1.0000   1.0000   1.0000   1.0000   1.0000
     0.0006   0.0000   0.0000   0.0000   0.0000   0.0000   0.0000   0.0000
     0.0000   0.0000

          k = 0.2505 0.3340-0.2265 ( 17766 PWs)   bands (ev):

   -89.6557 -78.0841 -62.5407 -62.4147 -50.1354 -50.1140 -50.1020 -44.4211
   -44.3423 -44.3127 -26.9453 -26.8978 -26.8723 -26.7915 -26.6822 -26.6451
    -6.8221  -6.5769  -6.0906  -5.9215  -5.6788  -5.4600  -5.3578  -5.0089
     3.5809   3.6778   3.7639   3.8503   3.9809   4.9785   5.2481   5.7956
     6.0457   6.3525   6.4638   6.7607   6.9244   7.0734   7.4611   7.5832
     7.8507   7.9787   8.2877   8.5805   8.7592   8.9498   9.2020   9.5430
     9.6934   9.9001   9.9394  10.2479  10.3847  10.6610  11.1523  11.2860
    14.8452  14.9832  15.2497  15.4094  15.7822  15.9264  17.0637  17.4640
    18.9860  19.6041

     occupation numbers 
     1.0000   1.0000   1.0000   1.0000   1.0000   1.0000   1.0000   1.0000
     1.0000   1.0000   1.0000   1.0000   1.0000   1.0000   1.0000   1.0000
     1.0000   1.0000   1.0000   1.0000   1.0000   1.0000   1.0000   1.0000
     1.0000   1.0000   1.0000   1.0000   1.0000   1.0000   1.0000   1.0000
     1.0000   1.0000   1.0000   1.0000   1.0000   1.0000   1.0000   1.0000
     1.0000   1.0000   1.0000   1.0000   1.0000   1.0000   1.0000   1.0000
     1.0000   1.0000   1.0000   1.0000   1.0000   1.0000   1.0000   1.0000
     0.0011   0.0001   0.0000   0.0000   0.0000   0.0000   0.0000   0.0000
     0.0000   0.0000

          k = 0.2502 0.3340-0.0756 ( 17766 PWs)   bands (ev):

   -89.6556 -78.0841 -62.5408 -62.4145 -50.1355 -50.1140 -50.1020 -44.4211
   -44.3423 -44.3127 -26.9272 -26.9082 -26.8764 -26.7813 -26.6869 -26.6533
    -6.9617  -6.6232  -6.0849  -5.8557  -5.6514  -5.5145  -5.2681  -4.9359
     3.5147   3.6561   3.8220   3.8462   3.9830   4.9973   5.3204   5.7375
     6.1218   6.3107   6.4801   6.7207   6.9252   7.0842   7.4103   7.6098
     7.8980   8.1338   8.3373   8.5747   8.6752   8.8907   9.1257   9.2992
     9.5988   9.8817  10.2142  10.3559  10.4264  10.6922  11.0131  11.2625
    14.7408  15.0498  15.1534  15.4643  15.7940  15.9696  17.1142  17.5189
    19.2686  19.6813

     occupation numbers 
     1.0000   1.0000   1.0000   1.0000   1.0000   1.0000   1.0000   1.0000
     1.0000   1.0000   1.0000   1.0000   1.0000   1.0000   1.0000   1.0000
     1.0000   1.0000   1.0000   1.0000   1.0000   1.0000   1.0000   1.0000
     1.0000   1.0000   1.0000   1.0000   1.0000   1.0000   1.0000   1.0000
     1.0000   1.0000   1.0000   1.0000   1.0000   1.0000   1.0000   1.0000
     1.0000   1.0000   1.0000   1.0000   1.0000   1.0000   1.0000   1.0000
     1.0000   1.0000   1.0000   1.0000   1.0000   1.0000   1.0000   1.0000
     0.0065   0.0000   0.0000   0.0000   0.0000   0.0000   0.0000   0.0000
     0.0000   0.0000

          k = 0.4165 0.0668 0.0752 ( 17743 PWs)   bands (ev):

   -89.6556 -78.0841 -62.5406 -62.4146 -50.1355 -50.1140 -50.1020 -44.4211
   -44.3423 -44.3127 -26.9284 -26.9101 -26.8791 -26.7824 -26.6841 -26.6522
    -6.9488  -6.3490  -6.1315  -5.8868  -5.7329  -5.4937  -5.3661  -5.0465
     3.6054   3.6657   3.8539   3.9017   4.0903   5.1048   5.2623   5.4183
     5.7680   6.3721   6.5511   6.8515   6.9575   7.1358   7.3449   7.4860
     7.8114   7.9246   8.2916   8.5537   8.9514   8.9791   9.2429   9.5026
     9.7200   9.8693   9.9593  10.4082  10.7603  11.0102  11.1166  11.2145
    14.7490  14.9278  14.9858  15.4065  15.5004  15.9969  17.2731  17.3704
    19.5497  19.8928

     occupation numbers 
     1.0000   1.0000   1.0000   1.0000   1.0000   1.0000   1.0000   1.0000
     1.0000   1.0000   1.0000   1.0000   1.0000   1.0000   1.0000   1.0000
     1.0000   1.0000   1.0000   1.0000   1.0000   1.0000   1.0000   1.0000
     1.0000   1.0000   1.0000   1.0000   1.0000   1.0000   1.0000   1.0000
     1.0000   1.0000   1.0000   1.0000   1.0000   1.0000   1.0000   1.0000
     1.0000   1.0000   1.0000   1.0000   1.0000   1.0000   1.0000   1.0000
     1.0000   1.0000   1.0000   1.0000   1.0000   1.0000   1.0000   1.0000
     0.0057   0.0002   0.0001   0.0000   0.0000   0.0000   0.0000   0.0000
     0.0000   0.0000

          k = 0.4161 0.0668 0.2261 ( 17748 PWs)   bands (ev):

   -89.6557 -78.0841 -62.5403 -62.4150 -50.1354 -50.1140 -50.1020 -44.4211
   -44.3423 -44.3127 -26.9445 -26.8980 -26.8748 -26.7926 -26.6813 -26.6461
    -6.7976  -6.2862  -6.0608  -5.9348  -5.8311  -5.5995  -5.4238  -5.0411
     3.6622   3.7229   3.8017   3.9366   4.0857   5.0799   5.2960   5.3863
     5.9040   6.2637   6.4522   6.6757   6.7898   7.0484   7.3215   7.4416
     7.7926   8.0205   8.3320   8.7263   9.0101   9.2146   9.4093   9.4960
     9.7916   9.9327  10.0880  10.1229  10.6968  10.8569  11.1214  11.2328
    14.6931  14.9406  15.1598  15.2652  15.5560  15.9534  17.3079  17.3400
    19.4601  19.7362

     occupation numbers 
     1.0000   1.0000   1.0000   1.0000   1.0000   1.0000   1.0000   1.0000
     1.0000   1.0000   1.0000   1.0000   1.0000   1.0000   1.0000   1.0000
     1.0000   1.0000   1.0000   1.0000   1.0000   1.0000   1.0000   1.0000
     1.0000   1.0000   1.0000   1.0000   1.0000   1.0000   1.0000   1.0000
     1.0000   1.0000   1.0000   1.0000   1.0000   1.0000   1.0000   1.0000
     1.0000   1.0000   1.0000   1.0000   1.0000   1.0000   1.0000   1.0000
     1.0000   1.0000   1.0000   1.0000   1.0000   1.0000   1.0000   1.0000
     0.0133   0.0002   0.0000   0.0000   0.0000   0.0000   0.0000   0.0000
     0.0000   0.0000

          k = 0.4158 0.0668 0.3770 ( 17764 PWs)   bands (ev):

   -89.6557 -78.0841 -62.5401 -62.4154 -50.1354 -50.1140 -50.1020 -44.4211
   -44.3423 -44.3127 -26.9538 -26.8930 -26.8698 -26.8027 -26.6775 -26.6414
    -6.5248  -6.2680  -6.0659  -5.9941  -5.9271  -5.7894  -5.3871  -5.0254
     3.6715   3.7096   3.8440   4.0158   4.1544   5.0104   5.2211   5.3286
     5.6617   6.2102   6.3474   6.6609   6.7578   7.1813   7.2787   7.6694
     7.9048   8.1873   8.3072   8.6246   8.7336   9.0208   9.4488   9.5997
     9.8560  10.0845  10.1865  10.3063  10.6648  10.7733  11.1663  11.2561
    14.7101  14.9726  15.0710  15.2482  15.7371  15.8909  17.2552  17.3854
    19.2307  19.3074

     occupation numbers 
     1.0000   1.0000   1.0000   1.0000   1.0000   1.0000   1.0000   1.0000
     1.0000   1.0000   1.0000   1.0000   1.0000   1.0000   1.0000   1.0000
     1.0000   1.0000   1.0000   1.0000   1.0000   1.0000   1.0000   1.0000
     1.0000   1.0000   1.0000   1.0000   1.0000   1.0000   1.0000   1.0000
     1.0000   1.0000   1.0000   1.0000   1.0000   1.0000   1.0000   1.0000
     1.0000   1.0000   1.0000   1.0000   1.0000   1.0000   1.0000   1.0000
     1.0000   1.0000   1.0000   1.0000   1.0000   1.0000   1.0000   1.0000
     0.0103   0.0001   0.0000   0.0000   0.0000   0.0000   0.0000   0.0000
     0.0000   0.0000

          k = 0.4175 0.0668-0.3774 ( 17759 PWs)   bands (ev):

   -89.6557 -78.0841 -62.5401 -62.4154 -50.1354 -50.1140 -50.1020 -44.4211
   -44.3423 -44.3127 -26.9539 -26.8930 -26.8697 -26.8028 -26.6775 -26.6413
    -6.4684  -6.2559  -6.2003  -6.0626  -5.9091  -5.6672  -5.4153  -4.9909
     3.6237   3.6982   3.8650   4.0827   4.1563   5.0221   5.1852   5.3887
     5.5385   6.1243   6.2917   6.5676   6.8757   7.0807   7.3723   7.7623
     7.9150   8.1688   8.3631   8.6814   8.7390   8.9983   9.4369   9.5537
     9.8759  10.0728  10.1853  10.3379  10.6569  10.7971  11.1791  11.3008
    14.6868  14.9655  15.1650  15.2450  15.7742  15.8880  17.1635  17.4659
    19.0084  19.2578

     occupation numbers 
     1.0000   1.0000   1.0000   1.0000   1.0000   1.0000   1.0000   1.0000
     1.0000   1.0000   1.0000   1.0000   1.0000   1.0000   1.0000   1.0000
     1.0000   1.0000   1.0000   1.0000   1.0000   1.0000   1.0000   1.0000
     1.0000   1.0000   1.0000   1.0000   1.0000   1.0000   1.0000   1.0000
     1.0000   1.0000   1.0000   1.0000   1.0000   1.0000   1.0000   1.0000
     1.0000   1.0000   1.0000   1.0000   1.0000   1.0000   1.0000   1.0000
     1.0000   1.0000   1.0000   1.0000   1.0000   1.0000   1.0000   1.0000
     0.0145   0.0001   0.0000   0.0000   0.0000   0.0000   0.0000   0.0000
     0.0000   0.0000

          k = 0.4172 0.0668-0.2265 ( 17754 PWs)   bands (ev):

   -89.6557 -78.0841 -62.5404 -62.4150 -50.1354 -50.1140 -50.1020 -44.4211
   -44.3423 -44.3127 -26.9446 -26.8980 -26.8747 -26.7927 -26.6813 -26.6461
    -6.7519  -6.3334  -6.1814  -5.9498  -5.7835  -5.5010  -5.4674  -4.9824
     3.5938   3.6997   3.8206   4.0180   4.1207   5.0200   5.2929   5.5181
     5.8029   6.0127   6.3445   6.5660   6.7265   7.0452   7.2825   7.5230
     8.0013   8.1897   8.4068   8.8441   9.0087   9.1822   9.4250   9.5302
     9.6955   9.8245  10.0468  10.2069  10.7020  10.8759  11.1197  11.3761
    14.6678  14.9852  15.1546  15.3115  15.6433  15.9898  17.1173  17.5102
    19.0650  19.5129

     occupation numbers 
     1.0000   1.0000   1.0000   1.0000   1.0000   1.0000   1.0000   1.0000
     1.0000   1.0000   1.0000   1.0000   1.0000   1.0000   1.0000   1.0000
     1.0000   1.0000   1.0000   1.0000   1.0000   1.0000   1.0000   1.0000
     1.0000   1.0000   1.0000   1.0000   1.0000   1.0000   1.0000   1.0000
     1.0000   1.0000   1.0000   1.0000   1.0000   1.0000   1.0000   1.0000
     1.0000   1.0000   1.0000   1.0000   1.0000   1.0000   1.0000   1.0000
     1.0000   1.0000   1.0000   1.0000   1.0000   1.0000   1.0000   1.0000
     0.0190   0.0001   0.0000   0.0000   0.0000   0.0000   0.0000   0.0000
     0.0000   0.0000

          k = 0.4168 0.0668-0.0757 ( 17741 PWs)   bands (ev):

   -89.6556 -78.0841 -62.5406 -62.4146 -50.1355 -50.1140 -50.1020 -44.4211
   -44.3423 -44.3127 -26.9284 -26.9102 -26.8790 -26.7824 -26.6841 -26.6522
    -6.9324  -6.3793  -6.1608  -5.9054  -5.6654  -5.5519  -5.3243  -5.0240
     3.5874   3.6573   3.8520   3.9256   4.1085   5.1167   5.2141   5.4011
     5.8902   6.2462   6.4775   6.6796   6.9661   7.1033   7.3473   7.4140
     7.8323   8.0947   8.5140   8.6709   8.8603   9.0847   9.2019   9.4552
     9.6638   9.8190   9.9682  10.4435  10.6894  10.9722  11.1391  11.3440
    14.7290  14.9370  15.0084  15.3967  15.5531  16.0325  17.1731  17.4605
    19.3335  19.7755

     occupation numbers 
     1.0000   1.0000   1.0000   1.0000   1.0000   1.0000   1.0000   1.0000
     1.0000   1.0000   1.0000   1.0000   1.0000   1.0000   1.0000   1.0000
     1.0000   1.0000   1.0000   1.0000   1.0000   1.0000   1.0000   1.0000
     1.0000   1.0000   1.0000   1.0000   1.0000   1.0000   1.0000   1.0000
     1.0000   1.0000   1.0000   1.0000   1.0000   1.0000   1.0000   1.0000
     1.0000   1.0000   1.0000   1.0000   1.0000   1.0000   1.0000   1.0000
     1.0000   1.0000   1.0000   1.0000   1.0000   1.0000   1.0000   1.0000
     0.0078   0.0002   0.0000   0.0000   0.0000   0.0000   0.0000   0.0000
     0.0000   0.0000

          k = 0.4165 0.2004 0.0752 ( 17742 PWs)   bands (ev):

   -89.6556 -78.0841 -62.5408 -62.4146 -50.1355 -50.1140 -50.1020 -44.4211
   -44.3423 -44.3127 -26.9278 -26.9089 -26.8787 -26.7828 -26.6854 -26.6528
    -6.8863  -6.4680  -6.1117  -5.9097  -5.7094  -5.4697  -5.3863  -4.9985
     3.5187   3.6276   3.7849   3.8688   4.0705   4.9142   5.3150   5.7383
     5.9919   6.4130   6.6391   6.8913   7.0675   7.2039   7.2811   7.5664
     7.7483   7.9980   8.2857   8.4983   8.7451   8.9920   9.1032   9.3603
     9.6944   9.8016  10.0523  10.3823  10.6741  10.9059  11.0425  11.1416
    14.7212  14.9505  15.0870  15.3569  15.5412  16.0646  17.2430  17.3849
    19.4605  19.7949

     occupation numbers 
     1.0000   1.0000   1.0000   1.0000   1.0000   1.0000   1.0000   1.0000
     1.0000   1.0000   1.0000   1.0000   1.0000   1.0000   1.0000   1.0000
     1.0000   1.0000   1.0000   1.0000   1.0000   1.0000   1.0000   1.0000
     1.0000   1.0000   1.0000   1.0000   1.0000   1.0000   1.0000   1.0000
     1.0000   1.0000   1.0000   1.0000   1.0000   1.0000   1.0000   1.0000
     1.0000   1.0000   1.0000   1.0000   1.0000   1.0000   1.0000   1.0000
     1.0000   1.0000   1.0000   1.0000   1.0000   1.0000   1.0000   1.0000
     0.0087   0.0001   0.0000   0.0000   0.0000   0.0000   0.0000   0.0000
     0.0000   0.0000

          k = 0.4161 0.2004 0.2261 ( 17754 PWs)   bands (ev):

   -89.6557 -78.0841 -62.5405 -62.4150 -50.1354 -50.1140 -50.1020 -44.4211
   -44.3423 -44.3127 -26.9447 -26.8977 -26.8745 -26.7928 -26.6818 -26.6455
    -6.7493  -6.4147  -6.0685  -5.9644  -5.7711  -5.5798  -5.3654  -5.0410
     3.5604   3.6878   3.7781   3.8455   4.0815   4.9678   5.3975   5.5432
     5.9862   6.3553   6.4620   6.7320   6.8900   7.0956   7.3110   7.6164
     7.8871   8.0931   8.3469   8.6986   8.9173   9.0688   9.2709   9.5254
     9.6296   9.7874  10.0521  10.1427  10.5871  10.8458  11.0241  11.1841
    14.6487  14.9839  15.1959  15.3091  15.4949  15.9698  17.3004  17.3589
    19.3113  19.6337

     occupation numbers 
     1.0000   1.0000   1.0000   1.0000   1.0000   1.0000   1.0000   1.0000
     1.0000   1.0000   1.0000   1.0000   1.0000   1.0000   1.0000   1.0000
     1.0000   1.0000   1.0000   1.0000   1.0000   1.0000   1.0000   1.0000
     1.0000   1.0000   1.0000   1.0000   1.0000   1.0000   1.0000   1.0000
     1.0000   1.0000   1.0000   1.0000   1.0000   1.0000   1.0000   1.0000
     1.0000   1.0000   1.0000   1.0000   1.0000   1.0000   1.0000   1.0000
     1.0000   1.0000   1.0000   1.0000   1.0000   1.0000   1.0000   1.0000
     0.0246   0.0001   0.0000   0.0000   0.0000   0.0000   0.0000   0.0000
     0.0000   0.0000

          k = 0.4158 0.2004 0.3770 ( 17763 PWs)   bands (ev):

   -89.6557 -78.0841 -62.5403 -62.4153 -50.1354 -50.1140 -50.1020 -44.4211
   -44.3423 -44.3127 -26.9546 -26.8942 -26.8696 -26.8025 -26.6767 -26.6402
    -6.5304  -6.3519  -6.1637  -6.0530  -5.7943  -5.6289  -5.3554  -5.0806
     3.5821   3.6751   3.7881   3.9077   4.1214   4.9955   5.2588   5.5071
     5.8262   6.1504   6.3716   6.6885   6.8513   7.2310   7.3802   7.8377
     7.9357   8.2116   8.3490   8.6000   8.7995   9.0049   9.3824   9.5149
     9.7396   9.9018  10.1487  10.2015  10.5584  10.6667  11.0488  11.2520
    14.6835  14.9490  15.1653  15.2655  15.6889  15.8367  17.2825  17.3896
    19.1695  19.2430

     occupation numbers 
     1.0000   1.0000   1.0000   1.0000   1.0000   1.0000   1.0000   1.0000
     1.0000   1.0000   1.0000   1.0000   1.0000   1.0000   1.0000   1.0000
     1.0000   1.0000   1.0000   1.0000   1.0000   1.0000   1.0000   1.0000
     1.0000   1.0000   1.0000   1.0000   1.0000   1.0000   1.0000   1.0000
     1.0000   1.0000   1.0000   1.0000   1.0000   1.0000   1.0000   1.0000
     1.0000   1.0000   1.0000   1.0000   1.0000   1.0000   1.0000   1.0000
     1.0000   1.0000   1.0000   1.0000   1.0000   1.0000   1.0000   1.0000
     0.0152   0.0001   0.0000   0.0000   0.0000   0.0000   0.0000   0.0000
     0.0000   0.0000

          k = 0.4175 0.2004-0.3774 ( 17765 PWs)   bands (ev):

   -89.6557 -78.0841 -62.5404 -62.4153 -50.1354 -50.1140 -50.1020 -44.4211
   -44.3423 -44.3127 -26.9546 -26.8941 -26.8696 -26.8026 -26.6768 -26.6401
    -6.5350  -6.3119  -6.2311  -6.0692  -5.7829  -5.5821  -5.3818  -5.0535
     3.5670   3.6693   3.8099   3.9159   4.0980   4.9635   5.2829   5.5570
     5.6910   6.1842   6.3824   6.6428   6.8899   7.1249   7.4898   7.8380
     7.9629   8.1063   8.4385   8.5981   8.8619   8.9571   9.3948   9.4764
     9.6977   9.9962  10.1044  10.2249  10.5446  10.7188  11.0577  11.2735
    14.7037  14.9554  15.1385  15.3431  15.6962  15.8789  17.2011  17.4542
    18.9663  19.3079

     occupation numbers 
     1.0000   1.0000   1.0000   1.0000   1.0000   1.0000   1.0000   1.0000
     1.0000   1.0000   1.0000   1.0000   1.0000   1.0000   1.0000   1.0000
     1.0000   1.0000   1.0000   1.0000   1.0000   1.0000   1.0000   1.0000
     1.0000   1.0000   1.0000   1.0000   1.0000   1.0000   1.0000   1.0000
     1.0000   1.0000   1.0000   1.0000   1.0000   1.0000   1.0000   1.0000
     1.0000   1.0000   1.0000   1.0000   1.0000   1.0000   1.0000   1.0000
     1.0000   1.0000   1.0000   1.0000   1.0000   1.0000   1.0000   1.0000
     0.0114   0.0001   0.0000   0.0000   0.0000   0.0000   0.0000   0.0000
     0.0000   0.0000

          k = 0.4172 0.2004-0.2265 ( 17752 PWs)   bands (ev):

   -89.6557 -78.0841 -62.5406 -62.4149 -50.1354 -50.1140 -50.1020 -44.4211
   -44.3423 -44.3127 -26.9448 -26.8977 -26.8745 -26.7929 -26.6818 -26.6455
    -6.7298  -6.4590  -6.1222  -5.9798  -5.7277  -5.5141  -5.3899  -5.0109
     3.5418   3.6777   3.7844   3.8917   4.0327   4.9273   5.3653   5.6313
     5.9204   6.2696   6.4691   6.6518   6.8094   7.0489   7.4699   7.6408
     7.9019   8.0875   8.3330   8.7807   8.9959   9.0861   9.2488   9.4393
     9.6636   9.8387   9.9855  10.2051  10.5761  10.8382  11.0552  11.2726
    14.6913  14.9559  15.1955  15.3394  15.6352  16.0213  17.1661  17.4717
    19.0445  19.6297

     occupation numbers 
     1.0000   1.0000   1.0000   1.0000   1.0000   1.0000   1.0000   1.0000
     1.0000   1.0000   1.0000   1.0000   1.0000   1.0000   1.0000   1.0000
     1.0000   1.0000   1.0000   1.0000   1.0000   1.0000   1.0000   1.0000
     1.0000   1.0000   1.0000   1.0000   1.0000   1.0000   1.0000   1.0000
     1.0000   1.0000   1.0000   1.0000   1.0000   1.0000   1.0000   1.0000
     1.0000   1.0000   1.0000   1.0000   1.0000   1.0000   1.0000   1.0000
     1.0000   1.0000   1.0000   1.0000   1.0000   1.0000   1.0000   1.0000
     0.0136   0.0001   0.0000   0.0000   0.0000   0.0000   0.0000   0.0000
     0.0000   0.0000

          k = 0.4168 0.2004-0.0757 ( 17739 PWs)   bands (ev):

   -89.6556 -78.0841 -62.5408 -62.4145 -50.1355 -50.1140 -50.1020 -44.4211
   -44.3423 -44.3127 -26.9277 -26.9090 -26.8787 -26.7827 -26.6854 -26.6528
    -6.8771  -6.4918  -6.1377  -5.9128  -5.6674  -5.4994  -5.3471  -4.9960
     3.5098   3.6288   3.8015   3.8701   4.0475   4.9083   5.2826   5.7615
     6.0347   6.4123   6.5688   6.7708   6.9864   7.2215   7.3491   7.5023
     7.9077   7.9761   8.2519   8.6000   8.7689   9.0034   9.1344   9.3216
     9.6968   9.8079  10.0529  10.3921  10.6077  10.8671  11.0766  11.2337
    14.7446  14.9531  15.0488  15.3627  15.6276  16.0954  17.1948  17.4265
    19.3268  19.7374

     occupation numbers 
     1.0000   1.0000   1.0000   1.0000   1.0000   1.0000   1.0000   1.0000
     1.0000   1.0000   1.0000   1.0000   1.0000   1.0000   1.0000   1.0000
     1.0000   1.0000   1.0000   1.0000   1.0000   1.0000   1.0000   1.0000
     1.0000   1.0000   1.0000   1.0000   1.0000   1.0000   1.0000   1.0000
     1.0000   1.0000   1.0000   1.0000   1.0000   1.0000   1.0000   1.0000
     1.0000   1.0000   1.0000   1.0000   1.0000   1.0000   1.0000   1.0000
     1.0000   1.0000   1.0000   1.0000   1.0000   1.0000   1.0000   1.0000
     0.0061   0.0001   0.0000   0.0000   0.0000   0.0000   0.0000   0.0000
     0.0000   0.0000

          k = 0.4165 0.3340 0.0752 ( 17764 PWs)   bands (ev):

   -89.6556 -78.0841 -62.5410 -62.4145 -50.1355 -50.1140 -50.1020 -44.4211
   -44.3423 -44.3127 -26.9270 -26.9077 -26.8784 -26.7831 -26.6866 -26.6534
    -6.7987  -6.5857  -6.0885  -5.9343  -5.7402  -5.4775  -5.3396  -4.9587
     3.4595   3.5410   3.7242   3.8702   4.0509   4.7828   5.4090   6.0058
     6.2595   6.4496   6.6849   6.9424   7.0380   7.1825   7.4589   7.5419
     7.8238   7.9205   8.2421   8.5812   8.6364   8.8164   9.0447   9.2494
     9.5648   9.7840  10.1253  10.3231  10.5302  10.7986  11.0200  11.0993
    14.6970  14.9891  15.1762  15.3180  15.5964  16.0975  17.2003  17.4140
    19.1680  19.9563

     occupation numbers 
     1.0000   1.0000   1.0000   1.0000   1.0000   1.0000   1.0000   1.0000
     1.0000   1.0000   1.0000   1.0000   1.0000   1.0000   1.0000   1.0000
     1.0000   1.0000   1.0000   1.0000   1.0000   1.0000   1.0000   1.0000
     1.0000   1.0000   1.0000   1.0000   1.0000   1.0000   1.0000   1.0000
     1.0000   1.0000   1.0000   1.0000   1.0000   1.0000   1.0000   1.0000
     1.0000   1.0000   1.0000   1.0000   1.0000   1.0000   1.0000   1.0000
     1.0000   1.0000   1.0000   1.0000   1.0000   1.0000   1.0000   1.0000
     0.0125   0.0001   0.0000   0.0000   0.0000   0.0000   0.0000   0.0000
     0.0000   0.0000

          k = 0.4161 0.3340 0.2261 ( 17755 PWs)   bands (ev):

   -89.6557 -78.0841 -62.5407 -62.4149 -50.1354 -50.1140 -50.1020 -44.4211
   -44.3423 -44.3127 -26.9449 -26.8974 -26.8743 -26.7930 -26.6821 -26.6450
    -6.6922  -6.5046  -6.1389  -5.9245  -5.7616  -5.5793  -5.2983  -5.0333
     3.4651   3.6391   3.7412   3.8115   4.0599   4.8708   5.4427   5.7594
     6.0390   6.3601   6.5525   6.8858   6.9687   7.2115   7.3417   7.6696
     7.8674   8.2090   8.4485   8.6043   8.7825   8.9836   9.0655   9.3935
     9.6116   9.7150  10.0505  10.2438  10.4094  10.7650  10.9092  11.1598
    14.6322  15.0114  15.2434  15.3310  15.4337  15.9755  17.2851  17.3845
    19.1797  19.5798

     occupation numbers 
     1.0000   1.0000   1.0000   1.0000   1.0000   1.0000   1.0000   1.0000
     1.0000   1.0000   1.0000   1.0000   1.0000   1.0000   1.0000   1.0000
     1.0000   1.0000   1.0000   1.0000   1.0000   1.0000   1.0000   1.0000
     1.0000   1.0000   1.0000   1.0000   1.0000   1.0000   1.0000   1.0000
     1.0000   1.0000   1.0000   1.0000   1.0000   1.0000   1.0000   1.0000
     1.0000   1.0000   1.0000   1.0000   1.0000   1.0000   1.0000   1.0000
     1.0000   1.0000   1.0000   1.0000   1.0000   1.0000   1.0000   1.0000
     0.0306   0.0000   0.0000   0.0000   0.0000   0.0000   0.0000   0.0000
     0.0000   0.0000

          k = 0.4158 0.3340 0.3770 ( 17766 PWs)   bands (ev):

   -89.6557 -78.0841 -62.5405 -62.4153 -50.1354 -50.1140 -50.1020 -44.4211
   -44.3423 -44.3127 -26.9554 -26.8953 -26.8695 -26.8024 -26.6760 -26.6390
    -6.5701  -6.3521  -6.2483  -6.0768  -5.6900  -5.5302  -5.3318  -5.1345
     3.4833   3.6435   3.7102   3.8853   4.0765   4.9145   5.3732   5.5555
     5.9432   6.1871   6.5668   6.8105   6.9056   7.2928   7.4226   7.7209
     7.9941   8.1454   8.4490   8.6327   8.9013   9.1232   9.2932   9.3841
     9.5377   9.8928   9.9749  10.2021  10.4362  10.6092  10.8149  11.2644
    14.6569  14.9478  15.1924  15.2975  15.6398  15.8058  17.2951  17.3973
    19.1060  19.2110

     occupation numbers 
     1.0000   1.0000   1.0000   1.0000   1.0000   1.0000   1.0000   1.0000
     1.0000   1.0000   1.0000   1.0000   1.0000   1.0000   1.0000   1.0000
     1.0000   1.0000   1.0000   1.0000   1.0000   1.0000   1.0000   1.0000
     1.0000   1.0000   1.0000   1.0000   1.0000   1.0000   1.0000   1.0000
     1.0000   1.0000   1.0000   1.0000   1.0000   1.0000   1.0000   1.0000
     1.0000   1.0000   1.0000   1.0000   1.0000   1.0000   1.0000   1.0000
     1.0000   1.0000   1.0000   1.0000   1.0000   1.0000   1.0000   1.0000
     0.0221   0.0001   0.0000   0.0000   0.0000   0.0000   0.0000   0.0000
     0.0000   0.0000

          k = 0.4175 0.3340-0.3774 ( 17765 PWs)   bands (ev):

   -89.6557 -78.0841 -62.5406 -62.4152 -50.1354 -50.1140 -50.1020 -44.4211
   -44.3423 -44.3127 -26.9554 -26.8953 -26.8694 -26.8025 -26.6760 -26.6389
    -6.5967  -6.3562  -6.2485  -6.0618  -5.6496  -5.5415  -5.3531  -5.1172
     3.5121   3.6111   3.7096   3.8764   4.0560   4.8811   5.3569   5.5244
     5.9954   6.2959   6.5549   6.7496   6.9641   7.2432   7.4301   7.5614
     8.1011   8.1977   8.5024   8.6032   8.8274   9.1310   9.2445   9.3385
     9.6088   9.8849  10.0064  10.1490  10.4224  10.6825  10.8700  11.2693
    14.6770  14.9419  15.1900  15.4006  15.6180  15.8744  17.2232  17.4529
    18.8538  19.3347

     occupation numbers 
     1.0000   1.0000   1.0000   1.0000   1.0000   1.0000   1.0000   1.0000
     1.0000   1.0000   1.0000   1.0000   1.0000   1.0000   1.0000   1.0000
     1.0000   1.0000   1.0000   1.0000   1.0000   1.0000   1.0000   1.0000
     1.0000   1.0000   1.0000   1.0000   1.0000   1.0000   1.0000   1.0000
     1.0000   1.0000   1.0000   1.0000   1.0000   1.0000   1.0000   1.0000
     1.0000   1.0000   1.0000   1.0000   1.0000   1.0000   1.0000   1.0000
     1.0000   1.0000   1.0000   1.0000   1.0000   1.0000   1.0000   1.0000
     0.0167   0.0002   0.0000   0.0000   0.0000   0.0000   0.0000   0.0000
     0.0000   0.0000

          k = 0.4172 0.3340-0.2265 ( 17753 PWs)   bands (ev):

   -89.6557 -78.0841 -62.5408 -62.4148 -50.1354 -50.1140 -50.1020 -44.4211
   -44.3423 -44.3127 -26.9449 -26.8974 -26.8742 -26.7931 -26.6822 -26.6449
    -6.7064  -6.5385  -6.1367  -5.9626  -5.6577  -5.5551  -5.3270  -5.0311
     3.4988   3.5965   3.7568   3.7973   4.0111   4.8305   5.3846   5.7279
     6.1170   6.5170   6.6173   6.7430   6.8520   7.2083   7.4752   7.6018
     7.9652   8.1466   8.3096   8.5102   8.8538   9.0465   9.1277   9.3471
     9.6052   9.7949  10.0363  10.1750  10.4159  10.8078  10.9789  11.2189
    14.6436  14.9985  15.2381  15.3841  15.6122  16.0476  17.2051  17.4464
    18.8407  19.6762

     occupation numbers 
     1.0000   1.0000   1.0000   1.0000   1.0000   1.0000   1.0000   1.0000
     1.0000   1.0000   1.0000   1.0000   1.0000   1.0000   1.0000   1.0000
     1.0000   1.0000   1.0000   1.0000   1.0000   1.0000   1.0000   1.0000
     1.0000   1.0000   1.0000   1.0000   1.0000   1.0000   1.0000   1.0000
     1.0000   1.0000   1.0000   1.0000   1.0000   1.0000   1.0000   1.0000
     1.0000   1.0000   1.0000   1.0000   1.0000   1.0000   1.0000   1.0000
     1.0000   1.0000   1.0000   1.0000   1.0000   1.0000   1.0000   1.0000
     0.0264   0.0000   0.0000   0.0000   0.0000   0.0000   0.0000   0.0000
     0.0000   0.0000

          k = 0.4168 0.3340-0.0757 ( 17754 PWs)   bands (ev):

   -89.6556 -78.0841 -62.5410 -62.4145 -50.1355 -50.1140 -50.1020 -44.4211
   -44.3423 -44.3127 -26.9270 -26.9078 -26.8784 -26.7831 -26.6866 -26.6533
    -6.8000  -6.6017  -6.1140  -5.9409  -5.6683  -5.4936  -5.3259  -4.9702
     3.4659   3.5281   3.7477   3.8569   4.0229   4.7715   5.3838   5.9821
     6.2456   6.5789   6.7185   6.8749   6.9545   7.2037   7.3897   7.5745
     7.8970   8.0052   8.1590   8.3673   8.7814   8.9079   9.0076   9.2668
     9.5285   9.8133  10.1082  10.3769  10.4520  10.8491  10.9926  11.1722
    14.6949  14.9969  15.1410  15.3438  15.7051  16.1290  17.2017  17.4085
    19.0155  20.0015

     occupation numbers 
     1.0000   1.0000   1.0000   1.0000   1.0000   1.0000   1.0000   1.0000
     1.0000   1.0000   1.0000   1.0000   1.0000   1.0000   1.0000   1.0000
     1.0000   1.0000   1.0000   1.0000   1.0000   1.0000   1.0000   1.0000
     1.0000   1.0000   1.0000   1.0000   1.0000   1.0000   1.0000   1.0000
     1.0000   1.0000   1.0000   1.0000   1.0000   1.0000   1.0000   1.0000
     1.0000   1.0000   1.0000   1.0000   1.0000   1.0000   1.0000   1.0000
     1.0000   1.0000   1.0000   1.0000   1.0000   1.0000   1.0000   1.0000
     0.0129   0.0000   0.0000   0.0000   0.0000   0.0000   0.0000   0.0000
     0.0000   0.0000

     the Fermi energy is    14.3629 ev

!    total energy              =   -1152.69476760 Ry
     estimated scf accuracy    <          9.0E-10 Ry
     smearing contrib. (-TS)   =      -0.00164632 Ry
     internal energy E=F+TS    =   -1152.69312129 Ry

     The total energy is F=E-TS. E is the sum of the following terms:
     one-electron contribution =    -497.04743444 Ry
     hartree contribution      =     310.69161755 Ry
     xc contribution           =    -209.87458711 Ry
     ewald contribution        =    -756.71786502 Ry
     Hubbard energy            =       0.25514773 Ry

     total magnetization       =    -2.02 Bohr mag/cell
     absolute magnetization    =     6.77 Bohr mag/cell

     convergence has been achieved in  26 iterations

     Writing all to output data dir ./tmp/NiFeWO4_AFM/NiFeWO4_AFM.save/ :
     XML data file, charge density, pseudopotentials, collected wavefunctions
 
     init_run     :      5.34s CPU      5.47s WALL (       1 calls)
     electrons    :    345.20s CPU    348.46s WALL (       1 calls)

     Called by init_run:
     wfcinit      :      5.27s CPU      5.38s WALL (       1 calls)
     wfcinit:atom :      0.04s CPU      0.04s WALL (     108 calls)
     wfcinit:wfcr :      4.07s CPU      4.15s WALL (     108 calls)
     potinit      :      0.02s CPU      0.02s WALL (       1 calls)
     hinit0       :      0.02s CPU      0.02s WALL (       1 calls)

     Called by electrons:
     c_bands      :    306.53s CPU    309.25s WALL (      26 calls)
     sum_band     :     37.87s CPU     38.31s WALL (      26 calls)
     v_of_rho     :      0.33s CPU      0.35s WALL (      27 calls)
     v_h          :      0.01s CPU      0.01s WALL (      27 calls)
     v_xc         :      0.32s CPU      0.33s WALL (      27 calls)
     mix_rho      :      0.45s CPU      0.47s WALL (      26 calls)

     Called by c_bands:
     init_us_2    :      7.29s CPU      7.43s WALL (    5832 calls)
     cegterg      :    280.34s CPU    282.73s WALL (    2808 calls)

     Called by sum_band:
     sum_band:wei :      0.25s CPU      0.25s WALL (      26 calls)
     sum_band:loo :     35.56s CPU     35.92s WALL (      26 calls)
     sum_band:buf :      0.63s CPU      0.64s WALL (    2808 calls)
     sum_band:ini :      2.81s CPU      2.83s WALL (    2808 calls)

     Called by *egterg:
     cdiaghg      :     36.60s CPU     36.76s WALL (   12292 calls)
     cegterg:over :     14.41s CPU     14.49s WALL (    9484 calls)
     cegterg:upda :      9.18s CPU      9.24s WALL (    9484 calls)
     cegterg:last :     16.95s CPU     17.06s WALL (    5526 calls)
     h_psi        :    198.92s CPU    200.95s WALL (   12400 calls)
     g_psi        :      0.65s CPU      0.65s WALL (    9484 calls)

     Called by h_psi:
     h_psi:calbec :     23.37s CPU     23.53s WALL (   12400 calls)
     vloc_psi     :    144.15s CPU    145.84s WALL (   12400 calls)
     add_vuspsi   :     22.89s CPU     23.03s WALL (   12400 calls)
     vhpsi        :      7.45s CPU      7.50s WALL (   12400 calls)

     General routines
     calbec       :     31.11s CPU     31.36s WALL (   27716 calls)
     fft          :      0.15s CPU      0.17s WALL (     511 calls)
     ffts         :      0.25s CPU      0.26s WALL (     813 calls)
     fftw         :    163.48s CPU    165.32s WALL ( 1071718 calls)
 
     Parallel routines

     Hubbard U routines
     new_ns       :      2.00s CPU      2.07s WALL (      26 calls)
     vhpsi        :      7.45s CPU      7.50s WALL (   12400 calls)
 
     PWSCF        :   5m51.35s CPU   5m58.51s WALL

 
   This run was terminated on:   6:43:55  19Nov2025            

=------------------------------------------------------------------------------=
   JOB DONE.
=------------------------------------------------------------------------------=
