
     Program PWSCF v.7.4.1 starts on 19Nov2025 at  6:18:28 
        Git branch: heads/qe-7.4.1
        Last git commit: 500de340b820e1cb8c05f2d8bb8fced102f377c1-dirty
        Last git commit date: Fri Feb 7 14:59:05 2025 +0000
        Last git commit subject: Merge branch 'qe-7.4.1' into 'master'

     This program is part of the open-source Quantum ESPRESSO suite
     for quantum simulation of materials; please cite
         "P. Giannozzi et al., J. Phys.:Condens. Matter 21 395502 (2009);
         "P. Giannozzi et al., J. Phys.:Condens. Matter 29 465901 (2017);
         "P. Giannozzi et al., J. Chem. Phys. 152 154105 (2020);
          URL http://www.quantum-espresso.org", 
     in publications or presentations arising from this work. More details at
     http://www.quantum-espresso.org/quote

     Parallel version (MPI), running on    16 processors

     MPI processes distributed on     1 nodes
     683591 MiB available memory on the printing compute node when the environment starts
 
     Reading input from inputs_FM/MnCoWO4_FM.in

     Current dimensions of program PWSCF are:
     Max number of different atomic species (ntypx) = 10
     Max number of k-points (npk) =  40000
     Max angular momentum in pseudopotentials (lmaxx) =  4
     Message from routine setup:
     using ibrav=0 with symmetry is DISCOURAGED, use correct ibrav instead
 
     R & G space division:  proc/nbgrp/npool/nimage =      16
     Subspace diagonalization in iterative solution of the eigenvalue problem:
     a serial algorithm will be used

 
     Parallelization info
     --------------------
     sticks:   dense  smooth     PW     G-vecs:    dense   smooth      PW
     Min         218     218     59                 9507     9507    1349
     Max         219     219     60                 9512     9512    1352
     Sum        3497    3497    949               152147   152147   21597
 
     Using Slab Decomposition
 


     bravais-lattice index     =            0
     lattice parameter (alat)  =       8.6714  a.u.
     unit-cell volume          =     856.9309 (a.u.)^3
     number of atoms/cell      =           12
     number of atomic types    =            4
     number of electrons       =       108.00
     number of Kohn-Sham states=           65
     kinetic-energy cutoff     =     120.0000  Ry
     charge density cutoff     =     480.0000  Ry
     scf convergence threshold =      1.0E-09
     mixing beta               =       0.7000
     number of iterations used =            8  local-TF  mixing
     Exchange-correlation= PBESOL
                           (   1   4  10   8   0   0   0)
     Hubbard projectors: ortho-atomic
     Hubbard parameters of DFT+U (Dudarev formulation) in eV:
     U(Mn-3d) =  4.6500
     U(Co-3d) =  7.8400

     Internal variables: lda_plus_u = T, lda_plus_u_kind = 0

     celldm(1)=   8.671393  celldm(2)=   0.000000  celldm(3)=   0.000000
     celldm(4)=   0.000000  celldm(5)=   0.000000  celldm(6)=   0.000000

     crystal axes: (cart. coord. in units of alat)
               a(1) = (   0.999997   0.000000  -0.002446 )  
               a(2) = (   0.000000   1.222202   0.000000 )  
               a(3) = (  -0.013088   0.000000   1.075351 )  

     reciprocal axes: (cart. coord. in units 2 pi/alat)
               b(1) = (  1.000033  0.000000  0.012172 )  
               b(2) = (  0.000000  0.818195  0.000000 )  
               b(3) = (  0.002274  0.000000  0.929956 )  


     PseudoPot. # 1 for Mn read from file:
     pseudo_dojo_pbesol/Mn.upf
     MD5 check sum: ef44e22c4884c1dd3870421f9f7ffd72
     Pseudo is Norm-conserving + core correction, Zval = 15.0
     Generated using ONCVPSP code by D. R. Hamann
     Using radial grid of 1448 points,  6 beta functions with: 
                l(1) =   0
                l(2) =   0
                l(3) =   1
                l(4) =   1
                l(5) =   2
                l(6) =   2

     PseudoPot. # 2 for Co read from file:
     pseudo_dojo_pbesol/Co.upf
     MD5 check sum: da2f8eda8ae963674925720b0359a264
     Pseudo is Norm-conserving + core correction, Zval = 17.0
     Generated using ONCVPSP code by D. R. Hamann
     Using radial grid of 1388 points,  6 beta functions with: 
                l(1) =   0
                l(2) =   0
                l(3) =   1
                l(4) =   1
                l(5) =   2
                l(6) =   2

     PseudoPot. # 3 for W  read from file:
     pseudo_dojo_pbesol/W.upf
     MD5 check sum: b5ac44390825a9169ccdba7091ec60d0
     Pseudo is Norm-conserving + core correction, Zval = 14.0
     Generated using ONCVPSP code by D. R. Hamann
     Using radial grid of 1396 points,  8 beta functions with: 
                l(1) =   0
                l(2) =   0
                l(3) =   1
                l(4) =   1
                l(5) =   2
                l(6) =   2
                l(7) =   3
                l(8) =   3

     PseudoPot. # 4 for O  read from file:
     pseudo_dojo_pbesol/O.upf
     MD5 check sum: f226cbcd508cec715ff87a8f75a1dfba
     Pseudo is Norm-conserving + core correction, Zval =  6.0
     Generated using ONCVPSP code by D. R. Hamann
     Using radial grid of  936 points,  5 beta functions with: 
                l(1) =   0
                l(2) =   0
                l(3) =   1
                l(4) =   1
                l(5) =   2

     atomic species   valence    mass     pseudopotential
     Mn               15.00    54.93805     Mn( 1.00)
     Co               17.00    58.93319     Co( 1.00)
     W                14.00   183.84000     W ( 1.00)
     O                 6.00    15.99940     O ( 1.00)

     Starting magnetic structure 
     atomic species   magnetization
     Mn              0.200
     Co              0.200
     W               0.000
     O               0.000

      2 Sym. Ops. (no inversion) found ( 1 have fractional translation)


                                    s                        frac. trans.

      isym =  1     identity                                     

 cryst.   s( 1) = (     1          0          0      )
                  (     0          1          0      )
                  (     0          0          1      )

 cart.    s( 1) = (  1.0000000  0.0000000  0.0000000 )
                  (  0.0000000  1.0000000  0.0000000 )
                  ( -0.0000000  0.0000000  1.0000000 )


      isym =  2     180 deg rotation - cart. axis [0,1,0]        

 cryst.   s( 2) = (    -1          0          0      )    f =( -0.0000000 )
                  (     0          1          0      )       (  0.0000000 )
                  (     0          0         -1      )       (  0.5000000 )

 cart.    s( 2) = ( -1.0000000  0.0000000 -0.0000000 )    f =( -0.0065442 )
                  (  0.0000000  1.0000000  0.0000000 )       (  0.0000000 )
                  (  0.0000000  0.0000000 -1.0000000 )       (  0.5376757 )


   Cartesian axes

     site n.     atom                  positions (alat units)
         1        Mn     tau(   1) = (   0.4901822   0.8280460   0.8052906  )
         2        Co     tau(   2) = (   0.4967264   0.3941559   0.2676149  )
         3        W      tau(   3) = (  -0.0098164   0.2184488   0.8065135  )
         4        W      tau(   4) = (  -0.0032721   1.0037532   0.2688378  )
         5        O      tau(   5) = (   0.2431504   0.4581690   0.9640954  )
         6        O      tau(   6) = (   0.7372139   0.4581690   0.6464859  )
         7        O      tau(   7) = (   0.7437581   0.7640330   0.1088102  )
         8        O      tau(   8) = (   0.2496947   0.7640330   0.4264197  )
         9        O      tau(   9) = (   0.2006670   1.0938818   1.0096093  )
        10        O      tau(  10) = (   0.7796973   1.0938818   0.6009720  )
        11        O      tau(  11) = (   0.7862415   0.1283202   0.0632963  )
        12        O      tau(  12) = (   0.2072113   0.1283202   0.4719336  )

   Crystallographic axes

     site n.     atom                  positions (cryst. coord.)
         1        Mn     tau(   1) = (  0.5000000  0.6775034  0.7500000  )
         2        Co     tau(   2) = (  0.5000000  0.3224966  0.2500000  )
         3        W      tau(   3) = ( -0.0000000  0.1787338  0.7500000  )
         4        W      tau(   4) = ( -0.0000000  0.8212662  0.2500000  )
         5        O      tau(   5) = (  0.2548931  0.3748717  0.8971196  )
         6        O      tau(   6) = (  0.7451069  0.3748717  0.6028804  )
         7        O      tau(   7) = (  0.7451069  0.6251283  0.1028804  )
         8        O      tau(   8) = (  0.2548931  0.6251283  0.3971196  )
         9        O      tau(   9) = (  0.2129623  0.8950090  0.9393489  )
        10        O      tau(  10) = (  0.7870377  0.8950090  0.5606511  )
        11        O      tau(  11) = (  0.7870377  0.1049910  0.0606511  )
        12        O      tau(  12) = (  0.2129623  0.1049910  0.4393489  )

     number of k points=    54  Marzari-Vanderbilt smearing, width (Ry)=  0.0200
                       cart. coord. in units 2pi/alat
        k(    1) = (   0.0835256   0.0681829   0.0785107), wk =   0.0185185
        k(    2) = (   0.0839047   0.0681829   0.2335034), wk =   0.0185185
        k(    3) = (   0.0842838   0.0681829   0.3884961), wk =   0.0185185
        k(    4) = (   0.0823884   0.0681829  -0.3864675), wk =   0.0185185
        k(    5) = (   0.0827674   0.0681829  -0.2314748), wk =   0.0185185
        k(    6) = (   0.0831465   0.0681829  -0.0764820), wk =   0.0185185
        k(    7) = (   0.0835256   0.2045488   0.0785107), wk =   0.0185185
        k(    8) = (   0.0839047   0.2045488   0.2335034), wk =   0.0185185
        k(    9) = (   0.0842838   0.2045488   0.3884961), wk =   0.0185185
        k(   10) = (   0.0823884   0.2045488  -0.3864675), wk =   0.0185185
        k(   11) = (   0.0827674   0.2045488  -0.2314748), wk =   0.0185185
        k(   12) = (   0.0831465   0.2045488  -0.0764820), wk =   0.0185185
        k(   13) = (   0.0835256   0.3409147   0.0785107), wk =   0.0185185
        k(   14) = (   0.0839047   0.3409147   0.2335034), wk =   0.0185185
        k(   15) = (   0.0842838   0.3409147   0.3884961), wk =   0.0185185
        k(   16) = (   0.0823884   0.3409147  -0.3864675), wk =   0.0185185
        k(   17) = (   0.0827674   0.3409147  -0.2314748), wk =   0.0185185
        k(   18) = (   0.0831465   0.3409147  -0.0764820), wk =   0.0185185
        k(   19) = (   0.2501977   0.0681829   0.0805393), wk =   0.0185185
        k(   20) = (   0.2505768   0.0681829   0.2355320), wk =   0.0185185
        k(   21) = (   0.2509559   0.0681829   0.3905247), wk =   0.0185185
        k(   22) = (   0.2490605   0.0681829  -0.3844389), wk =   0.0185185
        k(   23) = (   0.2494396   0.0681829  -0.2294461), wk =   0.0185185
        k(   24) = (   0.2498186   0.0681829  -0.0744534), wk =   0.0185185
        k(   25) = (   0.2501977   0.2045488   0.0805393), wk =   0.0185185
        k(   26) = (   0.2505768   0.2045488   0.2355320), wk =   0.0185185
        k(   27) = (   0.2509559   0.2045488   0.3905247), wk =   0.0185185
        k(   28) = (   0.2490605   0.2045488  -0.3844389), wk =   0.0185185
        k(   29) = (   0.2494396   0.2045488  -0.2294461), wk =   0.0185185
        k(   30) = (   0.2498186   0.2045488  -0.0744534), wk =   0.0185185
        k(   31) = (   0.2501977   0.3409147   0.0805393), wk =   0.0185185
        k(   32) = (   0.2505768   0.3409147   0.2355320), wk =   0.0185185
        k(   33) = (   0.2509559   0.3409147   0.3905247), wk =   0.0185185
        k(   34) = (   0.2490605   0.3409147  -0.3844389), wk =   0.0185185
        k(   35) = (   0.2494396   0.3409147  -0.2294461), wk =   0.0185185
        k(   36) = (   0.2498186   0.3409147  -0.0744534), wk =   0.0185185
        k(   37) = (   0.4168699   0.0681829   0.0825679), wk =   0.0185185
        k(   38) = (   0.4172489   0.0681829   0.2375606), wk =   0.0185185
        k(   39) = (   0.4176280   0.0681829   0.3925533), wk =   0.0185185
        k(   40) = (   0.4157326   0.0681829  -0.3824102), wk =   0.0185185
        k(   41) = (   0.4161117   0.0681829  -0.2274175), wk =   0.0185185
        k(   42) = (   0.4164908   0.0681829  -0.0724248), wk =   0.0185185
        k(   43) = (   0.4168699   0.2045488   0.0825679), wk =   0.0185185
        k(   44) = (   0.4172489   0.2045488   0.2375606), wk =   0.0185185
        k(   45) = (   0.4176280   0.2045488   0.3925533), wk =   0.0185185
        k(   46) = (   0.4157326   0.2045488  -0.3824102), wk =   0.0185185
        k(   47) = (   0.4161117   0.2045488  -0.2274175), wk =   0.0185185
        k(   48) = (   0.4164908   0.2045488  -0.0724248), wk =   0.0185185
        k(   49) = (   0.4168699   0.3409147   0.0825679), wk =   0.0185185
        k(   50) = (   0.4172489   0.3409147   0.2375606), wk =   0.0185185
        k(   51) = (   0.4176280   0.3409147   0.3925533), wk =   0.0185185
        k(   52) = (   0.4157326   0.3409147  -0.3824102), wk =   0.0185185
        k(   53) = (   0.4161117   0.3409147  -0.2274175), wk =   0.0185185
        k(   54) = (   0.4164908   0.3409147  -0.0724248), wk =   0.0185185

                       cryst. coord.
        k(    1) = (   0.0833333   0.0833333   0.0833333), wk =   0.0185185
        k(    2) = (   0.0833333   0.0833333   0.2500000), wk =   0.0185185
        k(    3) = (   0.0833333   0.0833333   0.4166667), wk =   0.0185185
        k(    4) = (   0.0833333   0.0833333  -0.4166667), wk =   0.0185185
        k(    5) = (   0.0833333   0.0833333  -0.2500000), wk =   0.0185185
        k(    6) = (   0.0833333   0.0833333  -0.0833333), wk =   0.0185185
        k(    7) = (   0.0833333   0.2500000   0.0833333), wk =   0.0185185
        k(    8) = (   0.0833333   0.2500000   0.2500000), wk =   0.0185185
        k(    9) = (   0.0833333   0.2500000   0.4166667), wk =   0.0185185
        k(   10) = (   0.0833333   0.2500000  -0.4166667), wk =   0.0185185
        k(   11) = (   0.0833333   0.2500000  -0.2500000), wk =   0.0185185
        k(   12) = (   0.0833333   0.2500000  -0.0833333), wk =   0.0185185
        k(   13) = (   0.0833333   0.4166667   0.0833333), wk =   0.0185185
        k(   14) = (   0.0833333   0.4166667   0.2500000), wk =   0.0185185
        k(   15) = (   0.0833333   0.4166667   0.4166667), wk =   0.0185185
        k(   16) = (   0.0833333   0.4166667  -0.4166667), wk =   0.0185185
        k(   17) = (   0.0833333   0.4166667  -0.2500000), wk =   0.0185185
        k(   18) = (   0.0833333   0.4166667  -0.0833333), wk =   0.0185185
        k(   19) = (   0.2500000   0.0833333   0.0833333), wk =   0.0185185
        k(   20) = (   0.2500000   0.0833333   0.2500000), wk =   0.0185185
        k(   21) = (   0.2500000   0.0833333   0.4166667), wk =   0.0185185
        k(   22) = (   0.2500000   0.0833333  -0.4166667), wk =   0.0185185
        k(   23) = (   0.2500000   0.0833333  -0.2500000), wk =   0.0185185
        k(   24) = (   0.2500000   0.0833333  -0.0833333), wk =   0.0185185
        k(   25) = (   0.2500000   0.2500000   0.0833333), wk =   0.0185185
        k(   26) = (   0.2500000   0.2500000   0.2500000), wk =   0.0185185
        k(   27) = (   0.2500000   0.2500000   0.4166667), wk =   0.0185185
        k(   28) = (   0.2500000   0.2500000  -0.4166667), wk =   0.0185185
        k(   29) = (   0.2500000   0.2500000  -0.2500000), wk =   0.0185185
        k(   30) = (   0.2500000   0.2500000  -0.0833333), wk =   0.0185185
        k(   31) = (   0.2500000   0.4166667   0.0833333), wk =   0.0185185
        k(   32) = (   0.2500000   0.4166667   0.2500000), wk =   0.0185185
        k(   33) = (   0.2500000   0.4166667   0.4166667), wk =   0.0185185
        k(   34) = (   0.2500000   0.4166667  -0.4166667), wk =   0.0185185
        k(   35) = (   0.2500000   0.4166667  -0.2500000), wk =   0.0185185
        k(   36) = (   0.2500000   0.4166667  -0.0833333), wk =   0.0185185
        k(   37) = (   0.4166667   0.0833333   0.0833333), wk =   0.0185185
        k(   38) = (   0.4166667   0.0833333   0.2500000), wk =   0.0185185
        k(   39) = (   0.4166667   0.0833333   0.4166667), wk =   0.0185185
        k(   40) = (   0.4166667   0.0833333  -0.4166667), wk =   0.0185185
        k(   41) = (   0.4166667   0.0833333  -0.2500000), wk =   0.0185185
        k(   42) = (   0.4166667   0.0833333  -0.0833333), wk =   0.0185185
        k(   43) = (   0.4166667   0.2500000   0.0833333), wk =   0.0185185
        k(   44) = (   0.4166667   0.2500000   0.2500000), wk =   0.0185185
        k(   45) = (   0.4166667   0.2500000   0.4166667), wk =   0.0185185
        k(   46) = (   0.4166667   0.2500000  -0.4166667), wk =   0.0185185
        k(   47) = (   0.4166667   0.2500000  -0.2500000), wk =   0.0185185
        k(   48) = (   0.4166667   0.2500000  -0.0833333), wk =   0.0185185
        k(   49) = (   0.4166667   0.4166667   0.0833333), wk =   0.0185185
        k(   50) = (   0.4166667   0.4166667   0.2500000), wk =   0.0185185
        k(   51) = (   0.4166667   0.4166667   0.4166667), wk =   0.0185185
        k(   52) = (   0.4166667   0.4166667  -0.4166667), wk =   0.0185185
        k(   53) = (   0.4166667   0.4166667  -0.2500000), wk =   0.0185185
        k(   54) = (   0.4166667   0.4166667  -0.0833333), wk =   0.0185185

     Dense  grid:   152147 G-vectors     FFT dimensions: (  64,  75,  72)

     Dynamical RAM for                 wfc:       1.18 MB

     Dynamical RAM for     wfc (w. buffer):     128.43 MB

     Dynamical RAM for             U proj.:       0.18 MB

     Dynamical RAM for  U proj. (w. buff.):      19.76 MB

     Dynamical RAM for           str. fact:       0.58 MB

     Dynamical RAM for           local pot:       0.00 MB

     Dynamical RAM for          nlocal pot:       3.70 MB

     Dynamical RAM for                qrad:      16.87 MB

     Dynamical RAM for          rho,v,vnew:       1.97 MB

     Dynamical RAM for               rhoin:       0.66 MB

     Dynamical RAM for            rho*nmix:       4.64 MB

     Dynamical RAM for           G-vectors:       0.62 MB

     Dynamical RAM for          h,s,v(r/c):       0.77 MB

     Dynamical RAM for          <psi|beta>:       0.20 MB

     Dynamical RAM for                 psi:       2.36 MB

     Dynamical RAM for                hpsi:       2.36 MB

     Dynamical RAM for      wfcinit/wfcrot:       2.45 MB

     Estimated static dynamical RAM per process >     174.41 MB

     Estimated max dynamical RAM per process >     184.74 MB

     Estimated total dynamical RAM >       2.89 GB
     Generating pointlists ...
     new r_m :   0.1827 (alat units)  1.5845 (a.u.) for type    1
     new r_m :   0.1827 (alat units)  1.5845 (a.u.) for type    2
     new r_m :   0.1578 (alat units)  1.3681 (a.u.) for type    3
     new r_m :   0.1578 (alat units)  1.3681 (a.u.) for type    4

     Initial potential from superposition of free atoms

     starting charge     107.9983, renormalised to     108.0000

     HUBBARD ENERGY =    0.3457  (Ry)

     STARTING HUBBARD OCCUPATIONS:

     =================== HUBBARD OCCUPATIONS ===================
     ------------------------ ATOM    1 ------------------------
     Tr[ns(  1)] (up, down, total) =   5.00000  0.00000  5.00000
     Atomic magnetic moment for atom   1 =   5.00000
     SPIN  1
     eigenvalues:
       1.000  1.000  1.000  1.000  1.000
     eigenvectors (columns):
       1.000  0.000  0.000  0.000  0.000
       0.000  1.000  0.000  0.000  0.000
       0.000  0.000  1.000  0.000  0.000
       0.000  0.000  0.000  1.000  0.000
       0.000  0.000  0.000  0.000  1.000
     occupation matrix ns (before diag.):
       1.000  0.000  0.000  0.000  0.000
       0.000  1.000  0.000  0.000  0.000
       0.000  0.000  1.000  0.000  0.000
       0.000  0.000  0.000  1.000  0.000
       0.000  0.000  0.000  0.000  1.000
     SPIN  2
     eigenvalues:
       0.000  0.000  0.000  0.000  0.000
     eigenvectors (columns):
       1.000  0.000  0.000  0.000  0.000
       0.000  1.000  0.000  0.000  0.000
       0.000  0.000  1.000  0.000  0.000
       0.000  0.000  0.000  1.000  0.000
       0.000  0.000  0.000  0.000  1.000
     occupation matrix ns (before diag.):
       0.000  0.000  0.000  0.000  0.000
       0.000  0.000  0.000  0.000  0.000
       0.000  0.000  0.000  0.000  0.000
       0.000  0.000  0.000  0.000  0.000
       0.000  0.000  0.000  0.000  0.000
     ------------------------ ATOM    2 ------------------------
     Tr[ns(  2)] (up, down, total) =   5.00000  2.00000  7.00000
     Atomic magnetic moment for atom   2 =   3.00000
     SPIN  1
     eigenvalues:
       1.000  1.000  1.000  1.000  1.000
     eigenvectors (columns):
       1.000  0.000  0.000  0.000  0.000
       0.000  1.000  0.000  0.000  0.000
       0.000  0.000  1.000  0.000  0.000
       0.000  0.000  0.000  1.000  0.000
       0.000  0.000  0.000  0.000  1.000
     occupation matrix ns (before diag.):
       1.000  0.000  0.000  0.000  0.000
       0.000  1.000  0.000  0.000  0.000
       0.000  0.000  1.000  0.000  0.000
       0.000  0.000  0.000  1.000  0.000
       0.000  0.000  0.000  0.000  1.000
     SPIN  2
     eigenvalues:
       0.400  0.400  0.400  0.400  0.400
     eigenvectors (columns):
       1.000  0.000  0.000  0.000  0.000
       0.000  1.000  0.000  0.000  0.000
       0.000  0.000  1.000  0.000  0.000
       0.000  0.000  0.000  1.000  0.000
       0.000  0.000  0.000  0.000  1.000
     occupation matrix ns (before diag.):
       0.400  0.000  0.000  0.000  0.000
       0.000  0.400  0.000  0.000  0.000
       0.000  0.000  0.400  0.000  0.000
       0.000  0.000  0.000  0.400  0.000
       0.000  0.000  0.000  0.000  0.400

     Number of occupied Hubbard levels =   12.0000

     Atomic wfc used for Hubbard projectors are orthogonalized

     Starting wfcs are   72 randomized atomic wfcs

     total cpu time spent up to now is        6.1 secs

     per-process dynamical memory:   228.0 Mb

     Self-consistent Calculation

     iteration #  1     ecut=   120.00 Ry     beta= 0.70
     Davidson diagonalization with overlap

---- Real-time Memory Report at c_bands before calling an iterative solver
           254 MiB given to the printing process from OS
           222 MiB allocation reported by mallinfo(arena+hblkhd)
        674312 MiB available memory on the node where the printing process lives
------------------
     ethr =  1.00E-02,  avg # of iterations =  2.0

     =================== HUBBARD OCCUPATIONS ===================
     ------------------------ ATOM    1 ------------------------
     Tr[ns(  1)] (up, down, total) =   4.96049  0.23283  5.19333
     Atomic magnetic moment for atom   1 =   4.72766
     SPIN  1
     eigenvalues:
       0.986  0.986  0.996  0.996  0.997
     eigenvectors (columns):
       0.000  0.595 -0.714  0.000  0.369
      -0.000 -0.776 -0.630  0.000  0.030
       0.539 -0.000 -0.000 -0.842 -0.000
       0.000  0.211 -0.305  0.000 -0.929
       0.842 -0.000  0.000  0.539  0.000
     occupation matrix ns (before diag.):
       0.992  0.005 -0.000 -0.002  0.000
       0.005  0.990 -0.000  0.002  0.000
      -0.000 -0.000  0.993 -0.000 -0.005
      -0.002  0.002 -0.000  0.996 -0.000
       0.000  0.000 -0.005 -0.000  0.989
     SPIN  2
     eigenvalues:
       0.025  0.025  0.026  0.077  0.080
     eigenvectors (columns):
       0.836  0.000 -0.141  0.000  0.530
       0.471  0.000 -0.310 -0.000 -0.826
       0.000 -0.830  0.000  0.558  0.000
      -0.281 -0.000 -0.940 -0.000  0.193
      -0.000  0.558 -0.000  0.830 -0.000
     occupation matrix ns (before diag.):
       0.040 -0.024  0.000  0.006  0.000
      -0.024  0.063 -0.000 -0.009  0.000
       0.000 -0.000  0.041 -0.000  0.024
       0.006 -0.009 -0.000  0.028 -0.000
       0.000  0.000  0.024 -0.000  0.061
     ------------------------ ATOM    2 ------------------------
     Tr[ns(  2)] (up, down, total) =   4.98610  2.17226  7.15836
     Atomic magnetic moment for atom   2 =   2.81385
     SPIN  1
     eigenvalues:
       0.995  0.995  0.998  0.999  0.999
     eigenvectors (columns):
      -0.000  0.589 -0.699  0.000  0.407
      -0.000 -0.782 -0.619  0.000  0.068
       0.556 -0.000 -0.000 -0.831 -0.000
       0.000  0.204 -0.358  0.000 -0.911
       0.831 -0.000  0.000  0.556  0.000
     occupation matrix ns (before diag.):
       0.997  0.002 -0.000 -0.001  0.000
       0.002  0.996 -0.000  0.000  0.000
      -0.000 -0.000  0.997 -0.000 -0.002
      -0.001  0.000 -0.000  0.999 -0.000
       0.000  0.000 -0.002 -0.000  0.996
     SPIN  2
     eigenvalues:
       0.100  0.104  0.542  0.695  0.731
     eigenvectors (columns):
       0.000  0.526  0.074 -0.000  0.847
      -0.000 -0.824  0.290 -0.000  0.487
       0.566 -0.000  0.000 -0.825 -0.000
       0.000  0.210  0.954  0.000 -0.214
       0.825 -0.000 -0.000  0.566  0.000
     occupation matrix ns (before diag.):
       0.556  0.268 -0.000 -0.083  0.000
       0.268  0.289 -0.000  0.056  0.000
      -0.000 -0.000  0.505 -0.000 -0.278
      -0.083  0.056 -0.000  0.531 -0.000
       0.000  0.000 -0.278 -0.000  0.291

     Number of occupied Hubbard levels =   12.3517

     HUBBARD ENERGY =    0.2901  (Ry)

     total cpu time spent up to now is       20.9 secs

     total energy              =   -1089.48638324 Ry
     estimated scf accuracy    <       4.10150478 Ry

     total magnetization       =     8.00 Bohr mag/cell
     absolute magnetization    =     8.00 Bohr mag/cell

     iteration #  2     ecut=   120.00 Ry     beta= 0.70
     Davidson diagonalization with overlap

---- Real-time Memory Report at c_bands before calling an iterative solver
           263 MiB given to the printing process from OS
           229 MiB allocation reported by mallinfo(arena+hblkhd)
        667791 MiB available memory on the node where the printing process lives
------------------
     ethr =  3.80E-03,  avg # of iterations =  2.0

     =================== HUBBARD OCCUPATIONS ===================
     ------------------------ ATOM    1 ------------------------
     Tr[ns(  1)] (up, down, total) =   4.91593  0.29610  5.21204
     Atomic magnetic moment for atom   1 =   4.61983
     SPIN  1
     eigenvalues:
       0.950  0.982  0.994  0.995  0.995
     eigenvectors (columns):
       0.534 -0.000 -0.846  0.000  0.008
      -0.818 -0.000 -0.519  0.000 -0.250
      -0.000  0.494 -0.000 -0.869  0.000
       0.215  0.000  0.126 -0.000 -0.968
       0.000  0.869  0.000  0.494 -0.000
     occupation matrix ns (before diag.):
       0.981  0.019 -0.000 -0.005  0.000
       0.019  0.965 -0.000  0.008  0.000
      -0.000 -0.000  0.992 -0.000 -0.006
      -0.005  0.008 -0.000  0.993 -0.000
       0.000  0.000 -0.006 -0.000  0.985
     SPIN  2
     eigenvalues:
       0.029  0.031  0.035  0.098  0.103
     eigenvectors (columns):
      -0.000  0.849 -0.054  0.000  0.526
      -0.000  0.496 -0.260 -0.000 -0.828
      -0.827 -0.000  0.000  0.562  0.000
       0.000 -0.181 -0.964 -0.000  0.194
       0.562  0.000 -0.000  0.827 -0.000
     occupation matrix ns (before diag.):
       0.051 -0.031  0.000  0.008  0.000
      -0.031  0.080 -0.000 -0.011  0.000
       0.000 -0.000  0.051 -0.000  0.032
       0.008 -0.011 -0.000  0.037 -0.000
       0.000  0.000  0.032 -0.000  0.077
     ------------------------ ATOM    2 ------------------------
     Tr[ns(  2)] (up, down, total) =   4.97736  2.32253  7.29989
     Atomic magnetic moment for atom   2 =   2.65483
     SPIN  1
     eigenvalues:
       0.992  0.992  0.998  0.998  0.998
     eigenvectors (columns):
      -0.574 -0.000  0.814  0.000 -0.086
       0.792  0.000  0.579  0.000  0.194
      -0.000  0.519  0.000 -0.855 -0.000
      -0.207  0.000 -0.043 -0.000  0.977
      -0.000  0.855 -0.000  0.519  0.000
     occupation matrix ns (before diag.):
       0.996  0.003 -0.000 -0.001  0.000
       0.003  0.994 -0.000  0.001  0.000
      -0.000 -0.000  0.996 -0.000 -0.003
      -0.001  0.001 -0.000  0.998 -0.000
       0.000  0.000 -0.003 -0.000  0.994
     SPIN  2
     eigenvalues:
       0.088  0.092  0.169  0.986  0.987
     eigenvectors (columns):
       0.000  0.531 -0.055 -0.846  0.000
      -0.000 -0.814 -0.311 -0.491  0.000
       0.570 -0.000  0.000 -0.000 -0.822
       0.000  0.236 -0.949  0.210 -0.000
       0.822 -0.000  0.000  0.000  0.570
     occupation matrix ns (before diag.):
       0.732  0.372 -0.000 -0.155  0.000
       0.372  0.315 -0.000 -0.069  0.000
      -0.000 -0.000  0.695  0.000 -0.421
      -0.155 -0.069  0.000  0.200 -0.000
       0.000  0.000 -0.421 -0.000  0.381

     Number of occupied Hubbard levels =   12.5119

     HUBBARD ENERGY =    0.2208  (Ry)

     total cpu time spent up to now is       35.6 secs

     total energy              =   -1090.37421035 Ry
     estimated scf accuracy    <       0.22734640 Ry

     total magnetization       =     7.92 Bohr mag/cell
     absolute magnetization    =     7.93 Bohr mag/cell

     iteration #  3     ecut=   120.00 Ry     beta= 0.70
     Davidson diagonalization with overlap

---- Real-time Memory Report at c_bands before calling an iterative solver
           264 MiB given to the printing process from OS
           230 MiB allocation reported by mallinfo(arena+hblkhd)
        671139 MiB available memory on the node where the printing process lives
------------------
     ethr =  2.11E-04,  avg # of iterations =  6.7

     =================== HUBBARD OCCUPATIONS ===================
     ------------------------ ATOM    1 ------------------------
     Tr[ns(  1)] (up, down, total) =   4.92731  0.28114  5.20844
     Atomic magnetic moment for atom   1 =   4.64617
     SPIN  1
     eigenvalues:
       0.971  0.973  0.994  0.995  0.995
     eigenvectors (columns):
      -0.573 -0.000 -0.819  0.000 -0.016
       0.792  0.000 -0.548  0.000 -0.270
       0.000  0.524 -0.000 -0.852  0.000
      -0.212  0.000  0.168 -0.000 -0.963
      -0.000  0.852  0.000  0.524 -0.000
     occupation matrix ns (before diag.):
       0.986  0.011 -0.000 -0.003  0.000
       0.011  0.979 -0.000  0.004  0.000
      -0.000 -0.000  0.989 -0.000 -0.010
      -0.003  0.004 -0.000  0.994 -0.000
       0.000  0.000 -0.010 -0.000  0.979
     SPIN  2
     eigenvalues:
       0.027  0.028  0.033  0.094  0.098
     eigenvectors (columns):
      -0.000  0.847 -0.083  0.000  0.526
      -0.000  0.487 -0.276 -0.000 -0.828
      -0.825 -0.000  0.000  0.565  0.000
       0.000 -0.214 -0.958 -0.000  0.193
       0.565  0.000 -0.000  0.825 -0.000
     occupation matrix ns (before diag.):
       0.048 -0.030  0.000  0.007  0.000
      -0.030  0.077 -0.000 -0.010  0.000
       0.000 -0.000  0.049 -0.000  0.031
       0.007 -0.010 -0.000  0.035 -0.000
       0.000  0.000  0.031 -0.000  0.073
     ------------------------ ATOM    2 ------------------------
     Tr[ns(  2)] (up, down, total) =   4.97523  2.19598  7.17120
     Atomic magnetic moment for atom   2 =   2.77925
     SPIN  1
     eigenvalues:
       0.991  0.992  0.997  0.997  0.998
     eigenvectors (columns):
      -0.596 -0.000 -0.803  0.000 -0.004
       0.776 -0.000 -0.574  0.000 -0.263
       0.000  0.534 -0.000 -0.846  0.000
      -0.209  0.000  0.160 -0.000 -0.965
      -0.000  0.846  0.000  0.534 -0.000
     occupation matrix ns (before diag.):
       0.995  0.003 -0.000 -0.001  0.000
       0.003  0.993 -0.000  0.001  0.000
      -0.000 -0.000  0.996 -0.000 -0.002
      -0.001  0.001 -0.000  0.998 -0.000
       0.000  0.000 -0.002 -0.000  0.993
     SPIN  2
     eigenvalues:
       0.049  0.082  0.084  0.990  0.991
     eigenvectors (columns):
      -0.107  0.531  0.000 -0.841  0.000
      -0.238 -0.835 -0.000 -0.497  0.000
      -0.000 -0.000  0.583 -0.000 -0.813
      -0.965  0.147 -0.000  0.216 -0.000
      -0.000 -0.000  0.813  0.000  0.583
     occupation matrix ns (before diag.):
       0.724  0.378 -0.000 -0.168  0.000
       0.378  0.304 -0.000 -0.105  0.000
      -0.000 -0.000  0.683  0.000 -0.429
      -0.168 -0.105  0.000  0.093 -0.000
       0.000  0.000 -0.429 -0.000  0.392

     Number of occupied Hubbard levels =   12.3796

     HUBBARD ENERGY =    0.1340  (Ry)

     total cpu time spent up to now is       51.9 secs

     total energy              =   -1090.43651835 Ry
     estimated scf accuracy    <       0.05701349 Ry

     total magnetization       =     8.00 Bohr mag/cell
     absolute magnetization    =     8.02 Bohr mag/cell

     iteration #  4     ecut=   120.00 Ry     beta= 0.70
     Davidson diagonalization with overlap

---- Real-time Memory Report at c_bands before calling an iterative solver
           264 MiB given to the printing process from OS
           230 MiB allocation reported by mallinfo(arena+hblkhd)
        669360 MiB available memory on the node where the printing process lives
------------------
     c_bands:  1 eigenvalues not converged
     c_bands:  1 eigenvalues not converged
     ethr =  5.28E-05,  avg # of iterations =  4.9

     =================== HUBBARD OCCUPATIONS ===================
     ------------------------ ATOM    1 ------------------------
     Tr[ns(  1)] (up, down, total) =   4.92765  0.26947  5.19712
     Atomic magnetic moment for atom   1 =   4.65819
     SPIN  1
     eigenvalues:
       0.971  0.973  0.994  0.995  0.995
     eigenvectors (columns):
      -0.575 -0.000  0.818  0.000 -0.009
       0.791  0.000  0.558  0.000  0.251
       0.000  0.526  0.000 -0.851 -0.000
      -0.211  0.000 -0.138 -0.000  0.968
      -0.000  0.851 -0.000  0.526  0.000
     occupation matrix ns (before diag.):
       0.986  0.010 -0.000 -0.003  0.000
       0.010  0.980 -0.000  0.004  0.000
      -0.000 -0.000  0.989 -0.000 -0.010
      -0.003  0.004 -0.000  0.994 -0.000
       0.000  0.000 -0.010 -0.000  0.979
     SPIN  2
     eigenvalues:
       0.026  0.027  0.031  0.091  0.094
     eigenvectors (columns):
      -0.000  0.844 -0.104  0.000  0.527
      -0.000  0.481 -0.289 -0.000 -0.828
      -0.824 -0.000  0.000  0.567  0.000
       0.000 -0.238 -0.952 -0.000  0.194
       0.567  0.000 -0.000  0.824 -0.000
     occupation matrix ns (before diag.):
       0.046 -0.029  0.000  0.007  0.000
      -0.029  0.074 -0.000 -0.010  0.000
       0.000 -0.000  0.047 -0.000  0.030
       0.007 -0.010 -0.000  0.033 -0.000
       0.000  0.000  0.030 -0.000  0.070
     ------------------------ ATOM    2 ------------------------
     Tr[ns(  2)] (up, down, total) =   4.97673  2.17905  7.15578
     Atomic magnetic moment for atom   2 =   2.79768
     SPIN  1
     eigenvalues:
       0.991  0.993  0.997  0.997  0.998
     eigenvectors (columns):
      -0.608 -0.000 -0.794  0.000 -0.003
       0.767 -0.000 -0.586  0.000 -0.260
       0.000  0.544 -0.000 -0.839  0.000
      -0.205  0.000  0.160 -0.000 -0.966
      -0.000  0.839  0.000  0.544 -0.000
     occupation matrix ns (before diag.):
       0.995  0.003 -0.000 -0.001  0.000
       0.003  0.994 -0.000  0.001  0.000
      -0.000 -0.000  0.996 -0.000 -0.002
      -0.001  0.001 -0.000  0.998 -0.000
       0.000  0.000 -0.002 -0.000  0.994
     SPIN  2
     eigenvalues:
       0.029  0.079  0.086  0.992  0.993
     eigenvectors (columns):
      -0.094  0.544 -0.000 -0.834  0.000
      -0.264 -0.821  0.000 -0.506  0.000
      -0.000  0.000  0.600 -0.000 -0.800
      -0.960  0.172 -0.000  0.221 -0.000
      -0.000  0.000  0.800  0.000  0.600
     occupation matrix ns (before diag.):
       0.714  0.384 -0.000 -0.173  0.000
       0.384  0.309 -0.000 -0.115  0.000
      -0.000 -0.000  0.666  0.000 -0.435
      -0.173 -0.115  0.000  0.077 -0.000
       0.000  0.000 -0.435 -0.000  0.413

     Number of occupied Hubbard levels =   12.3529

     HUBBARD ENERGY =    0.1107  (Ry)

     total cpu time spent up to now is       67.0 secs

     total energy              =   -1090.44334320 Ry
     estimated scf accuracy    <       0.00527844 Ry

     total magnetization       =     8.00 Bohr mag/cell
     absolute magnetization    =     8.02 Bohr mag/cell

     iteration #  5     ecut=   120.00 Ry     beta= 0.70
     Davidson diagonalization with overlap

---- Real-time Memory Report at c_bands before calling an iterative solver
           265 MiB given to the printing process from OS
           231 MiB allocation reported by mallinfo(arena+hblkhd)
        667704 MiB available memory on the node where the printing process lives
------------------
     c_bands:  1 eigenvalues not converged
     c_bands:  1 eigenvalues not converged
     c_bands:  1 eigenvalues not converged
     c_bands:  1 eigenvalues not converged
     c_bands:  1 eigenvalues not converged
     c_bands:  1 eigenvalues not converged
     c_bands:  1 eigenvalues not converged
     c_bands:  1 eigenvalues not converged
     c_bands:  1 eigenvalues not converged
     ethr =  4.89E-06,  avg # of iterations = 10.1

     =================== HUBBARD OCCUPATIONS ===================
     ------------------------ ATOM    1 ------------------------
     Tr[ns(  1)] (up, down, total) =   4.92633  0.26902  5.19535
     Atomic magnetic moment for atom   1 =   4.65731
     SPIN  1
     eigenvalues:
       0.971  0.972  0.994  0.995  0.995
     eigenvectors (columns):
      -0.575 -0.000  0.818  0.000 -0.028
       0.791  0.000  0.564  0.000  0.239
      -0.000  0.528  0.000 -0.849 -0.000
      -0.211  0.000 -0.115 -0.000  0.971
      -0.000  0.849 -0.000  0.528  0.000
     occupation matrix ns (before diag.):
       0.986  0.011 -0.000 -0.003  0.000
       0.011  0.979 -0.000  0.004  0.000
      -0.000 -0.000  0.988 -0.000 -0.010
      -0.003  0.004 -0.000  0.994 -0.000
       0.000  0.000 -0.010 -0.000  0.979
     SPIN  2
     eigenvalues:
       0.026  0.027  0.031  0.091  0.094
     eigenvectors (columns):
      -0.000  0.843 -0.106  0.000  0.527
      -0.000  0.481 -0.290 -0.000 -0.828
      -0.824 -0.000  0.000  0.567  0.000
       0.000 -0.240 -0.951 -0.000  0.194
       0.567  0.000 -0.000  0.824 -0.000
     occupation matrix ns (before diag.):
       0.046 -0.029  0.000  0.007  0.000
      -0.029  0.073 -0.000 -0.010  0.000
       0.000 -0.000  0.047 -0.000  0.030
       0.007 -0.010 -0.000  0.033 -0.000
       0.000  0.000  0.030 -0.000  0.070
     ------------------------ ATOM    2 ------------------------
     Tr[ns(  2)] (up, down, total) =   4.97699  2.18282  7.15981
     Atomic magnetic moment for atom   2 =   2.79417
     SPIN  1
     eigenvalues:
       0.991  0.993  0.997  0.997  0.998
     eigenvectors (columns):
      -0.607 -0.000 -0.795  0.000 -0.006
       0.767 -0.000 -0.584  0.000 -0.264
       0.000  0.543 -0.000 -0.839  0.000
      -0.206  0.000  0.165 -0.000 -0.964
      -0.000  0.839  0.000  0.543 -0.000
     occupation matrix ns (before diag.):
       0.995  0.003 -0.000 -0.001  0.000
       0.003  0.994 -0.000  0.001  0.000
      -0.000 -0.000  0.996 -0.000 -0.002
      -0.001  0.001 -0.000  0.998 -0.000
       0.000  0.000 -0.002 -0.000  0.994
     SPIN  2
     eigenvalues:
       0.027  0.080  0.090  0.993  0.993
     eigenvectors (columns):
      -0.093  0.553  0.000 -0.828  0.000
      -0.267 -0.815 -0.000 -0.514  0.000
      -0.000 -0.000  0.617 -0.000 -0.787
      -0.959  0.173 -0.000  0.224 -0.000
      -0.000 -0.000  0.787  0.000  0.617
     occupation matrix ns (before diag.):
       0.706  0.387 -0.000 -0.174  0.000
       0.387  0.317 -0.000 -0.119  0.000
      -0.000 -0.000  0.650  0.000 -0.439
      -0.174 -0.119  0.000  0.077 -0.000
       0.000  0.000 -0.439 -0.000  0.434

     Number of occupied Hubbard levels =   12.3552

     HUBBARD ENERGY =    0.1228  (Ry)

     total cpu time spent up to now is       89.4 secs

     total energy              =   -1090.44519173 Ry
     estimated scf accuracy    <       0.00159152 Ry

     total magnetization       =     8.00 Bohr mag/cell
     absolute magnetization    =     8.02 Bohr mag/cell

     iteration #  6     ecut=   120.00 Ry     beta= 0.70
     Davidson diagonalization with overlap

---- Real-time Memory Report at c_bands before calling an iterative solver
           265 MiB given to the printing process from OS
           231 MiB allocation reported by mallinfo(arena+hblkhd)
        672799 MiB available memory on the node where the printing process lives
------------------
     ethr =  1.47E-06,  avg # of iterations =  2.7

     =================== HUBBARD OCCUPATIONS ===================
     ------------------------ ATOM    1 ------------------------
     Tr[ns(  1)] (up, down, total) =   4.92705  0.27006  5.19711
     Atomic magnetic moment for atom   1 =   4.65699
     SPIN  1
     eigenvalues:
       0.971  0.973  0.994  0.995  0.995
     eigenvectors (columns):
      -0.575 -0.000  0.817  0.000 -0.035
       0.790  0.000  0.566  0.000  0.233
      -0.000  0.529  0.000 -0.849 -0.000
      -0.211  0.000 -0.106 -0.000  0.972
      -0.000  0.849 -0.000  0.529  0.000
     occupation matrix ns (before diag.):
       0.986  0.010 -0.000 -0.003  0.000
       0.010  0.980 -0.000  0.004  0.000
      -0.000 -0.000  0.988 -0.000 -0.010
      -0.003  0.004 -0.000  0.994 -0.000
       0.000  0.000 -0.010 -0.000  0.979
     SPIN  2
     eigenvalues:
       0.026  0.027  0.031  0.091  0.095
     eigenvectors (columns):
      -0.000  0.843 -0.106  0.000  0.527
      -0.000  0.480 -0.290 -0.000 -0.828
      -0.824 -0.000  0.000  0.567  0.000
       0.000 -0.241 -0.951 -0.000  0.194
       0.567  0.000 -0.000  0.824 -0.000
     occupation matrix ns (before diag.):
       0.046 -0.029  0.000  0.007  0.000
      -0.029  0.074 -0.000 -0.010  0.000
       0.000 -0.000  0.047 -0.000  0.030
       0.007 -0.010 -0.000  0.033 -0.000
       0.000  0.000  0.030 -0.000  0.070
     ------------------------ ATOM    2 ------------------------
     Tr[ns(  2)] (up, down, total) =   4.97741  2.18726  7.16466
     Atomic magnetic moment for atom   2 =   2.79015
     SPIN  1
     eigenvalues:
       0.992  0.993  0.997  0.997  0.998
     eigenvectors (columns):
      -0.602 -0.000 -0.799  0.000 -0.008
       0.771 -0.000 -0.579  0.000 -0.265
       0.000  0.537 -0.000 -0.844  0.000
      -0.207  0.000  0.166 -0.000 -0.964
      -0.000  0.844  0.000  0.537 -0.000
     occupation matrix ns (before diag.):
       0.995  0.003 -0.000 -0.001  0.000
       0.003  0.994 -0.000  0.001  0.000
      -0.000 -0.000  0.996 -0.000 -0.002
      -0.001  0.001 -0.000  0.998 -0.000
       0.000  0.000 -0.002 -0.000  0.994
     SPIN  2
     eigenvalues:
       0.029  0.081  0.091  0.993  0.993
     eigenvectors (columns):
      -0.093  0.559 -0.000 -0.824  0.000
      -0.266 -0.812 -0.000 -0.520  0.000
      -0.000  0.000  0.630 -0.000 -0.777
      -0.959  0.171 -0.000  0.224 -0.000
      -0.000 -0.000  0.777  0.000  0.630
     occupation matrix ns (before diag.):
       0.700  0.390 -0.000 -0.173  0.000
       0.390  0.324 -0.000 -0.120  0.000
      -0.000 -0.000  0.635  0.000 -0.441
      -0.173 -0.120  0.000  0.079 -0.000
       0.000  0.000 -0.441 -0.000  0.449

     Number of occupied Hubbard levels =   12.3618

     HUBBARD ENERGY =    0.1191  (Ry)

     total cpu time spent up to now is      102.0 secs

     total energy              =   -1090.44561760 Ry
     estimated scf accuracy    <       0.00049955 Ry

     total magnetization       =     8.00 Bohr mag/cell
     absolute magnetization    =     8.02 Bohr mag/cell

     iteration #  7     ecut=   120.00 Ry     beta= 0.70
     Davidson diagonalization with overlap

---- Real-time Memory Report at c_bands before calling an iterative solver
           266 MiB given to the printing process from OS
           232 MiB allocation reported by mallinfo(arena+hblkhd)
        670981 MiB available memory on the node where the printing process lives
------------------
     ethr =  4.63E-07,  avg # of iterations =  2.2

     =================== HUBBARD OCCUPATIONS ===================
     ------------------------ ATOM    1 ------------------------
     Tr[ns(  1)] (up, down, total) =   4.92731  0.26977  5.19708
     Atomic magnetic moment for atom   1 =   4.65754
     SPIN  1
     eigenvalues:
       0.971  0.973  0.994  0.995  0.995
     eigenvectors (columns):
      -0.576 -0.000  0.817  0.000 -0.040
       0.790  0.000  0.568  0.000  0.230
      -0.000  0.529  0.000 -0.849 -0.000
      -0.210  0.000 -0.100 -0.000  0.972
      -0.000  0.849 -0.000  0.529  0.000
     occupation matrix ns (before diag.):
       0.986  0.010 -0.000 -0.003  0.000
       0.010  0.980 -0.000  0.004  0.000
      -0.000 -0.000  0.989 -0.000 -0.010
      -0.003  0.004 -0.000  0.994 -0.000
       0.000  0.000 -0.010 -0.000  0.979
     SPIN  2
     eigenvalues:
       0.026  0.027  0.031  0.091  0.094
     eigenvectors (columns):
      -0.000  0.843 -0.108  0.000  0.527
      -0.000  0.480 -0.291 -0.000 -0.828
      -0.824 -0.000  0.000  0.567  0.000
       0.000 -0.242 -0.951 -0.000  0.194
       0.567  0.000 -0.000  0.824 -0.000
     occupation matrix ns (before diag.):
       0.046 -0.029  0.000  0.007  0.000
      -0.029  0.074 -0.000 -0.010  0.000
       0.000 -0.000  0.047 -0.000  0.030
       0.007 -0.010 -0.000  0.033 -0.000
       0.000  0.000  0.030 -0.000  0.070
     ------------------------ ATOM    2 ------------------------
     Tr[ns(  2)] (up, down, total) =   4.97771  2.18899  7.16670
     Atomic magnetic moment for atom   2 =   2.78872
     SPIN  1
     eigenvalues:
       0.992  0.993  0.997  0.997  0.998
     eigenvectors (columns):
      -0.597 -0.000 -0.802  0.000 -0.011
       0.775 -0.000 -0.573  0.000 -0.268
       0.000  0.528 -0.000 -0.849  0.000
      -0.209  0.000  0.168 -0.000 -0.963
      -0.000  0.849  0.000  0.528  0.000
     occupation matrix ns (before diag.):
       0.995  0.003 -0.000 -0.001  0.000
       0.003  0.994 -0.000  0.001  0.000
      -0.000 -0.000  0.996 -0.000 -0.002
      -0.001  0.001 -0.000  0.998 -0.000
       0.000  0.000 -0.002 -0.000  0.994
     SPIN  2
     eigenvalues:
       0.028  0.081  0.092  0.993  0.994
     eigenvectors (columns):
      -0.090  0.565  0.000 -0.820  0.000
      -0.266 -0.807 -0.000 -0.527  0.000
      -0.000 -0.000  0.645 -0.000 -0.764
      -0.960  0.170 -0.000  0.223 -0.000
      -0.000 -0.000  0.764  0.000  0.645
     occupation matrix ns (before diag.):
       0.694  0.393 -0.000 -0.171  0.000
       0.393  0.331 -0.000 -0.121  0.000
      -0.000 -0.000  0.618  0.000 -0.444
      -0.171 -0.121  0.000  0.078 -0.000
       0.000  0.000 -0.444 -0.000  0.468

     Number of occupied Hubbard levels =   12.3638

     HUBBARD ENERGY =    0.1180  (Ry)

     total cpu time spent up to now is      115.6 secs

     total energy              =   -1090.44595809 Ry
     estimated scf accuracy    <       0.00021094 Ry

     total magnetization       =     8.00 Bohr mag/cell
     absolute magnetization    =     8.02 Bohr mag/cell

     iteration #  8     ecut=   120.00 Ry     beta= 0.70
     Davidson diagonalization with overlap

---- Real-time Memory Report at c_bands before calling an iterative solver
           267 MiB given to the printing process from OS
           233 MiB allocation reported by mallinfo(arena+hblkhd)
        670959 MiB available memory on the node where the printing process lives
------------------
     ethr =  1.95E-07,  avg # of iterations =  2.7

     =================== HUBBARD OCCUPATIONS ===================
     ------------------------ ATOM    1 ------------------------
     Tr[ns(  1)] (up, down, total) =   4.92686  0.26945  5.19632
     Atomic magnetic moment for atom   1 =   4.65741
     SPIN  1
     eigenvalues:
       0.971  0.973  0.994  0.995  0.995
     eigenvectors (columns):
      -0.575 -0.000  0.817  0.000 -0.038
       0.790  0.000  0.567  0.000  0.231
       0.000  0.529  0.000 -0.849 -0.000
      -0.210  0.000 -0.103 -0.000  0.972
      -0.000  0.849 -0.000  0.529  0.000
     occupation matrix ns (before diag.):
       0.986  0.011 -0.000 -0.003  0.000
       0.011  0.980 -0.000  0.004  0.000
      -0.000 -0.000  0.988 -0.000 -0.010
      -0.003  0.004 -0.000  0.994 -0.000
       0.000  0.000 -0.010 -0.000  0.979
     SPIN  2
     eigenvalues:
       0.026  0.027  0.031  0.091  0.094
     eigenvectors (columns):
      -0.000  0.843 -0.106  0.000  0.527
      -0.000  0.480 -0.290 -0.000 -0.828
      -0.824 -0.000  0.000  0.567  0.000
       0.000 -0.241 -0.951 -0.000  0.194
       0.567  0.000 -0.000  0.824 -0.000
     occupation matrix ns (before diag.):
       0.046 -0.029  0.000  0.007  0.000
      -0.029  0.073 -0.000 -0.010  0.000
       0.000 -0.000  0.047 -0.000  0.030
       0.007 -0.010 -0.000  0.033 -0.000
       0.000  0.000  0.030 -0.000  0.070
     ------------------------ ATOM    2 ------------------------
     Tr[ns(  2)] (up, down, total) =   4.97767  2.18880  7.16647
     Atomic magnetic moment for atom   2 =   2.78887
     SPIN  1
     eigenvalues:
       0.992  0.993  0.997  0.997  0.998
     eigenvectors (columns):
      -0.592 -0.000 -0.806  0.000 -0.014
       0.778 -0.000 -0.567  0.000 -0.270
       0.000  0.518 -0.000 -0.855  0.000
      -0.210  0.000  0.171 -0.000 -0.963
      -0.000  0.855  0.000  0.518  0.000
     occupation matrix ns (before diag.):
       0.995  0.003 -0.000 -0.001  0.000
       0.003  0.994 -0.000  0.001  0.000
      -0.000 -0.000  0.996 -0.000 -0.002
      -0.001  0.001 -0.000  0.998 -0.000
       0.000  0.000 -0.002 -0.000  0.994
     SPIN  2
     eigenvalues:
       0.028  0.082  0.092  0.993  0.994
     eigenvectors (columns):
      -0.082  0.571  0.000 -0.817  0.000
      -0.262 -0.803 -0.000 -0.535  0.000
      -0.000  0.000  0.662 -0.000 -0.749
      -0.962  0.170 -0.000  0.215 -0.000
      -0.000 -0.000  0.749  0.000  0.662
     occupation matrix ns (before diag.):
       0.690  0.398 -0.000 -0.165  0.000
       0.398  0.339 -0.000 -0.119  0.000
      -0.000 -0.000  0.598  0.000 -0.447
      -0.165 -0.119  0.000  0.074 -0.000
       0.000  0.000 -0.447 -0.000  0.487

     Number of occupied Hubbard levels =   12.3628

     HUBBARD ENERGY =    0.1191  (Ry)

     total cpu time spent up to now is      129.5 secs

     total energy              =   -1090.44633765 Ry
     estimated scf accuracy    <       0.00012799 Ry

     total magnetization       =     8.00 Bohr mag/cell
     absolute magnetization    =     8.02 Bohr mag/cell

     iteration #  9     ecut=   120.00 Ry     beta= 0.70
     Davidson diagonalization with overlap

---- Real-time Memory Report at c_bands before calling an iterative solver
           267 MiB given to the printing process from OS
           233 MiB allocation reported by mallinfo(arena+hblkhd)
        670937 MiB available memory on the node where the printing process lives
------------------
     ethr =  1.19E-07,  avg # of iterations =  2.9

     =================== HUBBARD OCCUPATIONS ===================
     ------------------------ ATOM    1 ------------------------
     Tr[ns(  1)] (up, down, total) =   4.92688  0.26943  5.19630
     Atomic magnetic moment for atom   1 =   4.65745
     SPIN  1
     eigenvalues:
       0.971  0.973  0.994  0.995  0.995
     eigenvectors (columns):
      -0.576 -0.000  0.817  0.000 -0.039
       0.790  0.000  0.568  0.000  0.230
       0.000  0.529  0.000 -0.849 -0.000
      -0.210  0.000 -0.102 -0.000  0.972
      -0.000  0.849 -0.000  0.529  0.000
     occupation matrix ns (before diag.):
       0.986  0.011 -0.000 -0.003  0.000
       0.011  0.980 -0.000  0.004  0.000
      -0.000 -0.000  0.988 -0.000 -0.010
      -0.003  0.004 -0.000  0.994 -0.000
       0.000  0.000 -0.010 -0.000  0.979
     SPIN  2
     eigenvalues:
       0.026  0.027  0.031  0.091  0.094
     eigenvectors (columns):
      -0.000  0.844 -0.105  0.000  0.526
      -0.000  0.481 -0.289 -0.000 -0.828
      -0.824 -0.000  0.000  0.567  0.000
       0.000 -0.239 -0.951 -0.000  0.194
       0.567  0.000 -0.000  0.824 -0.000
     occupation matrix ns (before diag.):
       0.046 -0.029  0.000  0.007  0.000
      -0.029  0.073 -0.000 -0.010  0.000
       0.000 -0.000  0.047 -0.000  0.030
       0.007 -0.010 -0.000  0.033 -0.000
       0.000  0.000  0.030 -0.000  0.070
     ------------------------ ATOM    2 ------------------------
     Tr[ns(  2)] (up, down, total) =   4.97772  2.18861  7.16633
     Atomic magnetic moment for atom   2 =   2.78912
     SPIN  1
     eigenvalues:
       0.992  0.993  0.997  0.997  0.998
     eigenvectors (columns):
      -0.588 -0.000 -0.809  0.000 -0.013
       0.781 -0.000 -0.563  0.000 -0.270
       0.000  0.510 -0.000 -0.860  0.000
      -0.211  0.000  0.169 -0.000 -0.963
      -0.000  0.860  0.000  0.510 -0.000
     occupation matrix ns (before diag.):
       0.995  0.002 -0.000 -0.001  0.000
       0.002  0.994 -0.000  0.001  0.000
      -0.000 -0.000  0.996 -0.000 -0.002
      -0.001  0.001 -0.000  0.998 -0.000
       0.000  0.000 -0.002 -0.000  0.994
     SPIN  2
     eigenvalues:
       0.028  0.082  0.092  0.993  0.993
     eigenvectors (columns):
      -0.073  0.575  0.000 -0.815  0.000
      -0.257 -0.800 -0.000 -0.542  0.000
      -0.000 -0.000  0.676 -0.000 -0.737
      -0.964  0.170 -0.000  0.206 -0.000
      -0.000 -0.000  0.737  0.000  0.676
     occupation matrix ns (before diag.):
       0.686  0.402 -0.000 -0.157  0.000
       0.402  0.346 -0.000 -0.115  0.000
      -0.000 -0.000  0.582  0.000 -0.449
      -0.157 -0.115  0.000  0.071 -0.000
       0.000  0.000 -0.449 -0.000  0.503

     Number of occupied Hubbard levels =   12.3626

     HUBBARD ENERGY =    0.1185  (Ry)

     total cpu time spent up to now is      143.4 secs

     total energy              =   -1090.44667589 Ry
     estimated scf accuracy    <       0.00009631 Ry

     total magnetization       =     8.00 Bohr mag/cell
     absolute magnetization    =     8.02 Bohr mag/cell

     iteration # 10     ecut=   120.00 Ry     beta= 0.70
     Davidson diagonalization with overlap

---- Real-time Memory Report at c_bands before calling an iterative solver
           268 MiB given to the printing process from OS
           234 MiB allocation reported by mallinfo(arena+hblkhd)
        670907 MiB available memory on the node where the printing process lives
------------------
     ethr =  8.92E-08,  avg # of iterations =  2.1

     =================== HUBBARD OCCUPATIONS ===================
     ------------------------ ATOM    1 ------------------------
     Tr[ns(  1)] (up, down, total) =   4.92690  0.26939  5.19629
     Atomic magnetic moment for atom   1 =   4.65750
     SPIN  1
     eigenvalues:
       0.971  0.973  0.994  0.995  0.995
     eigenvectors (columns):
      -0.576 -0.000  0.817  0.000 -0.040
       0.790  0.000  0.568  0.000  0.230
       0.000  0.529  0.000 -0.849 -0.000
      -0.210  0.000 -0.101 -0.000  0.972
      -0.000  0.849 -0.000  0.529  0.000
     occupation matrix ns (before diag.):
       0.986  0.011 -0.000 -0.003  0.000
       0.011  0.980 -0.000  0.004  0.000
      -0.000 -0.000  0.988 -0.000 -0.010
      -0.003  0.004 -0.000  0.994 -0.000
       0.000  0.000 -0.010 -0.000  0.979
     SPIN  2
     eigenvalues:
       0.026  0.027  0.031  0.091  0.094
     eigenvectors (columns):
      -0.000  0.844 -0.104  0.000  0.526
      -0.000  0.481 -0.289 -0.000 -0.828
      -0.824 -0.000  0.000  0.567  0.000
       0.000 -0.238 -0.952 -0.000  0.194
       0.567  0.000 -0.000  0.824 -0.000
     occupation matrix ns (before diag.):
       0.046 -0.029  0.000  0.007  0.000
      -0.029  0.073 -0.000 -0.010  0.000
       0.000 -0.000  0.047 -0.000  0.030
       0.007 -0.010 -0.000  0.033 -0.000
       0.000  0.000  0.030 -0.000  0.070
     ------------------------ ATOM    2 ------------------------
     Tr[ns(  2)] (up, down, total) =   4.97773  2.18809  7.16583
     Atomic magnetic moment for atom   2 =   2.78964
     SPIN  1
     eigenvalues:
       0.992  0.993  0.997  0.997  0.998
     eigenvectors (columns):
      -0.587 -0.000 -0.809  0.000 -0.010
       0.781  0.000 -0.564  0.000 -0.268
       0.000  0.507 -0.000 -0.862  0.000
      -0.211  0.000  0.165 -0.000 -0.963
      -0.000  0.862  0.000  0.507 -0.000
     occupation matrix ns (before diag.):
       0.995  0.002 -0.000 -0.001  0.000
       0.002  0.994 -0.000  0.001  0.000
      -0.000 -0.000  0.996 -0.000 -0.002
      -0.001  0.001 -0.000  0.998 -0.000
       0.000  0.000 -0.002 -0.000  0.994
     SPIN  2
     eigenvalues:
       0.028  0.082  0.091  0.993  0.993
     eigenvectors (columns):
      -0.065  0.577  0.000 -0.000 -0.814
      -0.253 -0.799 -0.000 -0.000 -0.546
      -0.000 -0.000  0.683 -0.731  0.000
      -0.965  0.171 -0.000  0.000  0.198
      -0.000 -0.000  0.731  0.683 -0.000
     occupation matrix ns (before diag.):
       0.686  0.404 -0.000 -0.150  0.000
       0.404  0.350 -0.000 -0.112  0.000
      -0.000 -0.000  0.573  0.000 -0.450
      -0.150 -0.112  0.000  0.067 -0.000
       0.000  0.000 -0.450 -0.000  0.512

     Number of occupied Hubbard levels =   12.3621

     HUBBARD ENERGY =    0.1183  (Ry)

     total cpu time spent up to now is      156.2 secs

     total energy              =   -1090.44671840 Ry
     estimated scf accuracy    <       0.00009333 Ry

     total magnetization       =     8.00 Bohr mag/cell
     absolute magnetization    =     8.02 Bohr mag/cell

     iteration # 11     ecut=   120.00 Ry     beta= 0.70
     Davidson diagonalization with overlap

---- Real-time Memory Report at c_bands before calling an iterative solver
           268 MiB given to the printing process from OS
           234 MiB allocation reported by mallinfo(arena+hblkhd)
        667571 MiB available memory on the node where the printing process lives
------------------
     ethr =  8.64E-08,  avg # of iterations =  2.8

     =================== HUBBARD OCCUPATIONS ===================
     ------------------------ ATOM    1 ------------------------
     Tr[ns(  1)] (up, down, total) =   4.92694  0.26950  5.19644
     Atomic magnetic moment for atom   1 =   4.65745
     SPIN  1
     eigenvalues:
       0.971  0.973  0.994  0.995  0.995
     eigenvectors (columns):
      -0.575 -0.000  0.817  0.000 -0.039
       0.790  0.000  0.568  0.000  0.230
       0.000  0.529  0.000 -0.849 -0.000
      -0.210  0.000 -0.101 -0.000  0.972
      -0.000  0.849 -0.000  0.529  0.000
     occupation matrix ns (before diag.):
       0.986  0.010 -0.000 -0.003  0.000
       0.010  0.980 -0.000  0.004  0.000
      -0.000 -0.000  0.988 -0.000 -0.010
      -0.003  0.004 -0.000  0.994 -0.000
       0.000  0.000 -0.010 -0.000  0.979
     SPIN  2
     eigenvalues:
       0.026  0.027  0.031  0.091  0.094
     eigenvectors (columns):
      -0.000  0.844 -0.102  0.000  0.526
      -0.000  0.482 -0.288 -0.000 -0.828
      -0.824 -0.000  0.000  0.567  0.000
       0.000 -0.236 -0.952 -0.000  0.194
       0.567  0.000 -0.000  0.824 -0.000
     occupation matrix ns (before diag.):
       0.046 -0.029  0.000  0.007  0.000
      -0.029  0.073 -0.000 -0.010  0.000
       0.000 -0.000  0.047 -0.000  0.030
       0.007 -0.010 -0.000  0.033 -0.000
       0.000  0.000  0.030 -0.000  0.070
     ------------------------ ATOM    2 ------------------------
     Tr[ns(  2)] (up, down, total) =   4.97773  2.18745  7.16518
     Atomic magnetic moment for atom   2 =   2.79028
     SPIN  1
     eigenvalues:
       0.992  0.993  0.997  0.997  0.998
     eigenvectors (columns):
      -0.587 -0.000 -0.810  0.000  0.001
       0.782 -0.000 -0.567  0.000 -0.260
       0.000  0.504 -0.000 -0.864  0.000
      -0.211  0.000  0.152 -0.000 -0.966
      -0.000  0.864  0.000  0.504 -0.000
     occupation matrix ns (before diag.):
       0.995  0.002 -0.000 -0.001  0.000
       0.002  0.994 -0.000  0.001  0.000
      -0.000 -0.000  0.996 -0.000 -0.002
      -0.001  0.001 -0.000  0.998 -0.000
       0.000  0.000 -0.002 -0.000  0.994
     SPIN  2
     eigenvalues:
       0.028  0.082  0.091  0.993  0.993
     eigenvectors (columns):
      -0.047  0.578  0.000 -0.000 -0.814
      -0.243 -0.797 -0.000 -0.000 -0.552
      -0.000 -0.000  0.694 -0.720  0.000
      -0.969  0.172 -0.000  0.000  0.178
      -0.000 -0.000  0.720  0.694 -0.000
     occupation matrix ns (before diag.):
       0.686  0.409 -0.000 -0.135  0.000
       0.409  0.357 -0.000 -0.102  0.000
      -0.000 -0.000  0.558  0.000 -0.451
      -0.135 -0.102  0.000  0.060 -0.000
       0.000  0.000 -0.451 -0.000  0.526

     Number of occupied Hubbard levels =   12.3616

     HUBBARD ENERGY =    0.1178  (Ry)

     total cpu time spent up to now is      170.1 secs

     total energy              =   -1090.44636945 Ry
     estimated scf accuracy    <       0.00009455 Ry

     total magnetization       =     8.00 Bohr mag/cell
     absolute magnetization    =     8.02 Bohr mag/cell

     iteration # 12     ecut=   120.00 Ry     beta= 0.70
     Davidson diagonalization with overlap

---- Real-time Memory Report at c_bands before calling an iterative solver
           268 MiB given to the printing process from OS
           234 MiB allocation reported by mallinfo(arena+hblkhd)
        672698 MiB available memory on the node where the printing process lives
------------------
     ethr =  8.64E-08,  avg # of iterations =  2.0

     =================== HUBBARD OCCUPATIONS ===================
     ------------------------ ATOM    1 ------------------------
     Tr[ns(  1)] (up, down, total) =   4.92688  0.26941  5.19629
     Atomic magnetic moment for atom   1 =   4.65748
     SPIN  1
     eigenvalues:
       0.971  0.973  0.994  0.995  0.995
     eigenvectors (columns):
      -0.575 -0.000  0.817  0.000 -0.039
       0.790  0.000  0.568  0.000  0.230
       0.000  0.529  0.000 -0.849 -0.000
      -0.210  0.000 -0.102 -0.000  0.972
      -0.000  0.849 -0.000  0.529  0.000
     occupation matrix ns (before diag.):
       0.986  0.011 -0.000 -0.003  0.000
       0.011  0.980 -0.000  0.004  0.000
      -0.000 -0.000  0.988 -0.000 -0.010
      -0.003  0.004 -0.000  0.994 -0.000
       0.000  0.000 -0.010 -0.000  0.979
     SPIN  2
     eigenvalues:
       0.026  0.027  0.031  0.091  0.094
     eigenvectors (columns):
      -0.000  0.844 -0.104  0.000  0.526
      -0.000  0.481 -0.289 -0.000 -0.828
      -0.824 -0.000  0.000  0.567  0.000
       0.000 -0.238 -0.952 -0.000  0.194
       0.567  0.000 -0.000  0.824 -0.000
     occupation matrix ns (before diag.):
       0.046 -0.029  0.000  0.007  0.000
      -0.029  0.073 -0.000 -0.010  0.000
       0.000 -0.000  0.047 -0.000  0.030
       0.007 -0.010 -0.000  0.033 -0.000
       0.000  0.000  0.030 -0.000  0.070
     ------------------------ ATOM    2 ------------------------
     Tr[ns(  2)] (up, down, total) =   4.97772  2.18784  7.16555
     Atomic magnetic moment for atom   2 =   2.78988
     SPIN  1
     eigenvalues:
       0.992  0.993  0.997  0.997  0.998
     eigenvectors (columns):
       0.587 -0.000 -0.810  0.000  0.011
      -0.782  0.000 -0.563  0.000  0.268
      -0.000  0.506 -0.000 -0.863 -0.000
       0.211  0.000  0.166 -0.000  0.963
       0.000  0.863  0.000  0.506  0.000
     occupation matrix ns (before diag.):
       0.995  0.002 -0.000 -0.001  0.000
       0.002  0.994 -0.000  0.001  0.000
      -0.000 -0.000  0.996 -0.000 -0.002
      -0.001  0.001 -0.000  0.998 -0.000
       0.000  0.000 -0.002 -0.000  0.994
     SPIN  2
     eigenvalues:
       0.028  0.082  0.091  0.993  0.993
     eigenvectors (columns):
      -0.066  0.577 -0.000 -0.000 -0.814
      -0.254 -0.799 -0.000 -0.000 -0.545
      -0.000  0.000  0.684 -0.730  0.000
      -0.965  0.171 -0.000  0.000  0.199
      -0.000 -0.000  0.730  0.684 -0.000
     occupation matrix ns (before diag.):
       0.686  0.404 -0.000 -0.151  0.000
       0.404  0.350 -0.000 -0.112  0.000
      -0.000 -0.000  0.572  0.000 -0.450
      -0.151 -0.112  0.000  0.068 -0.000
       0.000  0.000 -0.450 -0.000  0.513

     Number of occupied Hubbard levels =   12.3618

     HUBBARD ENERGY =    0.1175  (Ry)

     total cpu time spent up to now is      183.4 secs

     total energy              =   -1090.44584412 Ry
     estimated scf accuracy    <       0.00009856 Ry

     total magnetization       =     8.00 Bohr mag/cell
     absolute magnetization    =     8.02 Bohr mag/cell

     iteration # 13     ecut=   120.00 Ry     beta= 0.70
     Davidson diagonalization with overlap

---- Real-time Memory Report at c_bands before calling an iterative solver
           268 MiB given to the printing process from OS
           234 MiB allocation reported by mallinfo(arena+hblkhd)
        670897 MiB available memory on the node where the printing process lives
------------------
     ethr =  8.64E-08,  avg # of iterations =  2.9

     =================== HUBBARD OCCUPATIONS ===================
     ------------------------ ATOM    1 ------------------------
     Tr[ns(  1)] (up, down, total) =   4.92691  0.26946  5.19637
     Atomic magnetic moment for atom   1 =   4.65744
     SPIN  1
     eigenvalues:
       0.971  0.973  0.994  0.995  0.995
     eigenvectors (columns):
      -0.575 -0.000  0.817  0.000 -0.039
       0.790  0.000  0.568  0.000  0.230
       0.000  0.529  0.000 -0.849 -0.000
      -0.210  0.000 -0.102 -0.000  0.972
      -0.000  0.849 -0.000  0.529  0.000
     occupation matrix ns (before diag.):
       0.986  0.011 -0.000 -0.003  0.000
       0.011  0.980 -0.000  0.004  0.000
      -0.000 -0.000  0.988 -0.000 -0.010
      -0.003  0.004 -0.000  0.994 -0.000
       0.000  0.000 -0.010 -0.000  0.979
     SPIN  2
     eigenvalues:
       0.026  0.027  0.031  0.091  0.094
     eigenvectors (columns):
      -0.000 -0.844 -0.101  0.000  0.526
      -0.000 -0.482 -0.287 -0.000 -0.828
      -0.824  0.000  0.000  0.567  0.000
       0.000  0.234 -0.953 -0.000  0.194
       0.567 -0.000 -0.000  0.824 -0.000
     occupation matrix ns (before diag.):
       0.046 -0.029  0.000  0.007  0.000
      -0.029  0.073 -0.000 -0.010  0.000
       0.000 -0.000  0.047 -0.000  0.030
       0.007 -0.010 -0.000  0.033 -0.000
       0.000  0.000  0.030 -0.000  0.070
     ------------------------ ATOM    2 ------------------------
     Tr[ns(  2)] (up, down, total) =   4.97774  2.18692  7.16466
     Atomic magnetic moment for atom   2 =   2.79082
     SPIN  1
     eigenvalues:
       0.992  0.993  0.997  0.997  0.998
     eigenvectors (columns):
       0.587 -0.000 -0.809  0.000 -0.014
      -0.781 -0.000 -0.572  0.000  0.251
      -0.000  0.502 -0.000 -0.865 -0.000
       0.211  0.000  0.136 -0.000  0.968
       0.000  0.865  0.000  0.502 -0.000
     occupation matrix ns (before diag.):
       0.995  0.002 -0.000 -0.001  0.000
       0.002  0.994 -0.000  0.001  0.000
      -0.000 -0.000  0.996 -0.000 -0.002
      -0.001  0.001 -0.000  0.998 -0.000
       0.000  0.000 -0.002 -0.000  0.994
     SPIN  2
     eigenvalues:
       0.028  0.082  0.090  0.993  0.994
     eigenvectors (columns):
      -0.027  0.580  0.000 -0.000 -0.814
      -0.232 -0.796 -0.000 -0.000 -0.559
      -0.000 -0.000  0.703 -0.711  0.000
      -0.972  0.174 -0.000  0.000  0.156
      -0.000 -0.000  0.711  0.703 -0.000
     occupation matrix ns (before diag.):
       0.686  0.415 -0.000 -0.117  0.000
       0.415  0.364 -0.000 -0.092  0.000
      -0.000 -0.000  0.547  0.000 -0.452
      -0.117 -0.092  0.000  0.053 -0.000
       0.000  0.000 -0.452 -0.000  0.537

     Number of occupied Hubbard levels =   12.3610

     HUBBARD ENERGY =    0.0991  (Ry)

     total cpu time spent up to now is      198.3 secs

     total energy              =   -1090.43233880 Ry
     estimated scf accuracy    <       0.00009698 Ry

     total magnetization       =     8.00 Bohr mag/cell
     absolute magnetization    =     8.02 Bohr mag/cell

     iteration # 14     ecut=   120.00 Ry     beta= 0.70
     Davidson diagonalization with overlap

---- Real-time Memory Report at c_bands before calling an iterative solver
           268 MiB given to the printing process from OS
           234 MiB allocation reported by mallinfo(arena+hblkhd)
        668381 MiB available memory on the node where the printing process lives
------------------
     ethr =  8.64E-08,  avg # of iterations =  5.1

     =================== HUBBARD OCCUPATIONS ===================
     ------------------------ ATOM    1 ------------------------
     Tr[ns(  1)] (up, down, total) =   4.92701  0.26955  5.19656
     Atomic magnetic moment for atom   1 =   4.65745
     SPIN  1
     eigenvalues:
       0.971  0.973  0.994  0.995  0.995
     eigenvectors (columns):
      -0.575 -0.000  0.817  0.000 -0.042
       0.790  0.000  0.568  0.000  0.229
      -0.000  0.529  0.000 -0.849 -0.000
      -0.211  0.000 -0.099 -0.000  0.973
      -0.000  0.849 -0.000  0.529  0.000
     occupation matrix ns (before diag.):
       0.986  0.010 -0.000 -0.003  0.000
       0.010  0.980 -0.000  0.004  0.000
      -0.000 -0.000  0.988 -0.000 -0.010
      -0.003  0.004 -0.000  0.994 -0.000
       0.000  0.000 -0.010 -0.000  0.979
     SPIN  2
     eigenvalues:
       0.026  0.027  0.031  0.091  0.094
     eigenvectors (columns):
      -0.000  0.845 -0.090  0.000  0.527
      -0.000  0.486 -0.281 -0.000 -0.828
      -0.823 -0.000  0.000  0.568  0.000
       0.000 -0.222 -0.956 -0.000  0.194
       0.568  0.000 -0.000  0.823 -0.000
     occupation matrix ns (before diag.):
       0.046 -0.029  0.000  0.007  0.000
      -0.029  0.073 -0.000 -0.010  0.000
       0.000 -0.000  0.047 -0.000  0.030
       0.007 -0.010 -0.000  0.033 -0.000
       0.000  0.000  0.030 -0.000  0.070
     ------------------------ ATOM    2 ------------------------
     Tr[ns(  2)] (up, down, total) =   4.97783  2.18107  7.15890
     Atomic magnetic moment for atom   2 =   2.79676
     SPIN  1
     eigenvalues:
       0.992  0.993  0.997  0.998  0.999
     eigenvectors (columns):
       0.589 -0.000  0.802  0.000  0.098
      -0.780  0.000  0.596  0.000 -0.191
      -0.000  0.489  0.000 -0.872  0.000
       0.212  0.000 -0.036 -0.000 -0.977
       0.000  0.872 -0.000  0.489  0.000
     occupation matrix ns (before diag.):
       0.995  0.002 -0.000 -0.001  0.000
       0.002  0.994 -0.000  0.001  0.000
      -0.000 -0.000  0.996 -0.000 -0.002
      -0.001  0.001 -0.000  0.998 -0.000
       0.000  0.000 -0.002 -0.000  0.994
     SPIN  2
     eigenvalues:
       0.026  0.084  0.084  0.993  0.994
     eigenvectors (columns):
      -0.100  0.589  0.000 -0.000  0.802
       0.163 -0.785 -0.000 -0.000  0.597
       0.000 -0.000  0.759 -0.651 -0.000
       0.982  0.190  0.000  0.000 -0.018
       0.000 -0.000  0.651  0.759  0.000
     occupation matrix ns (before diag.):
       0.668  0.437 -0.000 -0.008  0.000
       0.437  0.407 -0.000 -0.019  0.000
      -0.000 -0.000  0.469  0.000 -0.449
      -0.008 -0.019  0.000  0.028 -0.000
       0.000  0.000 -0.449 -0.000  0.608

     Number of occupied Hubbard levels =   12.3555

     HUBBARD ENERGY =    0.1225  (Ry)

     total cpu time spent up to now is      218.7 secs

     total energy              =   -1090.43641488 Ry
     estimated scf accuracy    <       0.00058390 Ry

     total magnetization       =     8.00 Bohr mag/cell
     absolute magnetization    =     8.02 Bohr mag/cell

     iteration # 15     ecut=   120.00 Ry     beta= 0.70
     Davidson diagonalization with overlap

---- Real-time Memory Report at c_bands before calling an iterative solver
           268 MiB given to the printing process from OS
           234 MiB allocation reported by mallinfo(arena+hblkhd)
        670887 MiB available memory on the node where the printing process lives
------------------
     ethr =  8.64E-08,  avg # of iterations =  4.5

     =================== HUBBARD OCCUPATIONS ===================
     ------------------------ ATOM    1 ------------------------
     Tr[ns(  1)] (up, down, total) =   4.92700  0.26958  5.19658
     Atomic magnetic moment for atom   1 =   4.65741
     SPIN  1
     eigenvalues:
       0.971  0.973  0.994  0.995  0.995
     eigenvectors (columns):
      -0.575 -0.000  0.817  0.000 -0.040
       0.790  0.000  0.568  0.000  0.230
       0.000  0.529  0.000 -0.849 -0.000
      -0.210  0.000 -0.100 -0.000  0.972
      -0.000  0.849 -0.000  0.529  0.000
     occupation matrix ns (before diag.):
       0.986  0.010 -0.000 -0.003  0.000
       0.010  0.980 -0.000  0.004  0.000
      -0.000 -0.000  0.988 -0.000 -0.010
      -0.003  0.004 -0.000  0.994 -0.000
       0.000  0.000 -0.010 -0.000  0.979
     SPIN  2
     eigenvalues:
       0.026  0.027  0.031  0.091  0.094
     eigenvectors (columns):
      -0.000  0.844 -0.099  0.000  0.526
      -0.000  0.483 -0.286 -0.000 -0.828
      -0.824 -0.000  0.000  0.567  0.000
       0.000 -0.233 -0.953 -0.000  0.194
       0.567  0.000 -0.000  0.824 -0.000
     occupation matrix ns (before diag.):
       0.046 -0.029  0.000  0.007  0.000
      -0.029  0.073 -0.000 -0.010  0.000
       0.000 -0.000  0.047 -0.000  0.030
       0.007 -0.010 -0.000  0.033 -0.000
       0.000  0.000  0.030 -0.000  0.070
     ------------------------ ATOM    2 ------------------------
     Tr[ns(  2)] (up, down, total) =   4.97780  2.18718  7.16498
     Atomic magnetic moment for atom   2 =   2.79062
     SPIN  1
     eigenvalues:
       0.992  0.993  0.997  0.997  0.998
     eigenvectors (columns):
       0.586 -0.000 -0.810  0.000 -0.026
      -0.782 -0.000 -0.574  0.000  0.242
      -0.000  0.497 -0.000 -0.868 -0.000
       0.211  0.000  0.122 -0.000  0.970
       0.000  0.868  0.000  0.497 -0.000
     occupation matrix ns (before diag.):
       0.995  0.002 -0.000 -0.001  0.000
       0.002  0.994 -0.000  0.001  0.000
      -0.000 -0.000  0.996 -0.000 -0.002
      -0.001  0.001 -0.000  0.998 -0.000
       0.000  0.000 -0.002 -0.000  0.994
     SPIN  2
     eigenvalues:
       0.028  0.083  0.090  0.993  0.993
     eigenvectors (columns):
      -0.010  0.582  0.000 -0.000 -0.813
      -0.222 -0.794 -0.000 -0.000 -0.565
      -0.000 -0.000  0.714 -0.700  0.000
      -0.975  0.175 -0.000  0.000  0.137
      -0.000 -0.000  0.700  0.714 -0.000
     occupation matrix ns (before diag.):
       0.685  0.419 -0.000 -0.102  0.000
       0.419  0.371 -0.000 -0.082  0.000
      -0.000 -0.000  0.533  0.000 -0.452
      -0.102 -0.082  0.000  0.048 -0.000
       0.000  0.000 -0.452 -0.000  0.550

     Number of occupied Hubbard levels =   12.3616

     HUBBARD ENERGY =    0.1397  (Ry)

     total cpu time spent up to now is      237.5 secs

     total energy              =   -1090.44558823 Ry
     estimated scf accuracy    <       0.00011528 Ry

     total magnetization       =     8.00 Bohr mag/cell
     absolute magnetization    =     8.02 Bohr mag/cell

     iteration # 16     ecut=   120.00 Ry     beta= 0.70
     Davidson diagonalization with overlap

---- Real-time Memory Report at c_bands before calling an iterative solver
           268 MiB given to the printing process from OS
           234 MiB allocation reported by mallinfo(arena+hblkhd)
        667552 MiB available memory on the node where the printing process lives
------------------
     ethr =  8.64E-08,  avg # of iterations =  3.5

     =================== HUBBARD OCCUPATIONS ===================
     ------------------------ ATOM    1 ------------------------
     Tr[ns(  1)] (up, down, total) =   4.92693  0.26952  5.19645
     Atomic magnetic moment for atom   1 =   4.65741
     SPIN  1
     eigenvalues:
       0.971  0.973  0.994  0.995  0.995
     eigenvectors (columns):
      -0.575 -0.000  0.817  0.000 -0.040
       0.790  0.000  0.568  0.000  0.230
      -0.000  0.529  0.000 -0.849 -0.000
      -0.211  0.000 -0.101 -0.000  0.972
      -0.000  0.849 -0.000  0.529  0.000
     occupation matrix ns (before diag.):
       0.986  0.010 -0.000 -0.003  0.000
       0.010  0.980 -0.000  0.004  0.000
      -0.000 -0.000  0.988 -0.000 -0.010
      -0.003  0.004 -0.000  0.994 -0.000
       0.000  0.000 -0.010 -0.000  0.979
     SPIN  2
     eigenvalues:
       0.026  0.027  0.031  0.091  0.094
     eigenvectors (columns):
      -0.000  0.845 -0.095  0.000  0.527
      -0.000  0.484 -0.283 -0.000 -0.828
      -0.824 -0.000  0.000  0.567  0.000
       0.000 -0.227 -0.954 -0.000  0.194
       0.567  0.000 -0.000  0.824 -0.000
     occupation matrix ns (before diag.):
       0.046 -0.029  0.000  0.007  0.000
      -0.029  0.073 -0.000 -0.010  0.000
       0.000 -0.000  0.047 -0.000  0.030
       0.007 -0.010 -0.000  0.033 -0.000
       0.000  0.000  0.030 -0.000  0.070
     ------------------------ ATOM    2 ------------------------
     Tr[ns(  2)] (up, down, total) =   4.97787  2.18874  7.16661
     Atomic magnetic moment for atom   2 =   2.78913
     SPIN  1
     eigenvalues:
       0.992  0.993  0.997  0.997  0.998
     eigenvectors (columns):
       0.585 -0.000  0.809  0.000  0.060
      -0.783  0.000  0.583  0.000 -0.219
      -0.000  0.493  0.000 -0.870  0.000
       0.212  0.000 -0.081 -0.000 -0.974
       0.000  0.870 -0.000  0.493  0.000
     occupation matrix ns (before diag.):
       0.995  0.002 -0.000 -0.001  0.000
       0.002  0.994 -0.000  0.001  0.000
      -0.000 -0.000  0.996 -0.000 -0.002
      -0.001  0.001 -0.000  0.998 -0.000
       0.000  0.000 -0.002 -0.000  0.994
     SPIN  2
     eigenvalues:
       0.030  0.084  0.089  0.993  0.993
     eigenvectors (columns):
       0.037  0.587  0.000 -0.000 -0.809
      -0.188 -0.791 -0.000 -0.000 -0.583
      -0.000 -0.000  0.733 -0.680  0.000
      -0.981  0.174 -0.000  0.000  0.081
      -0.000 -0.000  0.680  0.733 -0.000
     occupation matrix ns (before diag.):
       0.678  0.429 -0.000 -0.058  0.000
       0.429  0.391 -0.000 -0.053  0.000
      -0.000 -0.000  0.508  0.000 -0.451
      -0.058 -0.053  0.000  0.037 -0.000
       0.000  0.000 -0.451 -0.000  0.575

     Number of occupied Hubbard levels =   12.3631

     HUBBARD ENERGY =    0.1382  (Ry)

     total cpu time spent up to now is      253.2 secs

     total energy              =   -1090.44725111 Ry
     estimated scf accuracy    <       0.00080029 Ry

     total magnetization       =     8.00 Bohr mag/cell
     absolute magnetization    =     8.02 Bohr mag/cell

     iteration # 17     ecut=   120.00 Ry     beta= 0.70
     Davidson diagonalization with overlap

---- Real-time Memory Report at c_bands before calling an iterative solver
           268 MiB given to the printing process from OS
           234 MiB allocation reported by mallinfo(arena+hblkhd)
        672672 MiB available memory on the node where the printing process lives
------------------
     ethr =  8.64E-08,  avg # of iterations =  3.0

     =================== HUBBARD OCCUPATIONS ===================
     ------------------------ ATOM    1 ------------------------
     Tr[ns(  1)] (up, down, total) =   4.92695  0.26947  5.19642
     Atomic magnetic moment for atom   1 =   4.65748
     SPIN  1
     eigenvalues:
       0.971  0.973  0.994  0.995  0.995
     eigenvectors (columns):
      -0.575 -0.000  0.817  0.000 -0.041
       0.790  0.000  0.568  0.000  0.229
       0.000  0.529  0.000 -0.849 -0.000
      -0.211  0.000 -0.100 -0.000  0.972
      -0.000  0.849 -0.000  0.529  0.000
     occupation matrix ns (before diag.):
       0.986  0.010 -0.000 -0.003  0.000
       0.010  0.980 -0.000  0.004  0.000
      -0.000 -0.000  0.988 -0.000 -0.010
      -0.003  0.004 -0.000  0.994 -0.000
       0.000  0.000 -0.010 -0.000  0.979
     SPIN  2
     eigenvalues:
       0.026  0.027  0.031  0.091  0.094
     eigenvectors (columns):
      -0.000  0.845 -0.091  0.000  0.527
      -0.000  0.485 -0.281 -0.000 -0.828
      -0.823 -0.000  0.000  0.567  0.000
       0.000 -0.224 -0.955 -0.000  0.194
       0.567  0.000 -0.000  0.823 -0.000
     occupation matrix ns (before diag.):
       0.046 -0.029  0.000  0.007  0.000
      -0.029  0.073 -0.000 -0.010  0.000
       0.000 -0.000  0.047 -0.000  0.030
       0.007 -0.010 -0.000  0.033 -0.000
       0.000  0.000  0.030 -0.000  0.070
     ------------------------ ATOM    2 ------------------------
     Tr[ns(  2)] (up, down, total) =   4.97792  2.18775  7.16566
     Atomic magnetic moment for atom   2 =   2.79017
     SPIN  1
     eigenvalues:
       0.992  0.993  0.997  0.998  0.999
     eigenvectors (columns):
       0.585 -0.000  0.806  0.000  0.086
      -0.783  0.000  0.589  0.000 -0.200
      -0.000  0.492  0.000 -0.871  0.000
       0.212  0.000 -0.050 -0.000 -0.976
       0.000  0.871 -0.000  0.492  0.000
     occupation matrix ns (before diag.):
       0.995  0.002 -0.000 -0.001  0.000
       0.002  0.994 -0.000  0.001  0.000
      -0.000 -0.000  0.996 -0.000 -0.002
      -0.001  0.001 -0.000  0.998 -0.000
       0.000  0.000 -0.002 -0.000  0.994
     SPIN  2
     eigenvalues:
       0.029  0.084  0.088  0.993  0.993
     eigenvectors (columns):
      -0.076  0.592  0.000 -0.000  0.802
       0.167 -0.786 -0.000 -0.000  0.596
       0.000 -0.000  0.744 -0.668 -0.000
       0.983  0.179 -0.000  0.000 -0.039
       0.000 -0.000  0.668  0.744  0.000
     occupation matrix ns (before diag.):
       0.669  0.435 -0.000 -0.024  0.000
       0.435  0.405 -0.000 -0.030  0.000
      -0.000 -0.000  0.491  0.000 -0.450
      -0.024 -0.030  0.000  0.032 -0.000
       0.000  0.000 -0.450 -0.000  0.590

     Number of occupied Hubbard levels =   12.3621

     HUBBARD ENERGY =    0.1278  (Ry)

     total cpu time spent up to now is      268.3 secs

     total energy              =   -1090.44814467 Ry
     estimated scf accuracy    <       0.00068694 Ry

     total magnetization       =     8.00 Bohr mag/cell
     absolute magnetization    =     8.02 Bohr mag/cell

     iteration # 18     ecut=   120.00 Ry     beta= 0.70
     Davidson diagonalization with overlap

---- Real-time Memory Report at c_bands before calling an iterative solver
           268 MiB given to the printing process from OS
           234 MiB allocation reported by mallinfo(arena+hblkhd)
        672530 MiB available memory on the node where the printing process lives
------------------
     ethr =  8.64E-08,  avg # of iterations =  2.0

     =================== HUBBARD OCCUPATIONS ===================
     ------------------------ ATOM    1 ------------------------
     Tr[ns(  1)] (up, down, total) =   4.92695  0.26949  5.19645
     Atomic magnetic moment for atom   1 =   4.65746
     SPIN  1
     eigenvalues:
       0.971  0.973  0.994  0.995  0.995
     eigenvectors (columns):
      -0.575 -0.000  0.817  0.000 -0.041
       0.790  0.000  0.568  0.000  0.230
       0.000  0.529  0.000 -0.849 -0.000
      -0.211  0.000 -0.100 -0.000  0.972
      -0.000  0.849 -0.000  0.529  0.000
     occupation matrix ns (before diag.):
       0.986  0.010 -0.000 -0.003  0.000
       0.010  0.980 -0.000  0.004  0.000
      -0.000 -0.000  0.988 -0.000 -0.010
      -0.003  0.004 -0.000  0.994 -0.000
       0.000  0.000 -0.010 -0.000  0.979
     SPIN  2
     eigenvalues:
       0.026  0.027  0.031  0.091  0.094
     eigenvectors (columns):
      -0.000 -0.845 -0.093  0.000  0.527
      -0.000 -0.485 -0.283 -0.000 -0.828
      -0.823  0.000  0.000  0.567  0.000
       0.000  0.226 -0.955 -0.000  0.194
       0.567 -0.000 -0.000  0.823 -0.000
     occupation matrix ns (before diag.):
       0.046 -0.029  0.000  0.007  0.000
      -0.029  0.073 -0.000 -0.010  0.000
       0.000 -0.000  0.047 -0.000  0.030
       0.007 -0.010 -0.000  0.033 -0.000
       0.000  0.000  0.030 -0.000  0.070
     ------------------------ ATOM    2 ------------------------
     Tr[ns(  2)] (up, down, total) =   4.97788  2.18619  7.16407
     Atomic magnetic moment for atom   2 =   2.79169
     SPIN  1
     eigenvalues:
       0.992  0.993  0.997  0.998  0.998
     eigenvectors (columns):
       0.585 -0.000  0.808  0.000  0.069
      -0.783  0.000  0.585  0.000 -0.213
      -0.000  0.489  0.000 -0.872  0.000
       0.212  0.000 -0.071 -0.000 -0.975
       0.000  0.872 -0.000  0.489  0.000
     occupation matrix ns (before diag.):
       0.995  0.002 -0.000 -0.001  0.000
       0.002  0.994 -0.000  0.001  0.000
      -0.000 -0.000  0.996 -0.000 -0.002
      -0.001  0.001 -0.000  0.998 -0.000
       0.000  0.000 -0.002 -0.000  0.994
     SPIN  2
     eigenvalues:
       0.028  0.084  0.087  0.993  0.994
     eigenvectors (columns):
      -0.054  0.588  0.000 -0.000  0.807
       0.184 -0.789 -0.000 -0.000  0.586
       0.000 -0.000  0.745 -0.667 -0.000
       0.981  0.180 -0.000  0.000 -0.066
       0.000 -0.000  0.667  0.745  0.000
     occupation matrix ns (before diag.):
       0.677  0.431 -0.000 -0.045  0.000
       0.431  0.395 -0.000 -0.045  0.000
      -0.000 -0.000  0.490  0.000 -0.450
      -0.045 -0.045  0.000  0.034 -0.000
       0.000  0.000 -0.450 -0.000  0.590

     Number of occupied Hubbard levels =   12.3605

     HUBBARD ENERGY =    0.1300  (Ry)

     total cpu time spent up to now is      281.9 secs

     total energy              =   -1090.44860624 Ry
     estimated scf accuracy    <       0.00021915 Ry

     total magnetization       =     8.00 Bohr mag/cell
     absolute magnetization    =     8.02 Bohr mag/cell

     iteration # 19     ecut=   120.00 Ry     beta= 0.70
     Davidson diagonalization with overlap

---- Real-time Memory Report at c_bands before calling an iterative solver
           268 MiB given to the printing process from OS
           234 MiB allocation reported by mallinfo(arena+hblkhd)
        668222 MiB available memory on the node where the printing process lives
------------------
     ethr =  8.64E-08,  avg # of iterations =  1.0

     =================== HUBBARD OCCUPATIONS ===================
     ------------------------ ATOM    1 ------------------------
     Tr[ns(  1)] (up, down, total) =   4.92696  0.26950  5.19646
     Atomic magnetic moment for atom   1 =   4.65746
     SPIN  1
     eigenvalues:
       0.971  0.973  0.994  0.995  0.995
     eigenvectors (columns):
      -0.575 -0.000  0.817  0.000 -0.041
       0.790  0.000  0.568  0.000  0.229
       0.000  0.529  0.000 -0.849 -0.000
      -0.211  0.000 -0.100 -0.000  0.972
      -0.000  0.849 -0.000  0.529  0.000
     occupation matrix ns (before diag.):
       0.986  0.010 -0.000 -0.003  0.000
       0.010  0.980 -0.000  0.004  0.000
      -0.000 -0.000  0.988 -0.000 -0.010
      -0.003  0.004 -0.000  0.994 -0.000
       0.000  0.000 -0.010 -0.000  0.979
     SPIN  2
     eigenvalues:
       0.026  0.027  0.031  0.091  0.094
     eigenvectors (columns):
      -0.000  0.845 -0.093  0.000  0.527
      -0.000  0.485 -0.282 -0.000 -0.828
      -0.823 -0.000  0.000  0.567  0.000
       0.000 -0.226 -0.955 -0.000  0.194
       0.567  0.000 -0.000  0.823 -0.000
     occupation matrix ns (before diag.):
       0.046 -0.029  0.000  0.007  0.000
      -0.029  0.073 -0.000 -0.010  0.000
       0.000 -0.000  0.047 -0.000  0.030
       0.007 -0.010 -0.000  0.033 -0.000
       0.000  0.000  0.030 -0.000  0.070
     ------------------------ ATOM    2 ------------------------
     Tr[ns(  2)] (up, down, total) =   4.97788  2.18658  7.16446
     Atomic magnetic moment for atom   2 =   2.79131
     SPIN  1
     eigenvalues:
       0.992  0.993  0.997  0.998  0.998
     eigenvectors (columns):
       0.585 -0.000  0.808  0.000  0.072
      -0.783  0.000  0.586  0.000 -0.210
      -0.000  0.490  0.000 -0.872  0.000
       0.212  0.000 -0.067 -0.000 -0.975
       0.000  0.872 -0.000  0.490  0.000
     occupation matrix ns (before diag.):
       0.995  0.002 -0.000 -0.001  0.000
       0.002  0.994 -0.000  0.001  0.000
      -0.000 -0.000  0.996 -0.000 -0.002
      -0.001  0.001 -0.000  0.998 -0.000
       0.000  0.000 -0.002 -0.000  0.994
     SPIN  2
     eigenvalues:
       0.029  0.084  0.088  0.993  0.993
     eigenvectors (columns):
      -0.058  0.588  0.000 -0.000  0.807
       0.181 -0.788 -0.000 -0.000  0.588
       0.000 -0.000  0.744 -0.668 -0.000
       0.982  0.180 -0.000  0.000 -0.061
       0.000 -0.000  0.668  0.744  0.000
     occupation matrix ns (before diag.):
       0.675  0.432 -0.000 -0.041  0.000
       0.432  0.397 -0.000 -0.042  0.000
      -0.000 -0.000  0.492  0.000 -0.450
      -0.041 -0.042  0.000  0.034 -0.000
       0.000  0.000 -0.450 -0.000  0.589

     Number of occupied Hubbard levels =   12.3609

     HUBBARD ENERGY =    0.1284  (Ry)

     total cpu time spent up to now is      293.4 secs

     total energy              =   -1090.44859788 Ry
     estimated scf accuracy    <       0.00028687 Ry

     total magnetization       =     8.00 Bohr mag/cell
     absolute magnetization    =     8.02 Bohr mag/cell

     iteration # 20     ecut=   120.00 Ry     beta= 0.70
     Davidson diagonalization with overlap

---- Real-time Memory Report at c_bands before calling an iterative solver
           268 MiB given to the printing process from OS
           234 MiB allocation reported by mallinfo(arena+hblkhd)
        668465 MiB available memory on the node where the printing process lives
------------------
     ethr =  8.64E-08,  avg # of iterations =  1.0

     =================== HUBBARD OCCUPATIONS ===================
     ------------------------ ATOM    1 ------------------------
     Tr[ns(  1)] (up, down, total) =   4.92696  0.26950  5.19646
     Atomic magnetic moment for atom   1 =   4.65746
     SPIN  1
     eigenvalues:
       0.971  0.973  0.994  0.995  0.995
     eigenvectors (columns):
      -0.575 -0.000  0.817  0.000 -0.041
       0.790  0.000  0.568  0.000  0.229
       0.000  0.529  0.000 -0.849 -0.000
      -0.211  0.000 -0.100 -0.000  0.972
      -0.000  0.849 -0.000  0.529  0.000
     occupation matrix ns (before diag.):
       0.986  0.010 -0.000 -0.003  0.000
       0.010  0.980 -0.000  0.004  0.000
      -0.000 -0.000  0.988 -0.000 -0.010
      -0.003  0.004 -0.000  0.994 -0.000
       0.000  0.000 -0.010 -0.000  0.979
     SPIN  2
     eigenvalues:
       0.026  0.027  0.031  0.091  0.094
     eigenvectors (columns):
      -0.000  0.845 -0.093  0.000  0.527
      -0.000  0.485 -0.283 -0.000 -0.828
      -0.823 -0.000  0.000  0.567  0.000
       0.000 -0.226 -0.955 -0.000  0.194
       0.567  0.000 -0.000  0.823 -0.000
     occupation matrix ns (before diag.):
       0.046 -0.029  0.000  0.007  0.000
      -0.029  0.073 -0.000 -0.010  0.000
       0.000 -0.000  0.047 -0.000  0.030
       0.007 -0.010 -0.000  0.033 -0.000
       0.000  0.000  0.030 -0.000  0.070
     ------------------------ ATOM    2 ------------------------
     Tr[ns(  2)] (up, down, total) =   4.97788  2.18641  7.16429
     Atomic magnetic moment for atom   2 =   2.79148
     SPIN  1
     eigenvalues:
       0.992  0.993  0.997  0.998  0.998
     eigenvectors (columns):
       0.585 -0.000  0.808  0.000  0.069
      -0.783  0.000  0.585  0.000 -0.212
      -0.000  0.490  0.000 -0.872  0.000
       0.212  0.000 -0.070 -0.000 -0.975
       0.000  0.872 -0.000  0.490  0.000
     occupation matrix ns (before diag.):
       0.995  0.002 -0.000 -0.001  0.000
       0.002  0.994 -0.000  0.001  0.000
      -0.000 -0.000  0.996 -0.000 -0.002
      -0.001  0.001 -0.000  0.998 -0.000
       0.000  0.000 -0.002 -0.000  0.994
     SPIN  2
     eigenvalues:
       0.028  0.084  0.088  0.993  0.994
     eigenvectors (columns):
      -0.054  0.588  0.000 -0.000  0.807
       0.183 -0.789 -0.000 -0.000  0.586
       0.000 -0.000  0.743 -0.669 -0.000
       0.982  0.179 -0.000  0.000 -0.065
       0.000 -0.000  0.669  0.743  0.000
     occupation matrix ns (before diag.):
       0.677  0.431 -0.000 -0.045  0.000
       0.431  0.395 -0.000 -0.045  0.000
      -0.000 -0.000  0.493  0.000 -0.450
      -0.045 -0.045  0.000  0.034 -0.000
       0.000  0.000 -0.450 -0.000  0.588

     Number of occupied Hubbard levels =   12.3607

     HUBBARD ENERGY =    0.1293  (Ry)

     total cpu time spent up to now is      304.9 secs

     total energy              =   -1090.44856715 Ry
     estimated scf accuracy    <       0.00023622 Ry

     total magnetization       =     8.00 Bohr mag/cell
     absolute magnetization    =     8.02 Bohr mag/cell

     iteration # 21     ecut=   120.00 Ry     beta= 0.70
     Davidson diagonalization with overlap

---- Real-time Memory Report at c_bands before calling an iterative solver
           268 MiB given to the printing process from OS
           234 MiB allocation reported by mallinfo(arena+hblkhd)
        669264 MiB available memory on the node where the printing process lives
------------------
     ethr =  8.64E-08,  avg # of iterations =  1.0

     =================== HUBBARD OCCUPATIONS ===================
     ------------------------ ATOM    1 ------------------------
     Tr[ns(  1)] (up, down, total) =   4.92699  0.26954  5.19652
     Atomic magnetic moment for atom   1 =   4.65745
     SPIN  1
     eigenvalues:
       0.971  0.973  0.994  0.995  0.995
     eigenvectors (columns):
      -0.575 -0.000  0.817  0.000 -0.041
       0.790  0.000  0.568  0.000  0.229
      -0.000  0.529  0.000 -0.849 -0.000
      -0.211  0.000 -0.100 -0.000  0.972
      -0.000  0.849 -0.000  0.529  0.000
     occupation matrix ns (before diag.):
       0.986  0.010 -0.000 -0.003  0.000
       0.010  0.980 -0.000  0.004  0.000
      -0.000 -0.000  0.988 -0.000 -0.010
      -0.003  0.004 -0.000  0.994 -0.000
       0.000  0.000 -0.010 -0.000  0.979
     SPIN  2
     eigenvalues:
       0.026  0.027  0.031  0.091  0.094
     eigenvectors (columns):
      -0.000  0.845 -0.093  0.000  0.527
      -0.000  0.485 -0.283 -0.000 -0.828
      -0.823 -0.000  0.000  0.567  0.000
       0.000 -0.226 -0.955 -0.000  0.194
       0.567  0.000 -0.000  0.823 -0.000
     occupation matrix ns (before diag.):
       0.046 -0.029  0.000  0.007  0.000
      -0.029  0.073 -0.000 -0.010  0.000
       0.000 -0.000  0.047 -0.000  0.030
       0.007 -0.010 -0.000  0.033 -0.000
       0.000  0.000  0.030 -0.000  0.070
     ------------------------ ATOM    2 ------------------------
     Tr[ns(  2)] (up, down, total) =   4.97787  2.18652  7.16439
     Atomic magnetic moment for atom   2 =   2.79136
     SPIN  1
     eigenvalues:
       0.992  0.993  0.997  0.998  0.998
     eigenvectors (columns):
       0.585 -0.000  0.808  0.000  0.068
      -0.783  0.000  0.585  0.000 -0.213
      -0.000  0.490  0.000 -0.872  0.000
       0.212  0.000 -0.071 -0.000 -0.975
       0.000  0.872 -0.000  0.490  0.000
     occupation matrix ns (before diag.):
       0.995  0.002 -0.000 -0.001  0.000
       0.002  0.994 -0.000  0.001  0.000
      -0.000 -0.000  0.996 -0.000 -0.002
      -0.001  0.001 -0.000  0.998 -0.000
       0.000  0.000 -0.002 -0.000  0.994
     SPIN  2
     eigenvalues:
       0.029  0.084  0.088  0.993  0.993
     eigenvectors (columns):
      -0.052  0.587  0.000 -0.000  0.808
       0.185 -0.789 -0.000 -0.000  0.586
       0.000 -0.000  0.744 -0.669 -0.000
       0.981  0.180 -0.000  0.000 -0.067
       0.000 -0.000  0.669  0.744  0.000
     occupation matrix ns (before diag.):
       0.677  0.431 -0.000 -0.047  0.000
       0.431  0.394 -0.000 -0.046  0.000
      -0.000 -0.000  0.493  0.000 -0.450
      -0.047 -0.046  0.000  0.035 -0.000
       0.000  0.000 -0.450 -0.000  0.588

     Number of occupied Hubbard levels =   12.3609

     HUBBARD ENERGY =    0.1131  (Ry)

     total cpu time spent up to now is      316.4 secs

     total energy              =   -1090.44816813 Ry
     estimated scf accuracy    <       0.00026146 Ry

     total magnetization       =     8.00 Bohr mag/cell
     absolute magnetization    =     8.02 Bohr mag/cell

     iteration # 22     ecut=   120.00 Ry     beta= 0.70
     Davidson diagonalization with overlap

---- Real-time Memory Report at c_bands before calling an iterative solver
           268 MiB given to the printing process from OS
           234 MiB allocation reported by mallinfo(arena+hblkhd)
        671791 MiB available memory on the node where the printing process lives
------------------
     ethr =  8.64E-08,  avg # of iterations =  2.8

     =================== HUBBARD OCCUPATIONS ===================
     ------------------------ ATOM    1 ------------------------
     Tr[ns(  1)] (up, down, total) =   4.92709  0.26973  5.19682
     Atomic magnetic moment for atom   1 =   4.65736
     SPIN  1
     eigenvalues:
       0.971  0.973  0.994  0.995  0.995
     eigenvectors (columns):
      -0.575 -0.000  0.817  0.000 -0.041
       0.790  0.000  0.568  0.000  0.230
      -0.000  0.529  0.000 -0.848 -0.000
      -0.211  0.000 -0.100 -0.000  0.972
      -0.000  0.848 -0.000  0.529  0.000
     occupation matrix ns (before diag.):
       0.986  0.010 -0.000 -0.003  0.000
       0.010  0.980 -0.000  0.004  0.000
      -0.000 -0.000  0.988 -0.000 -0.010
      -0.003  0.004 -0.000  0.994 -0.000
       0.000  0.000 -0.010 -0.000  0.979
     SPIN  2
     eigenvalues:
       0.026  0.027  0.031  0.091  0.094
     eigenvectors (columns):
      -0.000  0.845 -0.091  0.000  0.527
      -0.000  0.486 -0.281 -0.000 -0.828
      -0.823 -0.000  0.000  0.567  0.000
       0.000 -0.223 -0.955 -0.000  0.194
       0.567  0.000 -0.000  0.823 -0.000
     occupation matrix ns (before diag.):
       0.046 -0.029  0.000  0.007  0.000
      -0.029  0.074 -0.000 -0.010  0.000
       0.000 -0.000  0.047 -0.000  0.030
       0.007 -0.010 -0.000  0.033 -0.000
       0.000  0.000  0.030 -0.000  0.070
     ------------------------ ATOM    2 ------------------------
     Tr[ns(  2)] (up, down, total) =   4.97783  2.18276  7.16060
     Atomic magnetic moment for atom   2 =   2.79507
     SPIN  1
     eigenvalues:
       0.992  0.993  0.997  0.998  0.999
     eigenvectors (columns):
       0.587 -0.000  0.806  0.000  0.080
      -0.782  0.000  0.589  0.000 -0.205
      -0.000  0.483  0.000 -0.876  0.000
       0.212  0.000 -0.058 -0.000 -0.976
       0.000  0.876 -0.000  0.483  0.000
     occupation matrix ns (before diag.):
       0.995  0.002 -0.000 -0.001  0.000
       0.002  0.994 -0.000  0.001  0.000
      -0.000 -0.000  0.996 -0.000 -0.002
      -0.001  0.001 -0.000  0.998 -0.000
       0.000  0.000 -0.002 -0.000  0.994
     SPIN  2
     eigenvalues:
       0.027  0.084  0.085  0.993  0.994
     eigenvectors (columns):
      -0.073  0.584  0.000 -0.000  0.808
       0.176 -0.790 -0.000 -0.000  0.587
       0.000 -0.000  0.763 -0.647 -0.000
       0.982  0.185  0.000  0.000 -0.045
       0.000 -0.000  0.647  0.763  0.000
     occupation matrix ns (before diag.):
       0.678  0.432 -0.000 -0.029  0.000
       0.432  0.396 -0.000 -0.034  0.000
      -0.000 -0.000  0.465  0.000 -0.448
      -0.029 -0.034  0.000  0.031 -0.000
       0.000  0.000 -0.448 -0.000  0.613

     Number of occupied Hubbard levels =   12.3574

     HUBBARD ENERGY =    0.1078  (Ry)

     total cpu time spent up to now is      330.8 secs

     total energy              =   -1090.44875296 Ry
     estimated scf accuracy    <       0.00009379 Ry

     total magnetization       =     8.00 Bohr mag/cell
     absolute magnetization    =     8.02 Bohr mag/cell

     iteration # 23     ecut=   120.00 Ry     beta= 0.70
     Davidson diagonalization with overlap

---- Real-time Memory Report at c_bands before calling an iterative solver
           268 MiB given to the printing process from OS
           234 MiB allocation reported by mallinfo(arena+hblkhd)
        669264 MiB available memory on the node where the printing process lives
------------------
     ethr =  8.64E-08,  avg # of iterations =  1.7

     =================== HUBBARD OCCUPATIONS ===================
     ------------------------ ATOM    1 ------------------------
     Tr[ns(  1)] (up, down, total) =   4.92701  0.26961  5.19661
     Atomic magnetic moment for atom   1 =   4.65740
     SPIN  1
     eigenvalues:
       0.971  0.973  0.994  0.995  0.995
     eigenvectors (columns):
      -0.575 -0.000  0.817  0.000 -0.041
       0.790  0.000  0.568  0.000  0.230
      -0.000  0.529  0.000 -0.849 -0.000
      -0.211  0.000 -0.100 -0.000  0.972
      -0.000  0.849 -0.000  0.529  0.000
     occupation matrix ns (before diag.):
       0.986  0.010 -0.000 -0.003  0.000
       0.010  0.980 -0.000  0.004  0.000
      -0.000 -0.000  0.988 -0.000 -0.010
      -0.003  0.004 -0.000  0.994 -0.000
       0.000  0.000 -0.010 -0.000  0.979
     SPIN  2
     eigenvalues:
       0.026  0.027  0.031  0.091  0.094
     eigenvectors (columns):
      -0.000 -0.845 -0.091  0.000  0.527
      -0.000 -0.485 -0.282 -0.000 -0.828
      -0.823  0.000  0.000  0.567  0.000
       0.000  0.224 -0.955 -0.000  0.194
       0.567 -0.000 -0.000  0.823 -0.000
     occupation matrix ns (before diag.):
       0.046 -0.029  0.000  0.007  0.000
      -0.029  0.073 -0.000 -0.010  0.000
       0.000 -0.000  0.047 -0.000  0.030
       0.007 -0.010 -0.000  0.033 -0.000
       0.000  0.000  0.030 -0.000  0.070
     ------------------------ ATOM    2 ------------------------
     Tr[ns(  2)] (up, down, total) =   4.97783  2.18216  7.15999
     Atomic magnetic moment for atom   2 =   2.79566
     SPIN  1
     eigenvalues:
       0.992  0.993  0.997  0.998  0.999
     eigenvectors (columns):
       0.587 -0.000  0.806  0.000  0.074
      -0.782  0.000  0.588  0.000 -0.208
      -0.000  0.482  0.000 -0.876  0.000
       0.212  0.000 -0.064 -0.000 -0.975
       0.000  0.876 -0.000  0.482  0.000
     occupation matrix ns (before diag.):
       0.995  0.002 -0.000 -0.001  0.000
       0.002  0.994 -0.000  0.001  0.000
      -0.000 -0.000  0.996 -0.000 -0.002
      -0.001  0.001 -0.000  0.998 -0.000
       0.000  0.000 -0.002 -0.000  0.994
     SPIN  2
     eigenvalues:
       0.027  0.084  0.085  0.993  0.994
     eigenvectors (columns):
      -0.067  0.583  0.000 -0.000  0.810
       0.182 -0.791 -0.000 -0.000  0.584
       0.000 -0.000  0.764 -0.645 -0.000
       0.981  0.187  0.000  0.000 -0.053
       0.000 -0.000  0.645  0.764  0.000
     occupation matrix ns (before diag.):
       0.681  0.431 -0.000 -0.035  0.000
       0.431  0.392 -0.000 -0.038  0.000
      -0.000 -0.000  0.462  0.000 -0.448
      -0.035 -0.038  0.000  0.031 -0.000
       0.000  0.000 -0.448 -0.000  0.616

     Number of occupied Hubbard levels =   12.3566

     HUBBARD ENERGY =    0.1058  (Ry)

     total cpu time spent up to now is      343.1 secs

     total energy              =   -1090.44299671 Ry
     estimated scf accuracy    <       0.00020882 Ry

     total magnetization       =     8.00 Bohr mag/cell
     absolute magnetization    =     8.02 Bohr mag/cell

     iteration # 24     ecut=   120.00 Ry     beta= 0.70
     Davidson diagonalization with overlap

---- Real-time Memory Report at c_bands before calling an iterative solver
           268 MiB given to the printing process from OS
           234 MiB allocation reported by mallinfo(arena+hblkhd)
        670611 MiB available memory on the node where the printing process lives
------------------
     ethr =  8.64E-08,  avg # of iterations =  4.0

     =================== HUBBARD OCCUPATIONS ===================
     ------------------------ ATOM    1 ------------------------
     Tr[ns(  1)] (up, down, total) =   4.92703  0.26970  5.19673
     Atomic magnetic moment for atom   1 =   4.65733
     SPIN  1
     eigenvalues:
       0.971  0.973  0.994  0.995  0.995
     eigenvectors (columns):
      -0.575 -0.000  0.817  0.000 -0.040
       0.790  0.000  0.568  0.000  0.230
       0.000  0.529  0.000 -0.849 -0.000
      -0.211  0.000 -0.101 -0.000  0.972
      -0.000  0.849 -0.000  0.529  0.000
     occupation matrix ns (before diag.):
       0.986  0.010 -0.000 -0.003  0.000
       0.010  0.980 -0.000  0.004  0.000
      -0.000 -0.000  0.988 -0.000 -0.010
      -0.003  0.004 -0.000  0.994 -0.000
       0.000  0.000 -0.010 -0.000  0.979
     SPIN  2
     eigenvalues:
       0.026  0.027  0.031  0.091  0.094
     eigenvectors (columns):
      -0.000 -0.845 -0.097  0.000  0.527
      -0.000 -0.483 -0.285 -0.000 -0.828
      -0.824  0.000  0.000  0.567  0.000
       0.000  0.230 -0.954 -0.000  0.194
       0.567 -0.000 -0.000  0.824 -0.000
     occupation matrix ns (before diag.):
       0.046 -0.029  0.000  0.007  0.000
      -0.029  0.074 -0.000 -0.010  0.000
       0.000 -0.000  0.047 -0.000  0.030
       0.007 -0.010 -0.000  0.033 -0.000
       0.000  0.000  0.030 -0.000  0.070
     ------------------------ ATOM    2 ------------------------
     Tr[ns(  2)] (up, down, total) =   4.97775  2.18360  7.16135
     Atomic magnetic moment for atom   2 =   2.79415
     SPIN  1
     eigenvalues:
       0.992  0.993  0.997  0.997  0.998
     eigenvectors (columns):
      -0.588 -0.000 -0.809  0.000  0.023
       0.781  0.000 -0.575  0.000 -0.244
       0.000  0.482 -0.000 -0.876  0.000
      -0.211  0.000  0.125 -0.000 -0.969
      -0.000  0.876  0.000  0.482 -0.000
     occupation matrix ns (before diag.):
       0.995  0.002 -0.000 -0.001  0.000
       0.002  0.994 -0.000  0.001  0.000
      -0.000 -0.000  0.996 -0.000 -0.002
      -0.001  0.001 -0.000  0.998 -0.000
       0.000  0.000 -0.002 -0.000  0.994
     SPIN  2
     eigenvalues:
       0.026  0.083  0.087  0.993  0.994
     eigenvectors (columns):
      -0.002  0.569  0.000 -0.000 -0.822
      -0.227 -0.801 -0.000 -0.000 -0.554
      -0.000 -0.000  0.749 -0.663  0.000
      -0.974  0.185 -0.000  0.000  0.131
      -0.000 -0.000  0.663  0.749 -0.000
     occupation matrix ns (before diag.):
       0.699  0.415 -0.000 -0.098  0.000
       0.415  0.359 -0.000 -0.079  0.000
      -0.000 -0.000  0.485  0.000 -0.449
      -0.098 -0.079  0.000  0.045 -0.000
       0.000  0.000 -0.449 -0.000  0.596

     Number of occupied Hubbard levels =   12.3581

     HUBBARD ENERGY =    0.1145  (Ry)

     total cpu time spent up to now is      359.9 secs

     total energy              =   -1090.44076162 Ry
     estimated scf accuracy    <       0.00038810 Ry

     total magnetization       =     8.00 Bohr mag/cell
     absolute magnetization    =     8.02 Bohr mag/cell

     iteration # 25     ecut=   120.00 Ry     beta= 0.70
     Davidson diagonalization with overlap

---- Real-time Memory Report at c_bands before calling an iterative solver
           268 MiB given to the printing process from OS
           234 MiB allocation reported by mallinfo(arena+hblkhd)
        669264 MiB available memory on the node where the printing process lives
------------------
     ethr =  8.64E-08,  avg # of iterations =  4.6

     =================== HUBBARD OCCUPATIONS ===================
     ------------------------ ATOM    1 ------------------------
     Tr[ns(  1)] (up, down, total) =   4.92700  0.26956  5.19656
     Atomic magnetic moment for atom   1 =   4.65744
     SPIN  1
     eigenvalues:
       0.971  0.973  0.994  0.995  0.995
     eigenvectors (columns):
      -0.575 -0.000  0.817  0.000 -0.041
       0.790  0.000  0.568  0.000  0.229
       0.000  0.529  0.000 -0.849 -0.000
      -0.211  0.000 -0.099 -0.000  0.973
      -0.000  0.849 -0.000  0.529  0.000
     occupation matrix ns (before diag.):
       0.986  0.010 -0.000 -0.003  0.000
       0.010  0.980 -0.000  0.004  0.000
      -0.000 -0.000  0.988 -0.000 -0.010
      -0.003  0.004 -0.000  0.994 -0.000
       0.000  0.000 -0.010 -0.000  0.979
     SPIN  2
     eigenvalues:
       0.026  0.027  0.031  0.091  0.094
     eigenvectors (columns):
      -0.000 -0.845 -0.090  0.000  0.527
      -0.000 -0.486 -0.280 -0.000 -0.828
      -0.823  0.000  0.000  0.567  0.000
       0.000  0.222 -0.956 -0.000  0.194
       0.567 -0.000 -0.000  0.823 -0.000
     occupation matrix ns (before diag.):
       0.046 -0.029  0.000  0.007  0.000
      -0.029  0.073 -0.000 -0.010  0.000
       0.000 -0.000  0.047 -0.000  0.030
       0.007 -0.010 -0.000  0.033 -0.000
       0.000  0.000  0.030 -0.000  0.070
     ------------------------ ATOM    2 ------------------------
     Tr[ns(  2)] (up, down, total) =   4.97786  2.18336  7.16122
     Atomic magnetic moment for atom   2 =   2.79450
     SPIN  1
     eigenvalues:
       0.992  0.993  0.997  0.998  0.999
     eigenvectors (columns):
       0.586 -0.000  0.804  0.000  0.095
      -0.782  0.000  0.593  0.000 -0.193
      -0.000  0.487  0.000 -0.873  0.000
       0.212  0.000 -0.039 -0.000 -0.977
       0.000  0.873 -0.000  0.487  0.000
     occupation matrix ns (before diag.):
       0.995  0.002 -0.000 -0.001  0.000
       0.002  0.994 -0.000  0.001  0.000
      -0.000 -0.000  0.996 -0.000 -0.002
      -0.001  0.001 -0.000  0.998 -0.000
       0.000  0.000 -0.002 -0.000  0.994
     SPIN  2
     eigenvalues:
       0.027  0.084  0.086  0.993  0.994
     eigenvectors (columns):
      -0.094  0.591  0.000 -0.000  0.801
       0.166 -0.784 -0.000 -0.000  0.598
       0.000 -0.000  0.760 -0.650 -0.000
       0.982  0.189 -0.000  0.000 -0.024
       0.000 -0.000  0.650  0.760  0.000
     occupation matrix ns (before diag.):
       0.667  0.437 -0.000 -0.012  0.000
       0.437  0.408 -0.000 -0.022  0.000
      -0.000 -0.000  0.470  0.000 -0.448
      -0.012 -0.022  0.000  0.030 -0.000
       0.000  0.000 -0.448 -0.000  0.609

     Number of occupied Hubbard levels =   12.3578

     HUBBARD ENERGY =    0.1054  (Ry)

     total cpu time spent up to now is      378.2 secs

     total energy              =   -1090.44449787 Ry
     estimated scf accuracy    <       0.00007564 Ry

     total magnetization       =     8.00 Bohr mag/cell
     absolute magnetization    =     8.02 Bohr mag/cell

     iteration # 26     ecut=   120.00 Ry     beta= 0.70
     Davidson diagonalization with overlap

---- Real-time Memory Report at c_bands before calling an iterative solver
           268 MiB given to the printing process from OS
           234 MiB allocation reported by mallinfo(arena+hblkhd)
        673583 MiB available memory on the node where the printing process lives
------------------
     ethr =  7.00E-08,  avg # of iterations =  4.1

     =================== HUBBARD OCCUPATIONS ===================
     ------------------------ ATOM    1 ------------------------
     Tr[ns(  1)] (up, down, total) =   4.92704  0.26957  5.19661
     Atomic magnetic moment for atom   1 =   4.65747
     SPIN  1
     eigenvalues:
       0.971  0.973  0.994  0.995  0.995
     eigenvectors (columns):
      -0.576 -0.000  0.817  0.000 -0.042
       0.790  0.000  0.569  0.000  0.229
       0.000  0.529  0.000 -0.848 -0.000
      -0.211  0.000 -0.098 -0.000  0.973
      -0.000  0.848 -0.000  0.529  0.000
     occupation matrix ns (before diag.):
       0.986  0.010 -0.000 -0.003  0.000
       0.010  0.980 -0.000  0.004  0.000
      -0.000 -0.000  0.988 -0.000 -0.010
      -0.003  0.004 -0.000  0.994 -0.000
       0.000  0.000 -0.010 -0.000  0.979
     SPIN  2
     eigenvalues:
       0.026  0.027  0.031  0.091  0.094
     eigenvectors (columns):
      -0.000  0.846 -0.083  0.000  0.527
      -0.000  0.488 -0.277 -0.000 -0.828
      -0.823 -0.000  0.000  0.568  0.000
       0.000 -0.215 -0.957 -0.000  0.194
       0.568  0.000 -0.000  0.823 -0.000
     occupation matrix ns (before diag.):
       0.046 -0.029  0.000  0.007  0.000
      -0.029  0.073 -0.000 -0.010  0.000
       0.000 -0.000  0.047 -0.000  0.030
       0.007 -0.010 -0.000  0.033 -0.000
       0.000  0.000  0.030 -0.000  0.070
     ------------------------ ATOM    2 ------------------------
     Tr[ns(  2)] (up, down, total) =   4.97789  2.18061  7.15850
     Atomic magnetic moment for atom   2 =   2.79728
     SPIN  1
     eigenvalues:
       0.992  0.993  0.997  0.998  0.999
     eigenvectors (columns):
       0.584 -0.000 -0.798  0.000 -0.148
      -0.783  0.000 -0.602  0.000  0.155
      -0.000  0.487 -0.000 -0.874 -0.000
       0.213  0.000 -0.026 -0.000  0.977
       0.000  0.874  0.000  0.487 -0.000
     occupation matrix ns (before diag.):
       0.995  0.002 -0.000 -0.001  0.000
       0.002  0.994 -0.000  0.001  0.000
      -0.000 -0.000  0.996 -0.000 -0.002
      -0.001  0.001 -0.000  0.998 -0.000
       0.000  0.000 -0.002 -0.000  0.994
     SPIN  2
     eigenvalues:
       0.026  0.083  0.085  0.993  0.994
     eigenvectors (columns):
      -0.172 -0.000  0.604 -0.000  0.778
       0.124  0.000 -0.770 -0.000  0.626
       0.000  0.774  0.000 -0.633 -0.000
       0.977 -0.000  0.204 -0.000  0.058
       0.000  0.633  0.000  0.774  0.000
     occupation matrix ns (before diag.):
       0.633  0.444 -0.000  0.051  0.000
       0.444  0.440 -0.000  0.026  0.000
      -0.000 -0.000  0.447  0.000 -0.446
       0.051  0.026  0.000  0.032 -0.000
       0.000  0.000 -0.446 -0.000  0.629

     Number of occupied Hubbard levels =   12.3551

     HUBBARD ENERGY =    0.1122  (Ry)

     total cpu time spent up to now is      395.9 secs

     total energy              =   -1090.44978033 Ry
     estimated scf accuracy    <       0.00029517 Ry

     total magnetization       =     8.00 Bohr mag/cell
     absolute magnetization    =     8.02 Bohr mag/cell

     iteration # 27     ecut=   120.00 Ry     beta= 0.70
     Davidson diagonalization with overlap

---- Real-time Memory Report at c_bands before calling an iterative solver
           268 MiB given to the printing process from OS
           234 MiB allocation reported by mallinfo(arena+hblkhd)
        668451 MiB available memory on the node where the printing process lives
------------------
     ethr =  7.00E-08,  avg # of iterations =  2.0

     =================== HUBBARD OCCUPATIONS ===================
     ------------------------ ATOM    1 ------------------------
     Tr[ns(  1)] (up, down, total) =   4.92703  0.26956  5.19659
     Atomic magnetic moment for atom   1 =   4.65747
     SPIN  1
     eigenvalues:
       0.971  0.973  0.994  0.995  0.995
     eigenvectors (columns):
      -0.576 -0.000  0.817  0.000 -0.042
       0.790  0.000  0.569  0.000  0.229
       0.000  0.529  0.000 -0.848 -0.000
      -0.211  0.000 -0.098 -0.000  0.973
      -0.000  0.848 -0.000  0.529  0.000
     occupation matrix ns (before diag.):
       0.986  0.010 -0.000 -0.003  0.000
       0.010  0.980 -0.000  0.004  0.000
      -0.000 -0.000  0.988 -0.000 -0.010
      -0.003  0.004 -0.000  0.994 -0.000
       0.000  0.000 -0.010 -0.000  0.979
     SPIN  2
     eigenvalues:
       0.026  0.027  0.031  0.091  0.094
     eigenvectors (columns):
      -0.000  0.846 -0.084  0.000  0.527
      -0.000  0.488 -0.277 -0.000 -0.828
      -0.823 -0.000  0.000  0.568  0.000
       0.000 -0.216 -0.957 -0.000  0.194
       0.568  0.000 -0.000  0.823 -0.000
     occupation matrix ns (before diag.):
       0.046 -0.029  0.000  0.007  0.000
      -0.029  0.073 -0.000 -0.010  0.000
       0.000 -0.000  0.047 -0.000  0.030
       0.007 -0.010 -0.000  0.033 -0.000
       0.000  0.000  0.030 -0.000  0.070
     ------------------------ ATOM    2 ------------------------
     Tr[ns(  2)] (up, down, total) =   4.97791  2.18174  7.15965
     Atomic magnetic moment for atom   2 =   2.79616
     SPIN  1
     eigenvalues:
       0.992  0.993  0.997  0.998  0.999
     eigenvectors (columns):
       0.583 -0.000 -0.799  0.000 -0.144
      -0.784  0.000 -0.600  0.000  0.158
       0.000  0.487 -0.000 -0.874 -0.000
       0.213  0.000 -0.021 -0.000  0.977
       0.000  0.874  0.000  0.487 -0.000
     occupation matrix ns (before diag.):
       0.995  0.002 -0.000 -0.001  0.000
       0.002  0.994 -0.000  0.001  0.000
      -0.000 -0.000  0.996 -0.000 -0.002
      -0.001  0.001 -0.000  0.998 -0.000
       0.000  0.000 -0.002 -0.000  0.994
     SPIN  2
     eigenvalues:
       0.027  0.084  0.085  0.993  0.994
     eigenvectors (columns):
      -0.164  0.000  0.605 -0.000  0.779
       0.125  0.000 -0.771 -0.000  0.625
       0.000  0.771  0.000 -0.637 -0.000
       0.978 -0.000  0.200 -0.000  0.051
       0.000  0.637 -0.000  0.771  0.000
     occupation matrix ns (before diag.):
       0.635  0.444 -0.000  0.045  0.000
       0.444  0.439 -0.000  0.022  0.000
      -0.000 -0.000  0.453  0.000 -0.447
       0.045  0.022  0.000  0.031 -0.000
       0.000  0.000 -0.447 -0.000  0.624

     Number of occupied Hubbard levels =   12.3562

     HUBBARD ENERGY =    0.1110  (Ry)

     total cpu time spent up to now is      408.6 secs

     total energy              =   -1090.44974010 Ry
     estimated scf accuracy    <       0.00007570 Ry

     total magnetization       =     8.00 Bohr mag/cell
     absolute magnetization    =     8.02 Bohr mag/cell

     iteration # 28     ecut=   120.00 Ry     beta= 0.70
     Davidson diagonalization with overlap

---- Real-time Memory Report at c_bands before calling an iterative solver
           268 MiB given to the printing process from OS
           234 MiB allocation reported by mallinfo(arena+hblkhd)
        668451 MiB available memory on the node where the printing process lives
------------------
     ethr =  7.00E-08,  avg # of iterations =  2.0

     =================== HUBBARD OCCUPATIONS ===================
     ------------------------ ATOM    1 ------------------------
     Tr[ns(  1)] (up, down, total) =   4.92703  0.26957  5.19660
     Atomic magnetic moment for atom   1 =   4.65746
     SPIN  1
     eigenvalues:
       0.971  0.973  0.994  0.995  0.995
     eigenvectors (columns):
      -0.576 -0.000  0.817  0.000 -0.042
       0.790  0.000  0.569  0.000  0.229
       0.000  0.529  0.000 -0.848 -0.000
      -0.211  0.000 -0.098 -0.000  0.973
      -0.000  0.848 -0.000  0.529  0.000
     occupation matrix ns (before diag.):
       0.986  0.010 -0.000 -0.003  0.000
       0.010  0.980 -0.000  0.004  0.000
      -0.000 -0.000  0.988 -0.000 -0.010
      -0.003  0.004 -0.000  0.994 -0.000
       0.000  0.000 -0.010 -0.000  0.979
     SPIN  2
     eigenvalues:
       0.026  0.027  0.031  0.091  0.094
     eigenvectors (columns):
      -0.000  0.846 -0.083  0.000  0.527
      -0.000  0.488 -0.277 -0.000 -0.828
      -0.823 -0.000  0.000  0.568  0.000
       0.000 -0.215 -0.957 -0.000  0.194
       0.568  0.000 -0.000  0.823 -0.000
     occupation matrix ns (before diag.):
       0.046 -0.029  0.000  0.007  0.000
      -0.029  0.073 -0.000 -0.010  0.000
       0.000 -0.000  0.047 -0.000  0.030
       0.007 -0.010 -0.000  0.033 -0.000
       0.000  0.000  0.030 -0.000  0.070
     ------------------------ ATOM    2 ------------------------
     Tr[ns(  2)] (up, down, total) =   4.97791  2.18141  7.15932
     Atomic magnetic moment for atom   2 =   2.79650
     SPIN  1
     eigenvalues:
       0.992  0.993  0.997  0.998  0.999
     eigenvectors (columns):
       0.583 -0.000 -0.798  0.000 -0.154
      -0.784  0.000 -0.602  0.000  0.151
      -0.000  0.487 -0.000 -0.873 -0.000
       0.213  0.000 -0.033 -0.000  0.977
       0.000  0.873  0.000  0.487 -0.000
     occupation matrix ns (before diag.):
       0.995  0.002 -0.000 -0.001  0.000
       0.002  0.994 -0.000  0.001  0.000
      -0.000 -0.000  0.996 -0.000 -0.002
      -0.001  0.001 -0.000  0.998 -0.000
       0.000  0.000 -0.002 -0.000  0.994
     SPIN  2
     eigenvalues:
       0.026  0.083  0.085  0.993  0.994
     eigenvectors (columns):
      -0.178 -0.000  0.607 -0.000  0.774
       0.117  0.000 -0.768 -0.000  0.629
       0.000  0.773  0.000 -0.635 -0.000
       0.977 -0.000  0.203 -0.000  0.065
       0.000  0.635  0.000  0.773  0.000
     occupation matrix ns (before diag.):
       0.628  0.444 -0.000  0.056  0.000
       0.444  0.444 -0.000  0.031  0.000
      -0.000 -0.000  0.450  0.000 -0.446
       0.056  0.031  0.000  0.033 -0.000
       0.000  0.000 -0.446 -0.000  0.626

     Number of occupied Hubbard levels =   12.3559

     HUBBARD ENERGY =    0.1143  (Ry)

     total cpu time spent up to now is      421.6 secs

     total energy              =   -1090.44991197 Ry
     estimated scf accuracy    <       0.00009887 Ry

     total magnetization       =     8.00 Bohr mag/cell
     absolute magnetization    =     8.02 Bohr mag/cell

     iteration # 29     ecut=   120.00 Ry     beta= 0.70
     Davidson diagonalization with overlap

---- Real-time Memory Report at c_bands before calling an iterative solver
           268 MiB given to the printing process from OS
           234 MiB allocation reported by mallinfo(arena+hblkhd)
        668452 MiB available memory on the node where the printing process lives
------------------
     ethr =  7.00E-08,  avg # of iterations =  2.0

     =================== HUBBARD OCCUPATIONS ===================
     ------------------------ ATOM    1 ------------------------
     Tr[ns(  1)] (up, down, total) =   4.92703  0.26957  5.19660
     Atomic magnetic moment for atom   1 =   4.65746
     SPIN  1
     eigenvalues:
       0.971  0.973  0.994  0.995  0.995
     eigenvectors (columns):
      -0.576 -0.000  0.817  0.000 -0.042
       0.790  0.000  0.569  0.000  0.229
      -0.000  0.529  0.000 -0.848 -0.000
      -0.211  0.000 -0.098 -0.000  0.973
      -0.000  0.848 -0.000  0.529  0.000
     occupation matrix ns (before diag.):
       0.986  0.010 -0.000 -0.003  0.000
       0.010  0.980 -0.000  0.004  0.000
      -0.000 -0.000  0.988 -0.000 -0.010
      -0.003  0.004 -0.000  0.994 -0.000
       0.000  0.000 -0.010 -0.000  0.979
     SPIN  2
     eigenvalues:
       0.026  0.027  0.031  0.091  0.094
     eigenvectors (columns):
      -0.000  0.846 -0.083  0.000  0.527
      -0.000  0.488 -0.276 -0.000 -0.828
      -0.823 -0.000  0.000  0.568  0.000
       0.000 -0.214 -0.958 -0.000  0.194
       0.568  0.000 -0.000  0.823 -0.000
     occupation matrix ns (before diag.):
       0.046 -0.029  0.000  0.007  0.000
      -0.029  0.073 -0.000 -0.010  0.000
       0.000 -0.000  0.047 -0.000  0.030
       0.007 -0.010 -0.000  0.033 -0.000
       0.000  0.000  0.030 -0.000  0.070
     ------------------------ ATOM    2 ------------------------
     Tr[ns(  2)] (up, down, total) =   4.97793  2.18179  7.15972
     Atomic magnetic moment for atom   2 =   2.79615
     SPIN  1
     eigenvalues:
       0.992  0.993  0.997  0.998  0.999
     eigenvectors (columns):
       0.582 -0.000 -0.797  0.000 -0.161
      -0.785  0.000 -0.603  0.000  0.145
       0.000  0.487 -0.000 -0.874 -0.000
       0.213  0.000 -0.042 -0.000  0.976
       0.000  0.874  0.000  0.487 -0.000
     occupation matrix ns (before diag.):
       0.996  0.002 -0.000 -0.001  0.000
       0.002  0.994 -0.000  0.001  0.000
      -0.000 -0.000  0.996 -0.000 -0.002
      -0.001  0.001 -0.000  0.998 -0.000
       0.000  0.000 -0.002 -0.000  0.994
     SPIN  2
     eigenvalues:
       0.027  0.083  0.085  0.993  0.994
     eigenvectors (columns):
      -0.186 -0.000  0.610 -0.000  0.771
       0.107  0.000 -0.767 -0.000  0.633
       0.000  0.773  0.000 -0.634 -0.000
       0.977 -0.000  0.201 -0.000  0.078
       0.000  0.634  0.000  0.773  0.000
     occupation matrix ns (before diag.):
       0.623  0.444 -0.000  0.065  0.000
       0.444  0.448 -0.000  0.038  0.000
      -0.000 -0.000  0.449  0.000 -0.446
       0.065  0.038  0.000  0.035 -0.000
       0.000  0.000 -0.446 -0.000  0.627

     Number of occupied Hubbard levels =   12.3563

     HUBBARD ENERGY =    0.1154  (Ry)

     total cpu time spent up to now is      434.6 secs

     total energy              =   -1090.45000765 Ry
     estimated scf accuracy    <       0.00002923 Ry

     total magnetization       =     8.00 Bohr mag/cell
     absolute magnetization    =     8.02 Bohr mag/cell

     iteration # 30     ecut=   120.00 Ry     beta= 0.70
     Davidson diagonalization with overlap

---- Real-time Memory Report at c_bands before calling an iterative solver
           268 MiB given to the printing process from OS
           234 MiB allocation reported by mallinfo(arena+hblkhd)
        671789 MiB available memory on the node where the printing process lives
------------------
     ethr =  2.71E-08,  avg # of iterations =  1.0

     =================== HUBBARD OCCUPATIONS ===================
     ------------------------ ATOM    1 ------------------------
     Tr[ns(  1)] (up, down, total) =   4.92702  0.26956  5.19658
     Atomic magnetic moment for atom   1 =   4.65747
     SPIN  1
     eigenvalues:
       0.971  0.973  0.994  0.995  0.995
     eigenvectors (columns):
      -0.576 -0.000  0.817  0.000 -0.042
       0.790  0.000  0.569  0.000  0.229
      -0.000  0.529  0.000 -0.848 -0.000
      -0.211  0.000 -0.098 -0.000  0.973
      -0.000  0.848 -0.000  0.529  0.000
     occupation matrix ns (before diag.):
       0.986  0.010 -0.000 -0.003  0.000
       0.010  0.980 -0.000  0.004  0.000
      -0.000 -0.000  0.988 -0.000 -0.010
      -0.003  0.004 -0.000  0.994 -0.000
       0.000  0.000 -0.010 -0.000  0.979
     SPIN  2
     eigenvalues:
       0.026  0.027  0.031  0.091  0.094
     eigenvectors (columns):
      -0.000  0.846 -0.083  0.000  0.527
      -0.000  0.488 -0.277 -0.000 -0.828
      -0.823 -0.000  0.000  0.568  0.000
       0.000 -0.214 -0.957 -0.000  0.194
       0.568  0.000 -0.000  0.823 -0.000
     occupation matrix ns (before diag.):
       0.046 -0.029  0.000  0.007  0.000
      -0.029  0.073 -0.000 -0.010  0.000
       0.000 -0.000  0.047 -0.000  0.030
       0.007 -0.010 -0.000  0.033 -0.000
       0.000  0.000  0.030 -0.000  0.070
     ------------------------ ATOM    2 ------------------------
     Tr[ns(  2)] (up, down, total) =   4.97794  2.18202  7.15996
     Atomic magnetic moment for atom   2 =   2.79591
     SPIN  1
     eigenvalues:
       0.992  0.993  0.997  0.998  0.999
     eigenvectors (columns):
       0.582 -0.000  0.797  0.000  0.160
      -0.785  0.000  0.603  0.000 -0.146
      -0.000  0.487  0.000 -0.873  0.000
       0.213  0.000  0.041  0.000 -0.976
       0.000  0.873 -0.000  0.487  0.000
     occupation matrix ns (before diag.):
       0.996  0.002 -0.000 -0.001  0.000
       0.002  0.994 -0.000  0.001  0.000
      -0.000 -0.000  0.996 -0.000 -0.002
      -0.001  0.001 -0.000  0.998 -0.000
       0.000  0.000 -0.002 -0.000  0.994
     SPIN  2
     eigenvalues:
       0.027  0.083  0.085  0.993  0.994
     eigenvectors (columns):
      -0.184 -0.000  0.609 -0.000  0.771
       0.108  0.000 -0.767 -0.000  0.632
       0.000  0.772  0.000 -0.636 -0.000
       0.977 -0.000  0.200 -0.000  0.075
       0.000  0.636  0.000  0.772  0.000
     occupation matrix ns (before diag.):
       0.624  0.444 -0.000  0.063  0.000
       0.444  0.448 -0.000  0.037  0.000
      -0.000 -0.000  0.451  0.000 -0.447
       0.063  0.037  0.000  0.035 -0.000
       0.000  0.000 -0.447 -0.000  0.625

     Number of occupied Hubbard levels =   12.3565

     HUBBARD ENERGY =    0.1089  (Ry)

     total cpu time spent up to now is      446.1 secs

     total energy              =   -1090.44974674 Ry
     estimated scf accuracy    <       0.00002010 Ry

     total magnetization       =     8.00 Bohr mag/cell
     absolute magnetization    =     8.02 Bohr mag/cell

     iteration # 31     ecut=   120.00 Ry     beta= 0.70
     Davidson diagonalization with overlap

---- Real-time Memory Report at c_bands before calling an iterative solver
           268 MiB given to the printing process from OS
           234 MiB allocation reported by mallinfo(arena+hblkhd)
        673566 MiB available memory on the node where the printing process lives
------------------
     ethr =  1.86E-08,  avg # of iterations =  3.3

     =================== HUBBARD OCCUPATIONS ===================
     ------------------------ ATOM    1 ------------------------
     Tr[ns(  1)] (up, down, total) =   4.92704  0.26958  5.19662
     Atomic magnetic moment for atom   1 =   4.65746
     SPIN  1
     eigenvalues:
       0.971  0.973  0.994  0.995  0.995
     eigenvectors (columns):
      -0.576 -0.000  0.817  0.000 -0.042
       0.790  0.000  0.569  0.000  0.228
       0.000  0.529  0.000 -0.848 -0.000
      -0.211  0.000 -0.098 -0.000  0.973
      -0.000  0.848 -0.000  0.529  0.000
     occupation matrix ns (before diag.):
       0.986  0.010 -0.000 -0.003  0.000
       0.010  0.980 -0.000  0.004  0.000
      -0.000 -0.000  0.988 -0.000 -0.010
      -0.003  0.004 -0.000  0.994 -0.000
       0.000  0.000 -0.010 -0.000  0.979
     SPIN  2
     eigenvalues:
       0.026  0.027  0.031  0.091  0.094
     eigenvectors (columns):
      -0.000 -0.846 -0.081  0.000  0.527
      -0.000 -0.489 -0.276 -0.000 -0.828
      -0.823  0.000  0.000  0.568  0.000
       0.000  0.212 -0.958 -0.000  0.194
       0.568 -0.000 -0.000  0.823 -0.000
     occupation matrix ns (before diag.):
       0.046 -0.029  0.000  0.007  0.000
      -0.029  0.073 -0.000 -0.010  0.000
       0.000 -0.000  0.047 -0.000  0.030
       0.007 -0.010 -0.000  0.033 -0.000
       0.000  0.000  0.030 -0.000  0.070
     ------------------------ ATOM    2 ------------------------
     Tr[ns(  2)] (up, down, total) =   4.97793  2.18077  7.15870
     Atomic magnetic moment for atom   2 =   2.79716
     SPIN  1
     eigenvalues:
       0.992  0.993  0.997  0.998  0.999
     eigenvectors (columns):
       0.582 -0.000 -0.795  0.000 -0.171
      -0.785  0.000 -0.604  0.000  0.138
      -0.000  0.486 -0.000 -0.874 -0.000
       0.213  0.000 -0.054  0.000  0.976
       0.000  0.874  0.000  0.486 -0.000
     occupation matrix ns (before diag.):
       0.996  0.002 -0.000 -0.001  0.000
       0.002  0.994 -0.000  0.001  0.000
      -0.000 -0.000  0.996 -0.000 -0.002
      -0.001  0.001 -0.000  0.998 -0.000
       0.000  0.000 -0.002 -0.000  0.994
     SPIN  2
     eigenvalues:
       0.026  0.082  0.085  0.993  0.994
     eigenvectors (columns):
      -0.200 -0.000  0.611 -0.000  0.766
       0.103  0.000 -0.764 -0.000  0.637
       0.000  0.778  0.000 -0.629 -0.000
       0.974 -0.000  0.206 -0.000  0.090
       0.000  0.629  0.000  0.778  0.000
     occupation matrix ns (before diag.):
       0.616  0.444 -0.000  0.075  0.000
       0.444  0.453 -0.000  0.046  0.000
      -0.000 -0.000  0.442  0.000 -0.445
       0.075  0.046  0.000  0.036 -0.000
       0.000  0.000 -0.445 -0.000  0.633

     Number of occupied Hubbard levels =   12.3553

     HUBBARD ENERGY =    0.1086  (Ry)

     total cpu time spent up to now is      461.3 secs

     total energy              =   -1090.44992671 Ry
     estimated scf accuracy    <       0.00014691 Ry

     total magnetization       =     8.00 Bohr mag/cell
     absolute magnetization    =     8.02 Bohr mag/cell

     iteration # 32     ecut=   120.00 Ry     beta= 0.70
     Davidson diagonalization with overlap

---- Real-time Memory Report at c_bands before calling an iterative solver
           268 MiB given to the printing process from OS
           234 MiB allocation reported by mallinfo(arena+hblkhd)
        668452 MiB available memory on the node where the printing process lives
------------------
     ethr =  1.86E-08,  avg # of iterations =  1.6

     =================== HUBBARD OCCUPATIONS ===================
     ------------------------ ATOM    1 ------------------------
     Tr[ns(  1)] (up, down, total) =   4.92703  0.26956  5.19658
     Atomic magnetic moment for atom   1 =   4.65747
     SPIN  1
     eigenvalues:
       0.971  0.973  0.994  0.995  0.995
     eigenvectors (columns):
      -0.576 -0.000  0.817  0.000 -0.042
       0.790  0.000  0.569  0.000  0.228
       0.000  0.529  0.000 -0.848 -0.000
      -0.211  0.000 -0.098 -0.000  0.973
      -0.000  0.848 -0.000  0.529  0.000
     occupation matrix ns (before diag.):
       0.986  0.010 -0.000 -0.003  0.000
       0.010  0.980 -0.000  0.004  0.000
      -0.000 -0.000  0.988 -0.000 -0.010
      -0.003  0.004 -0.000  0.994 -0.000
       0.000  0.000 -0.010 -0.000  0.979
     SPIN  2
     eigenvalues:
       0.026  0.027  0.031  0.091  0.094
     eigenvectors (columns):
      -0.000  0.846 -0.082  0.000  0.527
      -0.000  0.489 -0.276 -0.000 -0.828
      -0.823 -0.000  0.000  0.568  0.000
       0.000 -0.213 -0.958 -0.000  0.194
       0.568  0.000 -0.000  0.823 -0.000
     occupation matrix ns (before diag.):
       0.046 -0.029  0.000  0.007  0.000
      -0.029  0.073 -0.000 -0.010  0.000
       0.000 -0.000  0.047 -0.000  0.030
       0.007 -0.010 -0.000  0.033 -0.000
       0.000  0.000  0.030 -0.000  0.070
     ------------------------ ATOM    2 ------------------------
     Tr[ns(  2)] (up, down, total) =   4.97793  2.18077  7.15870
     Atomic magnetic moment for atom   2 =   2.79716
     SPIN  1
     eigenvalues:
       0.992  0.993  0.997  0.998  0.999
     eigenvectors (columns):
       0.582 -0.000 -0.796  0.000 -0.168
      -0.785  0.000 -0.603  0.000  0.140
       0.000  0.486 -0.000 -0.874 -0.000
       0.213  0.000 -0.050  0.000  0.976
       0.000  0.874  0.000  0.486 -0.000
     occupation matrix ns (before diag.):
       0.996  0.002 -0.000 -0.001  0.000
       0.002  0.994 -0.000  0.001  0.000
      -0.000 -0.000  0.996 -0.000 -0.002
      -0.001  0.001 -0.000  0.998 -0.000
       0.000  0.000 -0.002 -0.000  0.994
     SPIN  2
     eigenvalues:
       0.026  0.083  0.085  0.993  0.994
     eigenvectors (columns):
      -0.196 -0.000  0.610 -0.000  0.767
       0.106  0.000 -0.765 -0.000  0.635
       0.000  0.778  0.000 -0.628 -0.000
       0.975 -0.000  0.206 -0.000  0.086
       0.000  0.628  0.000  0.778  0.000
     occupation matrix ns (before diag.):
       0.618  0.444 -0.000  0.071  0.000
       0.444  0.452 -0.000  0.043  0.000
      -0.000 -0.000  0.442  0.000 -0.445
       0.071  0.043  0.000  0.036 -0.000
       0.000  0.000 -0.445 -0.000  0.634

     Number of occupied Hubbard levels =   12.3553

     HUBBARD ENERGY =    0.1083  (Ry)

     total cpu time spent up to now is      473.6 secs

     total energy              =   -1090.44953817 Ry
     estimated scf accuracy    <       0.00015907 Ry

     total magnetization       =     8.00 Bohr mag/cell
     absolute magnetization    =     8.02 Bohr mag/cell

     iteration # 33     ecut=   120.00 Ry     beta= 0.70
     Davidson diagonalization with overlap

---- Real-time Memory Report at c_bands before calling an iterative solver
           268 MiB given to the printing process from OS
           234 MiB allocation reported by mallinfo(arena+hblkhd)
        668452 MiB available memory on the node where the printing process lives
------------------
     ethr =  1.86E-08,  avg # of iterations =  3.7

     =================== HUBBARD OCCUPATIONS ===================
     ------------------------ ATOM    1 ------------------------
     Tr[ns(  1)] (up, down, total) =   4.92704  0.26958  5.19662
     Atomic magnetic moment for atom   1 =   4.65746
     SPIN  1
     eigenvalues:
       0.971  0.973  0.994  0.995  0.995
     eigenvectors (columns):
      -0.576 -0.000  0.817  0.000 -0.043
       0.790  0.000  0.569  0.000  0.228
      -0.000  0.529  0.000 -0.848 -0.000
      -0.211  0.000 -0.098 -0.000  0.973
      -0.000  0.848 -0.000  0.529  0.000
     occupation matrix ns (before diag.):
       0.986  0.010 -0.000 -0.003  0.000
       0.010  0.980 -0.000  0.004  0.000
      -0.000 -0.000  0.988 -0.000 -0.010
      -0.003  0.004 -0.000  0.994 -0.000
       0.000  0.000 -0.010 -0.000  0.979
     SPIN  2
     eigenvalues:
       0.026  0.027  0.031  0.091  0.094
     eigenvectors (columns):
      -0.000  0.846 -0.080  0.000  0.527
      -0.000  0.489 -0.275 -0.000 -0.828
      -0.823 -0.000  0.000  0.568  0.000
       0.000 -0.211 -0.958 -0.000  0.194
       0.568  0.000 -0.000  0.823 -0.000
     occupation matrix ns (before diag.):
       0.046 -0.029  0.000  0.007  0.000
      -0.029  0.073 -0.000 -0.010  0.000
       0.000 -0.000  0.047 -0.000  0.030
       0.007 -0.010 -0.000  0.033 -0.000
       0.000  0.000  0.030 -0.000  0.070
     ------------------------ ATOM    2 ------------------------
     Tr[ns(  2)] (up, down, total) =   4.97794  2.18051  7.15845
     Atomic magnetic moment for atom   2 =   2.79742
     SPIN  1
     eigenvalues:
       0.992  0.993  0.997  0.998  0.999
     eigenvectors (columns):
       0.581 -0.000 -0.793  0.000 -0.185
      -0.786  0.000 -0.605  0.000  0.127
       0.000  0.486 -0.000 -0.874 -0.000
       0.213  0.000 -0.071  0.000  0.975
       0.000  0.874  0.000  0.486 -0.000
     occupation matrix ns (before diag.):
       0.996  0.002 -0.000 -0.001  0.000
       0.002  0.994 -0.000  0.001  0.000
      -0.000 -0.000  0.996 -0.000 -0.002
      -0.001  0.001 -0.000  0.998 -0.000
       0.000  0.000 -0.002 -0.000  0.994
     SPIN  2
     eigenvalues:
       0.026  0.082  0.086  0.993  0.994
     eigenvectors (columns):
      -0.220 -0.000  0.615 -0.000  0.757
       0.091  0.000 -0.760 -0.000  0.644
       0.000  0.779  0.000 -0.627 -0.000
       0.971 -0.000  0.211 -0.000  0.111
       0.000  0.627  0.000  0.779  0.000
     occupation matrix ns (before diag.):
       0.604  0.444 -0.000  0.089  0.000
       0.444  0.461 -0.000  0.060  0.000
      -0.000 -0.000  0.440  0.000 -0.445
       0.089  0.060  0.000  0.040 -0.000
       0.000  0.000 -0.445 -0.000  0.635

     Number of occupied Hubbard levels =   12.3551

     HUBBARD ENERGY =    0.1162  (Ry)

     total cpu time spent up to now is      489.2 secs

     total energy              =   -1090.45005347 Ry
     estimated scf accuracy    <       0.00016471 Ry

     total magnetization       =     8.00 Bohr mag/cell
     absolute magnetization    =     8.02 Bohr mag/cell

     iteration # 34     ecut=   120.00 Ry     beta= 0.70
     Davidson diagonalization with overlap

---- Real-time Memory Report at c_bands before calling an iterative solver
           268 MiB given to the printing process from OS
           234 MiB allocation reported by mallinfo(arena+hblkhd)
        670836 MiB available memory on the node where the printing process lives
------------------
     ethr =  1.86E-08,  avg # of iterations =  2.6

     =================== HUBBARD OCCUPATIONS ===================
     ------------------------ ATOM    1 ------------------------
     Tr[ns(  1)] (up, down, total) =   4.92704  0.26958  5.19662
     Atomic magnetic moment for atom   1 =   4.65747
     SPIN  1
     eigenvalues:
       0.971  0.973  0.994  0.995  0.995
     eigenvectors (columns):
      -0.576 -0.000  0.817  0.000 -0.042
       0.790  0.000  0.569  0.000  0.229
      -0.000  0.529  0.000 -0.848 -0.000
      -0.211  0.000 -0.098 -0.000  0.973
      -0.000  0.848 -0.000  0.529  0.000
     occupation matrix ns (before diag.):
       0.986  0.010 -0.000 -0.003  0.000
       0.010  0.980 -0.000  0.004  0.000
      -0.000 -0.000  0.988 -0.000 -0.010
      -0.003  0.004 -0.000  0.994 -0.000
       0.000  0.000 -0.010 -0.000  0.979
     SPIN  2
     eigenvalues:
       0.026  0.027  0.031  0.091  0.094
     eigenvectors (columns):
      -0.000  0.846 -0.080  0.000  0.527
      -0.000  0.489 -0.275 -0.000 -0.828
      -0.823 -0.000  0.000  0.568  0.000
       0.000 -0.211 -0.958 -0.000  0.194
       0.568  0.000 -0.000  0.823 -0.000
     occupation matrix ns (before diag.):
       0.046 -0.029  0.000  0.007  0.000
      -0.029  0.073 -0.000 -0.010  0.000
       0.000 -0.000  0.047 -0.000  0.030
       0.007 -0.010 -0.000  0.033 -0.000
       0.000  0.000  0.030 -0.000  0.070
     ------------------------ ATOM    2 ------------------------
     Tr[ns(  2)] (up, down, total) =   4.97797  2.18168  7.15964
     Atomic magnetic moment for atom   2 =   2.79629
     SPIN  1
     eigenvalues:
       0.992  0.993  0.997  0.998  0.999
     eigenvectors (columns):
       0.580 -0.000 -0.792  0.000 -0.191
      -0.787  0.000 -0.605  0.000  0.122
       0.000  0.487 -0.000 -0.873 -0.000
       0.213  0.000 -0.080  0.000  0.974
       0.000  0.873  0.000  0.487 -0.000
     occupation matrix ns (before diag.):
       0.996  0.002 -0.000 -0.001  0.000
       0.002  0.994 -0.000  0.001  0.000
      -0.000 -0.000  0.996 -0.000 -0.002
      -0.001  0.001 -0.000  0.998 -0.000
       0.000  0.000 -0.002 -0.000  0.994
     SPIN  2
     eigenvalues:
       0.027  0.082  0.086  0.993  0.994
     eigenvectors (columns):
      -0.227  0.000  0.619 -0.000  0.752
       0.080 -0.000 -0.757 -0.000  0.648
       0.000  0.774 -0.000 -0.634 -0.000
       0.971 -0.000  0.207 -0.000  0.123
       0.000  0.634 -0.000  0.774  0.000
     occupation matrix ns (before diag.):
       0.596  0.443 -0.000  0.097  0.000
       0.443  0.467 -0.000  0.068  0.000
      -0.000 -0.000  0.448  0.000 -0.446
       0.097  0.068  0.000  0.044 -0.000
       0.000  0.000 -0.446 -0.000  0.628

     Number of occupied Hubbard levels =   12.3563

     HUBBARD ENERGY =    0.1170  (Ry)

     total cpu time spent up to now is      503.5 secs

     total energy              =   -1090.45020602 Ry
     estimated scf accuracy    <       0.00000606 Ry

     total magnetization       =     8.00 Bohr mag/cell
     absolute magnetization    =     8.02 Bohr mag/cell

     iteration # 35     ecut=   120.00 Ry     beta= 0.70
     Davidson diagonalization with overlap

---- Real-time Memory Report at c_bands before calling an iterative solver
           268 MiB given to the printing process from OS
           234 MiB allocation reported by mallinfo(arena+hblkhd)
        668821 MiB available memory on the node where the printing process lives
------------------
     ethr =  5.61E-09,  avg # of iterations =  2.0

     =================== HUBBARD OCCUPATIONS ===================
     ------------------------ ATOM    1 ------------------------
     Tr[ns(  1)] (up, down, total) =   4.92704  0.26958  5.19662
     Atomic magnetic moment for atom   1 =   4.65747
     SPIN  1
     eigenvalues:
       0.971  0.973  0.994  0.995  0.995
     eigenvectors (columns):
      -0.576 -0.000  0.817  0.000 -0.042
       0.790  0.000  0.569  0.000  0.229
      -0.000  0.529  0.000 -0.848 -0.000
      -0.211  0.000 -0.098 -0.000  0.973
      -0.000  0.848 -0.000  0.529  0.000
     occupation matrix ns (before diag.):
       0.986  0.010 -0.000 -0.003  0.000
       0.010  0.980 -0.000  0.004  0.000
      -0.000 -0.000  0.988 -0.000 -0.010
      -0.003  0.004 -0.000  0.994 -0.000
       0.000  0.000 -0.010 -0.000  0.979
     SPIN  2
     eigenvalues:
       0.026  0.027  0.031  0.091  0.094
     eigenvectors (columns):
      -0.000  0.846 -0.080  0.000  0.527
      -0.000  0.489 -0.275 -0.000 -0.828
      -0.823 -0.000  0.000  0.568  0.000
       0.000 -0.211 -0.958 -0.000  0.194
       0.568  0.000 -0.000  0.823 -0.000
     occupation matrix ns (before diag.):
       0.046 -0.029  0.000  0.007  0.000
      -0.029  0.073 -0.000 -0.010  0.000
       0.000 -0.000  0.047 -0.000  0.030
       0.007 -0.010 -0.000  0.033 -0.000
       0.000  0.000  0.030 -0.000  0.070
     ------------------------ ATOM    2 ------------------------
     Tr[ns(  2)] (up, down, total) =   4.97797  2.18183  7.15980
     Atomic magnetic moment for atom   2 =   2.79614
     SPIN  1
     eigenvalues:
       0.992  0.993  0.997  0.998  0.999
     eigenvectors (columns):
       0.580 -0.000 -0.792  0.000 -0.190
      -0.787  0.000 -0.605  0.000  0.123
       0.000  0.487 -0.000 -0.873 -0.000
       0.213  0.000 -0.078  0.000  0.974
       0.000  0.873  0.000  0.487 -0.000
     occupation matrix ns (before diag.):
       0.996  0.002 -0.000 -0.001  0.000
       0.002  0.994 -0.000  0.001  0.000
      -0.000 -0.000  0.996 -0.000 -0.002
      -0.001  0.001 -0.000  0.998 -0.000
       0.000  0.000 -0.002 -0.000  0.994
     SPIN  2
     eigenvalues:
       0.027  0.083  0.086  0.993  0.994
     eigenvectors (columns):
      -0.225 -0.000  0.619 -0.000  0.752
       0.081  0.000 -0.758 -0.000  0.648
       0.000  0.773  0.000 -0.634 -0.000
       0.971 -0.000  0.206 -0.000  0.120
       0.000  0.634  0.000  0.773  0.000
     occupation matrix ns (before diag.):
       0.597  0.444 -0.000  0.095  0.000
       0.444  0.466 -0.000  0.066  0.000
      -0.000 -0.000  0.449  0.000 -0.446
       0.095  0.066  0.000  0.043 -0.000
       0.000  0.000 -0.446 -0.000  0.627

     Number of occupied Hubbard levels =   12.3564

     HUBBARD ENERGY =    0.1185  (Ry)

     total cpu time spent up to now is      515.9 secs

     total energy              =   -1090.45015231 Ry
     estimated scf accuracy    <       0.00000498 Ry

     total magnetization       =     8.00 Bohr mag/cell
     absolute magnetization    =     8.02 Bohr mag/cell

     iteration # 36     ecut=   120.00 Ry     beta= 0.70
     Davidson diagonalization with overlap

---- Real-time Memory Report at c_bands before calling an iterative solver
           268 MiB given to the printing process from OS
           234 MiB allocation reported by mallinfo(arena+hblkhd)
        668548 MiB available memory on the node where the printing process lives
------------------
     ethr =  4.61E-09,  avg # of iterations =  2.3

     =================== HUBBARD OCCUPATIONS ===================
     ------------------------ ATOM    1 ------------------------
     Tr[ns(  1)] (up, down, total) =   4.92704  0.26957  5.19662
     Atomic magnetic moment for atom   1 =   4.65747
     SPIN  1
     eigenvalues:
       0.971  0.973  0.994  0.995  0.995
     eigenvectors (columns):
      -0.576 -0.000  0.817  0.000 -0.042
       0.790  0.000  0.569  0.000  0.229
       0.000  0.529  0.000 -0.848 -0.000
      -0.211  0.000 -0.098 -0.000  0.973
      -0.000  0.848 -0.000  0.529  0.000
     occupation matrix ns (before diag.):
       0.986  0.010 -0.000 -0.003  0.000
       0.010  0.980 -0.000  0.004  0.000
      -0.000 -0.000  0.988 -0.000 -0.010
      -0.003  0.004 -0.000  0.994 -0.000
       0.000  0.000 -0.010 -0.000  0.979
     SPIN  2
     eigenvalues:
       0.026  0.027  0.031  0.091  0.094
     eigenvectors (columns):
      -0.000  0.846 -0.080  0.000  0.527
      -0.000  0.489 -0.275 -0.000 -0.828
      -0.823 -0.000  0.000  0.568  0.000
       0.000 -0.211 -0.958 -0.000  0.194
       0.568  0.000 -0.000  0.823 -0.000
     occupation matrix ns (before diag.):
       0.046 -0.029  0.000  0.007  0.000
      -0.029  0.073 -0.000 -0.010  0.000
       0.000 -0.000  0.047 -0.000  0.030
       0.007 -0.010 -0.000  0.033 -0.000
       0.000  0.000  0.030 -0.000  0.070
     ------------------------ ATOM    2 ------------------------
     Tr[ns(  2)] (up, down, total) =   4.97797  2.18210  7.16007
     Atomic magnetic moment for atom   2 =   2.79587
     SPIN  1
     eigenvalues:
       0.992  0.993  0.997  0.998  0.999
     eigenvectors (columns):
       0.580 -0.000 -0.793  0.000 -0.186
      -0.786  0.000 -0.605  0.000  0.126
       0.000  0.487 -0.000 -0.873 -0.000
       0.213  0.000 -0.073  0.000  0.974
       0.000  0.873  0.000  0.487 -0.000
     occupation matrix ns (before diag.):
       0.996  0.002 -0.000 -0.001  0.000
       0.002  0.994 -0.000  0.001  0.000
      -0.000 -0.000  0.996 -0.000 -0.002
      -0.001  0.001 -0.000  0.998 -0.000
       0.000  0.000 -0.002 -0.000  0.994
     SPIN  2
     eigenvalues:
       0.027  0.083  0.086  0.993  0.994
     eigenvectors (columns):
      -0.218  0.000  0.618 -0.000  0.755
       0.083  0.000 -0.759 -0.000  0.646
       0.000  0.773  0.000 -0.635 -0.000
       0.972 -0.000  0.204 -0.000  0.114
       0.000  0.635  0.000  0.773  0.000
     occupation matrix ns (before diag.):
       0.601  0.444 -0.000  0.091  0.000
       0.444  0.464 -0.000  0.062  0.000
      -0.000 -0.000  0.450  0.000 -0.447
       0.091  0.062  0.000  0.042 -0.000
       0.000  0.000 -0.447 -0.000  0.626

     Number of occupied Hubbard levels =   12.3567

     HUBBARD ENERGY =    0.1142  (Ry)

     total cpu time spent up to now is      529.7 secs

     total energy              =   -1090.44693549 Ry
     estimated scf accuracy    <       0.00001173 Ry

     total magnetization       =     8.00 Bohr mag/cell
     absolute magnetization    =     8.02 Bohr mag/cell

     iteration # 37     ecut=   120.00 Ry     beta= 0.70
     Davidson diagonalization with overlap

---- Real-time Memory Report at c_bands before calling an iterative solver
           268 MiB given to the printing process from OS
           234 MiB allocation reported by mallinfo(arena+hblkhd)
        670224 MiB available memory on the node where the printing process lives
------------------
     ethr =  4.61E-09,  avg # of iterations =  6.1

     =================== HUBBARD OCCUPATIONS ===================
     ------------------------ ATOM    1 ------------------------
     Tr[ns(  1)] (up, down, total) =   4.92706  0.26958  5.19664
     Atomic magnetic moment for atom   1 =   4.65748
     SPIN  1
     eigenvalues:
       0.971  0.973  0.994  0.995  0.995
     eigenvectors (columns):
      -0.576 -0.000  0.817  0.000 -0.042
       0.790  0.000  0.569  0.000  0.228
      -0.000  0.529  0.000 -0.848 -0.000
      -0.211  0.000 -0.098 -0.000  0.973
      -0.000  0.848 -0.000  0.529  0.000
     occupation matrix ns (before diag.):
       0.986  0.010 -0.000 -0.003  0.000
       0.010  0.980 -0.000  0.004  0.000
      -0.000 -0.000  0.988 -0.000 -0.010
      -0.003  0.004 -0.000  0.994 -0.000
       0.000  0.000 -0.010 -0.000  0.979
     SPIN  2
     eigenvalues:
       0.026  0.027  0.031  0.091  0.094
     eigenvectors (columns):
      -0.000  0.847 -0.077  0.000  0.527
      -0.000  0.490 -0.273 -0.000 -0.828
      -0.823 -0.000  0.000  0.568  0.000
       0.000 -0.207 -0.959 -0.000  0.193
       0.568  0.000 -0.000  0.823 -0.000
     occupation matrix ns (before diag.):
       0.046 -0.029  0.000  0.007  0.000
      -0.029  0.073 -0.000 -0.010  0.000
       0.000 -0.000  0.047 -0.000  0.030
       0.007 -0.010 -0.000  0.033 -0.000
       0.000  0.000  0.030 -0.000  0.070
     ------------------------ ATOM    2 ------------------------
     Tr[ns(  2)] (up, down, total) =   4.97799  2.18118  7.15917
     Atomic magnetic moment for atom   2 =   2.79681
     SPIN  1
     eigenvalues:
       0.992  0.993  0.997  0.998  0.999
     eigenvectors (columns):
       0.576 -0.000 -0.785  0.000 -0.229
      -0.790  0.000 -0.606  0.000  0.094
       0.000  0.491 -0.000 -0.871 -0.000
       0.212  0.000 -0.127  0.000  0.969
       0.000  0.871  0.000  0.491 -0.000
     occupation matrix ns (before diag.):
       0.996  0.002 -0.000 -0.001  0.000
       0.002  0.994 -0.000  0.001  0.000
      -0.000 -0.000  0.996 -0.000 -0.002
      -0.001  0.001 -0.000  0.998 -0.000
       0.000  0.000 -0.002 -0.000  0.994
     SPIN  2
     eigenvalues:
       0.026  0.082  0.086  0.993  0.994
     eigenvectors (columns):
      -0.279 -0.000  0.633 -0.000  0.722
       0.048  0.000 -0.742 -0.000  0.669
       0.000  0.769  0.000 -0.639 -0.000
       0.959 -0.000  0.221 -0.000  0.177
       0.000  0.639  0.000  0.769  0.000
     occupation matrix ns (before diag.):
       0.555  0.439 -0.000  0.132  0.000
       0.439  0.492 -0.000  0.105  0.000
      -0.000 -0.000  0.454  0.000 -0.448
       0.132  0.105  0.000  0.059 -0.000
       0.000  0.000 -0.448 -0.000  0.621

     Number of occupied Hubbard levels =   12.3558

     HUBBARD ENERGY =    0.1210  (Ry)

     total cpu time spent up to now is      552.0 secs

     total energy              =   -1090.45009768 Ry
     estimated scf accuracy    <       0.00001683 Ry

     total magnetization       =     8.00 Bohr mag/cell
     absolute magnetization    =     8.02 Bohr mag/cell

     iteration # 38     ecut=   120.00 Ry     beta= 0.70
     Davidson diagonalization with overlap

---- Real-time Memory Report at c_bands before calling an iterative solver
           268 MiB given to the printing process from OS
           234 MiB allocation reported by mallinfo(arena+hblkhd)
        668092 MiB available memory on the node where the printing process lives
------------------
     ethr =  4.61E-09,  avg # of iterations =  4.0

     =================== HUBBARD OCCUPATIONS ===================
     ------------------------ ATOM    1 ------------------------
     Tr[ns(  1)] (up, down, total) =   4.92706  0.26957  5.19662
     Atomic magnetic moment for atom   1 =   4.65749
     SPIN  1
     eigenvalues:
       0.971  0.973  0.994  0.995  0.995
     eigenvectors (columns):
      -0.576 -0.000  0.817  0.000 -0.042
       0.790  0.000  0.569  0.000  0.229
      -0.000  0.529  0.000 -0.848 -0.000
      -0.211  0.000 -0.098 -0.000  0.973
      -0.000  0.848 -0.000  0.529  0.000
     occupation matrix ns (before diag.):
       0.986  0.010 -0.000 -0.003  0.000
       0.010  0.980 -0.000  0.004  0.000
      -0.000 -0.000  0.988 -0.000 -0.010
      -0.003  0.004 -0.000  0.994 -0.000
       0.000  0.000 -0.010 -0.000  0.979
     SPIN  2
     eigenvalues:
       0.026  0.027  0.031  0.091  0.094
     eigenvectors (columns):
      -0.000  0.847 -0.078  0.000  0.527
      -0.000  0.490 -0.274 -0.000 -0.828
      -0.823 -0.000  0.000  0.568  0.000
       0.000 -0.209 -0.959 -0.000  0.193
       0.568  0.000 -0.000  0.823 -0.000
     occupation matrix ns (before diag.):
       0.046 -0.029  0.000  0.007  0.000
      -0.029  0.073 -0.000 -0.010  0.000
       0.000 -0.000  0.047 -0.000  0.030
       0.007 -0.010 -0.000  0.033 -0.000
       0.000  0.000  0.030 -0.000  0.070
     ------------------------ ATOM    2 ------------------------
     Tr[ns(  2)] (up, down, total) =   4.97801  2.18236  7.16036
     Atomic magnetic moment for atom   2 =   2.79565
     SPIN  1
     eigenvalues:
       0.992  0.993  0.997  0.998  0.999
     eigenvectors (columns):
       0.575 -0.000 -0.788  0.000 -0.219
      -0.790  0.000 -0.604  0.000  0.101
       0.000  0.492 -0.000 -0.871 -0.000
       0.212  0.000 -0.115  0.000  0.971
       0.000  0.871  0.000  0.492 -0.000
     occupation matrix ns (before diag.):
       0.996  0.002 -0.000 -0.001  0.000
       0.002  0.994 -0.000  0.001  0.000
      -0.000 -0.000  0.996 -0.000 -0.002
      -0.001  0.001 -0.000  0.998 -0.000
       0.000  0.000 -0.002 -0.000  0.994
     SPIN  2
     eigenvalues:
       0.027  0.083  0.086  0.993  0.994
     eigenvectors (columns):
      -0.265  0.000  0.637 -0.000  0.724
       0.050 -0.000 -0.741 -0.000  0.670
       0.000  0.762 -0.000 -0.648 -0.000
       0.963 -0.000  0.214 -0.000  0.165
       0.000  0.648 -0.000  0.762  0.000
     occupation matrix ns (before diag.):
       0.558  0.441 -0.000  0.123  0.000
       0.441  0.493 -0.000  0.097  0.000
      -0.000 -0.000  0.465  0.000 -0.449
       0.123  0.097  0.000  0.056 -0.000
       0.000  0.000 -0.449 -0.000  0.611

     Number of occupied Hubbard levels =   12.3570

     HUBBARD ENERGY =    0.1172  (Ry)

     total cpu time spent up to now is      569.3 secs

     total energy              =   -1090.45028044 Ry
     estimated scf accuracy    <       0.00004785 Ry

     total magnetization       =     8.00 Bohr mag/cell
     absolute magnetization    =     8.02 Bohr mag/cell

     iteration # 39     ecut=   120.00 Ry     beta= 0.70
     Davidson diagonalization with overlap

---- Real-time Memory Report at c_bands before calling an iterative solver
           268 MiB given to the printing process from OS
           234 MiB allocation reported by mallinfo(arena+hblkhd)
        664806 MiB available memory on the node where the printing process lives
------------------
     ethr =  4.61E-09,  avg # of iterations =  2.6

     =================== HUBBARD OCCUPATIONS ===================
     ------------------------ ATOM    1 ------------------------
     Tr[ns(  1)] (up, down, total) =   4.92706  0.26956  5.19662
     Atomic magnetic moment for atom   1 =   4.65749
     SPIN  1
     eigenvalues:
       0.971  0.973  0.994  0.995  0.995
     eigenvectors (columns):
      -0.576 -0.000  0.817  0.000 -0.042
       0.790  0.000  0.569  0.000  0.229
      -0.000  0.529  0.000 -0.848 -0.000
      -0.211  0.000 -0.098 -0.000  0.973
      -0.000  0.848 -0.000  0.529  0.000
     occupation matrix ns (before diag.):
       0.986  0.010 -0.000 -0.003  0.000
       0.010  0.980 -0.000  0.004  0.000
      -0.000 -0.000  0.988 -0.000 -0.010
      -0.003  0.004 -0.000  0.994 -0.000
       0.000  0.000 -0.010 -0.000  0.979
     SPIN  2
     eigenvalues:
       0.026  0.027  0.031  0.091  0.094
     eigenvectors (columns):
      -0.000  0.847 -0.078  0.000  0.527
      -0.000  0.490 -0.273 -0.000 -0.828
      -0.823 -0.000  0.000  0.568  0.000
       0.000 -0.208 -0.959 -0.000  0.193
       0.568  0.000 -0.000  0.823 -0.000
     occupation matrix ns (before diag.):
       0.046 -0.029  0.000  0.007  0.000
      -0.029  0.073 -0.000 -0.010  0.000
       0.000 -0.000  0.047 -0.000  0.030
       0.007 -0.010 -0.000  0.033 -0.000
       0.000  0.000  0.030 -0.000  0.070
     ------------------------ ATOM    2 ------------------------
     Tr[ns(  2)] (up, down, total) =   4.97800  2.18177  7.15977
     Atomic magnetic moment for atom   2 =   2.79623
     SPIN  1
     eigenvalues:
       0.992  0.993  0.997  0.998  0.999
     eigenvectors (columns):
       0.574 -0.000 -0.788  0.000 -0.223
      -0.791  0.000 -0.604  0.000  0.097
       0.000  0.493 -0.000 -0.870 -0.000
       0.211  0.000 -0.121  0.000  0.970
       0.000  0.870  0.000  0.493 -0.000
     occupation matrix ns (before diag.):
       0.996  0.002 -0.000 -0.001  0.000
       0.002  0.994 -0.000  0.001  0.000
      -0.000 -0.000  0.996 -0.000 -0.002
      -0.001  0.001 -0.000  0.998 -0.000
       0.000  0.000 -0.002 -0.000  0.994
     SPIN  2
     eigenvalues:
       0.027  0.082  0.086  0.993  0.994
     eigenvectors (columns):
      -0.272 -0.000  0.638 -0.000  0.720
       0.050  0.000 -0.738 -0.000  0.673
       0.000  0.763  0.000 -0.646 -0.000
       0.961 -0.000  0.219 -0.000  0.170
       0.000  0.646  0.000  0.763  0.000
     occupation matrix ns (before diag.):
       0.553  0.441 -0.000  0.126  0.000
       0.441  0.496 -0.000  0.101  0.000
      -0.000 -0.000  0.463  0.000 -0.449
       0.126  0.101  0.000  0.057 -0.000
       0.000  0.000 -0.449 -0.000  0.613

     Number of occupied Hubbard levels =   12.3564

     HUBBARD ENERGY =    0.1176  (Ry)

     total cpu time spent up to now is      583.6 secs

     total energy              =   -1090.45030958 Ry
     estimated scf accuracy    <       0.00000069 Ry

     total magnetization       =     8.00 Bohr mag/cell
     absolute magnetization    =     8.02 Bohr mag/cell

     iteration # 40     ecut=   120.00 Ry     beta= 0.70
     Davidson diagonalization with overlap

---- Real-time Memory Report at c_bands before calling an iterative solver
           268 MiB given to the printing process from OS
           234 MiB allocation reported by mallinfo(arena+hblkhd)
        668116 MiB available memory on the node where the printing process lives
------------------
     ethr =  6.42E-10,  avg # of iterations =  3.0

     =================== HUBBARD OCCUPATIONS ===================
     ------------------------ ATOM    1 ------------------------
     Tr[ns(  1)] (up, down, total) =   4.92707  0.26958  5.19664
     Atomic magnetic moment for atom   1 =   4.65749
     SPIN  1
     eigenvalues:
       0.971  0.973  0.994  0.995  0.995
     eigenvectors (columns):
      -0.576 -0.000  0.817  0.000 -0.042
       0.790  0.000  0.569  0.000  0.229
      -0.000  0.529  0.000 -0.848 -0.000
      -0.211  0.000 -0.098 -0.000  0.973
      -0.000  0.848 -0.000  0.529  0.000
     occupation matrix ns (before diag.):
       0.986  0.010 -0.000 -0.003  0.000
       0.010  0.980 -0.000  0.004  0.000
      -0.000 -0.000  0.988 -0.000 -0.010
      -0.003  0.004 -0.000  0.994 -0.000
       0.000  0.000 -0.010 -0.000  0.979
     SPIN  2
     eigenvalues:
       0.026  0.027  0.031  0.091  0.094
     eigenvectors (columns):
      -0.000  0.847 -0.078  0.000  0.527
      -0.000  0.490 -0.273 -0.000 -0.828
      -0.823 -0.000  0.000  0.568  0.000
       0.000 -0.208 -0.959 -0.000  0.193
       0.568  0.000 -0.000  0.823 -0.000
     occupation matrix ns (before diag.):
       0.046 -0.029  0.000  0.007  0.000
      -0.029  0.073 -0.000 -0.010  0.000
       0.000 -0.000  0.047 -0.000  0.030
       0.007 -0.010 -0.000  0.033 -0.000
       0.000  0.000  0.030 -0.000  0.070
     ------------------------ ATOM    2 ------------------------
     Tr[ns(  2)] (up, down, total) =   4.97800  2.18181  7.15981
     Atomic magnetic moment for atom   2 =   2.79619
     SPIN  1
     eigenvalues:
       0.992  0.993  0.997  0.998  0.999
     eigenvectors (columns):
       0.574 -0.000 -0.788  0.000 -0.222
      -0.791  0.000 -0.604  0.000  0.098
       0.000  0.493 -0.000 -0.870 -0.000
       0.211  0.000 -0.120  0.000  0.970
       0.000  0.870  0.000  0.493 -0.000
     occupation matrix ns (before diag.):
       0.996  0.002 -0.000 -0.001  0.000
       0.002  0.994 -0.000  0.001  0.000
      -0.000 -0.000  0.996 -0.000 -0.002
      -0.001  0.001 -0.000  0.998 -0.000
       0.000  0.000 -0.002 -0.000  0.994
     SPIN  2
     eigenvalues:
       0.027  0.082  0.086  0.993  0.994
     eigenvectors (columns):
      -0.271 -0.000  0.639 -0.000  0.720
       0.050  0.000 -0.738 -0.000  0.673
       0.000  0.762  0.000 -0.647 -0.000
       0.961 -0.000  0.219 -0.000  0.168
       0.000  0.647  0.000  0.762  0.000
     occupation matrix ns (before diag.):
       0.552  0.441 -0.000  0.126  0.000
       0.441  0.497 -0.000  0.100  0.000
      -0.000 -0.000  0.464  0.000 -0.449
       0.126  0.100  0.000  0.057 -0.000
       0.000  0.000 -0.449 -0.000  0.612

     Number of occupied Hubbard levels =   12.3565

     HUBBARD ENERGY =    0.1177  (Ry)

     total cpu time spent up to now is      597.7 secs

     total energy              =   -1090.45030969 Ry
     estimated scf accuracy    <       0.00000183 Ry

     total magnetization       =     8.00 Bohr mag/cell
     absolute magnetization    =     8.02 Bohr mag/cell

     iteration # 41     ecut=   120.00 Ry     beta= 0.70
     Davidson diagonalization with overlap

---- Real-time Memory Report at c_bands before calling an iterative solver
           268 MiB given to the printing process from OS
           234 MiB allocation reported by mallinfo(arena+hblkhd)
        664767 MiB available memory on the node where the printing process lives
------------------
     ethr =  6.42E-10,  avg # of iterations =  2.2

     =================== HUBBARD OCCUPATIONS ===================
     ------------------------ ATOM    1 ------------------------
     Tr[ns(  1)] (up, down, total) =   4.92708  0.26959  5.19667
     Atomic magnetic moment for atom   1 =   4.65748
     SPIN  1
     eigenvalues:
       0.971  0.973  0.994  0.995  0.995
     eigenvectors (columns):
      -0.576 -0.000  0.817  0.000 -0.042
       0.790  0.000  0.569  0.000  0.229
      -0.000  0.529  0.000 -0.848 -0.000
      -0.211  0.000 -0.098 -0.000  0.973
      -0.000  0.848 -0.000  0.529  0.000
     occupation matrix ns (before diag.):
       0.986  0.010 -0.000 -0.003  0.000
       0.010  0.980 -0.000  0.004  0.000
      -0.000 -0.000  0.988 -0.000 -0.010
      -0.003  0.004 -0.000  0.994 -0.000
       0.000  0.000 -0.010 -0.000  0.979
     SPIN  2
     eigenvalues:
       0.026  0.027  0.031  0.091  0.094
     eigenvectors (columns):
      -0.000  0.847 -0.078  0.000  0.527
      -0.000  0.490 -0.273 -0.000 -0.828
      -0.823 -0.000  0.000  0.568  0.000
       0.000 -0.208 -0.959 -0.000  0.193
       0.568  0.000 -0.000  0.823 -0.000
     occupation matrix ns (before diag.):
       0.046 -0.029  0.000  0.007  0.000
      -0.029  0.073 -0.000 -0.010  0.000
       0.000 -0.000  0.047 -0.000  0.030
       0.007 -0.010 -0.000  0.033 -0.000
       0.000  0.000  0.030 -0.000  0.070
     ------------------------ ATOM    2 ------------------------
     Tr[ns(  2)] (up, down, total) =   4.97800  2.18178  7.15978
     Atomic magnetic moment for atom   2 =   2.79621
     SPIN  1
     eigenvalues:
       0.992  0.993  0.997  0.998  0.999
     eigenvectors (columns):
       0.573 -0.000 -0.788  0.000 -0.223
      -0.792  0.000 -0.603  0.000  0.097
       0.000  0.493 -0.000 -0.870 -0.000
       0.211  0.000 -0.121  0.000  0.970
       0.000  0.870  0.000  0.493 -0.000
     occupation matrix ns (before diag.):
       0.996  0.002 -0.000 -0.001  0.000
       0.002  0.994 -0.000  0.001  0.000
      -0.000 -0.000  0.996 -0.000 -0.002
      -0.001  0.001 -0.000  0.998 -0.000
       0.000  0.000 -0.002 -0.000  0.994
     SPIN  2
     eigenvalues:
       0.027  0.082  0.086  0.993  0.994
     eigenvectors (columns):
      -0.272 -0.000  0.639 -0.000  0.719
       0.049  0.000 -0.737 -0.000  0.674
       0.000  0.762  0.000 -0.647 -0.000
       0.961 -0.000  0.219 -0.000  0.169
       0.000  0.647  0.000  0.762  0.000
     occupation matrix ns (before diag.):
       0.551  0.441 -0.000  0.126  0.000
       0.441  0.498 -0.000  0.101  0.000
      -0.000 -0.000  0.464  0.000 -0.449
       0.126  0.101  0.000  0.057 -0.000
       0.000  0.000 -0.449 -0.000  0.612

     Number of occupied Hubbard levels =   12.3565

     HUBBARD ENERGY =    0.1167  (Ry)

     total cpu time spent up to now is      610.9 secs

     total energy              =   -1090.45030214 Ry
     estimated scf accuracy    <       0.00000254 Ry

     total magnetization       =     8.00 Bohr mag/cell
     absolute magnetization    =     8.02 Bohr mag/cell

     iteration # 42     ecut=   120.00 Ry     beta= 0.70
     Davidson diagonalization with overlap

---- Real-time Memory Report at c_bands before calling an iterative solver
           268 MiB given to the printing process from OS
           234 MiB allocation reported by mallinfo(arena+hblkhd)
        665553 MiB available memory on the node where the printing process lives
------------------
     ethr =  6.42E-10,  avg # of iterations =  3.4

     =================== HUBBARD OCCUPATIONS ===================
     ------------------------ ATOM    1 ------------------------
     Tr[ns(  1)] (up, down, total) =   4.92708  0.26960  5.19668
     Atomic magnetic moment for atom   1 =   4.65748
     SPIN  1
     eigenvalues:
       0.971  0.973  0.994  0.995  0.995
     eigenvectors (columns):
      -0.576 -0.000  0.817  0.000 -0.042
       0.790  0.000  0.569  0.000  0.229
       0.000  0.529  0.000 -0.848 -0.000
      -0.211  0.000 -0.098 -0.000  0.973
      -0.000  0.848 -0.000  0.529  0.000
     occupation matrix ns (before diag.):
       0.986  0.010 -0.000 -0.003  0.000
       0.010  0.980 -0.000  0.004  0.000
      -0.000 -0.000  0.988 -0.000 -0.010
      -0.003  0.004 -0.000  0.994 -0.000
       0.000  0.000 -0.010 -0.000  0.979
     SPIN  2
     eigenvalues:
       0.026  0.027  0.031  0.091  0.094
     eigenvectors (columns):
      -0.000  0.847 -0.077  0.000  0.527
      -0.000  0.490 -0.273 -0.000 -0.828
      -0.823 -0.000  0.000  0.568  0.000
       0.000 -0.208 -0.959 -0.000  0.193
       0.568  0.000 -0.000  0.823 -0.000
     occupation matrix ns (before diag.):
       0.046 -0.029  0.000  0.007  0.000
      -0.029  0.073 -0.000 -0.010  0.000
       0.000 -0.000  0.047 -0.000  0.030
       0.007 -0.010 -0.000  0.033 -0.000
       0.000  0.000  0.030 -0.000  0.070
     ------------------------ ATOM    2 ------------------------
     Tr[ns(  2)] (up, down, total) =   4.97799  2.18161  7.15960
     Atomic magnetic moment for atom   2 =   2.79639
     SPIN  1
     eigenvalues:
       0.992  0.993  0.997  0.998  0.999
     eigenvectors (columns):
       0.573 -0.000 -0.788  0.000 -0.226
      -0.792  0.000 -0.603  0.000  0.095
       0.000  0.493 -0.000 -0.870 -0.000
       0.211  0.000 -0.124  0.000  0.970
       0.000  0.870  0.000  0.493 -0.000
     occupation matrix ns (before diag.):
       0.996  0.002 -0.000 -0.001  0.000
       0.002  0.994 -0.000  0.001  0.000
      -0.000 -0.000  0.996 -0.000 -0.002
      -0.001  0.001 -0.000  0.998 -0.000
       0.000  0.000 -0.002 -0.000  0.994
     SPIN  2
     eigenvalues:
       0.026  0.082  0.086  0.993  0.994
     eigenvectors (columns):
      -0.276  0.000  0.640 -0.000  0.717
       0.048  0.000 -0.736 -0.000  0.676
       0.000  0.762  0.000 -0.647 -0.000
       0.960 -0.000  0.221 -0.000  0.173
       0.000  0.647  0.000  0.762  0.000
     occupation matrix ns (before diag.):
       0.548  0.441 -0.000  0.128  0.000
       0.441  0.500 -0.000  0.103  0.000
      -0.000 -0.000  0.464  0.000 -0.449
       0.128  0.103  0.000  0.058 -0.000
       0.000  0.000 -0.449 -0.000  0.612

     Number of occupied Hubbard levels =   12.3563

     HUBBARD ENERGY =    0.1170  (Ry)

     total cpu time spent up to now is      626.5 secs

     total energy              =   -1090.45030688 Ry
     estimated scf accuracy    <          8.7E-09 Ry

     total magnetization       =     8.00 Bohr mag/cell
     absolute magnetization    =     8.02 Bohr mag/cell

     iteration # 43     ecut=   120.00 Ry     beta= 0.70
     Davidson diagonalization with overlap

---- Real-time Memory Report at c_bands before calling an iterative solver
           268 MiB given to the printing process from OS
           234 MiB allocation reported by mallinfo(arena+hblkhd)
        669841 MiB available memory on the node where the printing process lives
------------------
     ethr =  8.08E-12,  avg # of iterations =  6.0

     =================== HUBBARD OCCUPATIONS ===================
     ------------------------ ATOM    1 ------------------------
     Tr[ns(  1)] (up, down, total) =   4.92708  0.26960  5.19668
     Atomic magnetic moment for atom   1 =   4.65748
     SPIN  1
     eigenvalues:
       0.971  0.973  0.994  0.995  0.995
     eigenvectors (columns):
      -0.576 -0.000  0.817  0.000 -0.042
       0.790  0.000  0.569  0.000  0.229
       0.000  0.529  0.000 -0.848 -0.000
      -0.211  0.000 -0.098 -0.000  0.973
      -0.000  0.848 -0.000  0.529  0.000
     occupation matrix ns (before diag.):
       0.986  0.010 -0.000 -0.003  0.000
       0.010  0.980 -0.000  0.004  0.000
      -0.000 -0.000  0.988 -0.000 -0.010
      -0.003  0.004 -0.000  0.994 -0.000
       0.000  0.000 -0.010 -0.000  0.979
     SPIN  2
     eigenvalues:
       0.026  0.027  0.031  0.091  0.094
     eigenvectors (columns):
      -0.000  0.847 -0.078  0.000  0.527
      -0.000  0.490 -0.273 -0.000 -0.828
      -0.823 -0.000  0.000  0.568  0.000
       0.000 -0.208 -0.959 -0.000  0.193
       0.568  0.000 -0.000  0.823 -0.000
     occupation matrix ns (before diag.):
       0.046 -0.029  0.000  0.007  0.000
      -0.029  0.073 -0.000 -0.010  0.000
       0.000 -0.000  0.047 -0.000  0.030
       0.007 -0.010 -0.000  0.033 -0.000
       0.000  0.000  0.030 -0.000  0.070
     ------------------------ ATOM    2 ------------------------
     Tr[ns(  2)] (up, down, total) =   4.97799  2.18167  7.15966
     Atomic magnetic moment for atom   2 =   2.79632
     SPIN  1
     eigenvalues:
       0.992  0.993  0.997  0.998  0.999
     eigenvectors (columns):
       0.573 -0.000 -0.788  0.000 -0.224
      -0.792  0.000 -0.603  0.000  0.097
       0.000  0.493 -0.000 -0.870 -0.000
       0.211  0.000 -0.122  0.000  0.970
       0.000  0.870  0.000  0.493 -0.000
     occupation matrix ns (before diag.):
       0.996  0.002 -0.000 -0.001  0.000
       0.002  0.994 -0.000  0.001  0.000
      -0.000 -0.000  0.996 -0.000 -0.002
      -0.001  0.001 -0.000  0.998 -0.000
       0.000  0.000 -0.002 -0.000  0.994
     SPIN  2
     eigenvalues:
       0.027  0.082  0.086  0.993  0.994
     eigenvectors (columns):
      -0.274 -0.000  0.640 -0.000  0.718
       0.049  0.000 -0.736 -0.000  0.675
       0.000  0.763  0.000 -0.647 -0.000
       0.961 -0.000  0.220 -0.000  0.170
       0.000  0.647  0.000  0.763  0.000
     occupation matrix ns (before diag.):
       0.550  0.441 -0.000  0.127  0.000
       0.441  0.499 -0.000  0.101  0.000
      -0.000 -0.000  0.463  0.000 -0.449
       0.127  0.101  0.000  0.057 -0.000
       0.000  0.000 -0.449 -0.000  0.612

     Number of occupied Hubbard levels =   12.3563

     HUBBARD ENERGY =    0.1167  (Ry)

     total cpu time spent up to now is      649.0 secs

     total energy              =   -1090.45030919 Ry
     estimated scf accuracy    <       0.00000023 Ry

     total magnetization       =     8.00 Bohr mag/cell
     absolute magnetization    =     8.02 Bohr mag/cell

     iteration # 44     ecut=   120.00 Ry     beta= 0.70
     Davidson diagonalization with overlap

---- Real-time Memory Report at c_bands before calling an iterative solver
           268 MiB given to the printing process from OS
           234 MiB allocation reported by mallinfo(arena+hblkhd)
        665419 MiB available memory on the node where the printing process lives
------------------
     ethr =  8.08E-12,  avg # of iterations =  6.1

     =================== HUBBARD OCCUPATIONS ===================
     ------------------------ ATOM    1 ------------------------
     Tr[ns(  1)] (up, down, total) =   4.92708  0.26960  5.19668
     Atomic magnetic moment for atom   1 =   4.65748
     SPIN  1
     eigenvalues:
       0.971  0.973  0.994  0.995  0.995
     eigenvectors (columns):
      -0.576 -0.000 -0.817  0.000  0.042
       0.790  0.000 -0.569  0.000 -0.229
       0.000  0.529 -0.000 -0.848  0.000
      -0.211  0.000  0.098 -0.000 -0.973
      -0.000  0.848  0.000  0.529 -0.000
     occupation matrix ns (before diag.):
       0.986  0.010 -0.000 -0.003  0.000
       0.010  0.980 -0.000  0.004  0.000
      -0.000 -0.000  0.988 -0.000 -0.010
      -0.003  0.004 -0.000  0.994 -0.000
       0.000  0.000 -0.010 -0.000  0.979
     SPIN  2
     eigenvalues:
       0.026  0.027  0.031  0.091  0.094
     eigenvectors (columns):
      -0.000  0.847 -0.077  0.000  0.527
      -0.000  0.490 -0.273 -0.000 -0.828
      -0.823 -0.000  0.000  0.568  0.000
       0.000 -0.208 -0.959 -0.000  0.193
       0.568  0.000 -0.000  0.823 -0.000
     occupation matrix ns (before diag.):
       0.046 -0.029  0.000  0.007  0.000
      -0.029  0.073 -0.000 -0.010  0.000
       0.000 -0.000  0.047 -0.000  0.030
       0.007 -0.010 -0.000  0.033 -0.000
       0.000  0.000  0.030 -0.000  0.070
     ------------------------ ATOM    2 ------------------------
     Tr[ns(  2)] (up, down, total) =   4.97799  2.18160  7.15959
     Atomic magnetic moment for atom   2 =   2.79639
     SPIN  1
     eigenvalues:
       0.992  0.993  0.997  0.998  0.999
     eigenvectors (columns):
       0.573 -0.000 -0.788  0.000 -0.225
      -0.792  0.000 -0.603  0.000  0.095
       0.000  0.493 -0.000 -0.870 -0.000
       0.211  0.000 -0.124  0.000  0.970
       0.000  0.870  0.000  0.493 -0.000
     occupation matrix ns (before diag.):
       0.996  0.002 -0.000 -0.001  0.000
       0.002  0.994 -0.000  0.001  0.000
      -0.000 -0.000  0.996 -0.000 -0.002
      -0.001  0.001 -0.000  0.998 -0.000
       0.000  0.000 -0.002 -0.000  0.994
     SPIN  2
     eigenvalues:
       0.026  0.082  0.086  0.993  0.994
     eigenvectors (columns):
      -0.276 -0.000  0.640 -0.000  0.717
       0.048  0.000 -0.736 -0.000  0.676
       0.000  0.763  0.000 -0.647 -0.000
       0.960 -0.000  0.221 -0.000  0.172
       0.000  0.647  0.000  0.763  0.000
     occupation matrix ns (before diag.):
       0.548  0.441 -0.000  0.128  0.000
       0.441  0.500 -0.000  0.103  0.000
      -0.000 -0.000  0.463  0.000 -0.449
       0.128  0.103  0.000  0.058 -0.000
       0.000  0.000 -0.449 -0.000  0.612

     Number of occupied Hubbard levels =   12.3563

     HUBBARD ENERGY =    0.1167  (Ry)

     total cpu time spent up to now is      673.1 secs

     total energy              =   -1090.45031371 Ry
     estimated scf accuracy    <          3.2E-09 Ry

     total magnetization       =     8.00 Bohr mag/cell
     absolute magnetization    =     8.02 Bohr mag/cell

     iteration # 45     ecut=   120.00 Ry     beta= 0.70
     Davidson diagonalization with overlap

---- Real-time Memory Report at c_bands before calling an iterative solver
           268 MiB given to the printing process from OS
           234 MiB allocation reported by mallinfo(arena+hblkhd)
        667789 MiB available memory on the node where the printing process lives
------------------
     ethr =  2.94E-12,  avg # of iterations =  2.3

     =================== HUBBARD OCCUPATIONS ===================
     ------------------------ ATOM    1 ------------------------
     Tr[ns(  1)] (up, down, total) =   4.92708  0.26960  5.19668
     Atomic magnetic moment for atom   1 =   4.65748
     SPIN  1
     eigenvalues:
       0.971  0.973  0.994  0.995  0.995
     eigenvectors (columns):
      -0.576 -0.000  0.817  0.000 -0.042
       0.790  0.000  0.569  0.000  0.229
       0.000  0.529  0.000 -0.848 -0.000
      -0.211  0.000 -0.098 -0.000  0.973
      -0.000  0.848 -0.000  0.529  0.000
     occupation matrix ns (before diag.):
       0.986  0.010 -0.000 -0.003  0.000
       0.010  0.980 -0.000  0.004  0.000
      -0.000 -0.000  0.988 -0.000 -0.010
      -0.003  0.004 -0.000  0.994 -0.000
       0.000  0.000 -0.010 -0.000  0.979
     SPIN  2
     eigenvalues:
       0.026  0.027  0.031  0.091  0.094
     eigenvectors (columns):
      -0.000  0.847 -0.077  0.000  0.527
      -0.000  0.490 -0.273 -0.000 -0.828
      -0.823 -0.000  0.000  0.568  0.000
       0.000 -0.208 -0.959 -0.000  0.193
       0.568  0.000 -0.000  0.823 -0.000
     occupation matrix ns (before diag.):
       0.046 -0.029  0.000  0.007  0.000
      -0.029  0.073 -0.000 -0.010  0.000
       0.000 -0.000  0.047 -0.000  0.030
       0.007 -0.010 -0.000  0.033 -0.000
       0.000  0.000  0.030 -0.000  0.070
     ------------------------ ATOM    2 ------------------------
     Tr[ns(  2)] (up, down, total) =   4.97799  2.18160  7.15960
     Atomic magnetic moment for atom   2 =   2.79639
     SPIN  1
     eigenvalues:
       0.992  0.993  0.997  0.998  0.999
     eigenvectors (columns):
       0.573 -0.000 -0.788  0.000 -0.225
      -0.792  0.000 -0.603  0.000  0.095
       0.000  0.493 -0.000 -0.870 -0.000
       0.211  0.000 -0.124  0.000  0.970
       0.000  0.870  0.000  0.493 -0.000
     occupation matrix ns (before diag.):
       0.996  0.002 -0.000 -0.001  0.000
       0.002  0.994 -0.000  0.001  0.000
      -0.000 -0.000  0.996 -0.000 -0.002
      -0.001  0.001 -0.000  0.998 -0.000
       0.000  0.000 -0.002 -0.000  0.994
     SPIN  2
     eigenvalues:
       0.026  0.082  0.086  0.993  0.994
     eigenvectors (columns):
      -0.276 -0.000  0.640 -0.000  0.717
       0.048  0.000 -0.736 -0.000  0.676
       0.000  0.763  0.000 -0.647 -0.000
       0.960 -0.000  0.221 -0.000  0.172
       0.000  0.647  0.000  0.763  0.000
     occupation matrix ns (before diag.):
       0.548  0.441 -0.000  0.128  0.000
       0.441  0.500 -0.000  0.103  0.000
      -0.000 -0.000  0.463  0.000 -0.449
       0.128  0.103  0.000  0.058 -0.000
       0.000  0.000 -0.449 -0.000  0.612

     Number of occupied Hubbard levels =   12.3563

     HUBBARD ENERGY =    0.1167  (Ry)
 
     Magnetic moment per site  (integrated on atomic sphere of radius R)
     atom   1 (R=0.183)  charge= 12.1916  magn=  4.0593
     atom   2 (R=0.183)  charge= 14.3264  magn=  2.6289
     atom   3 (R=0.158)  charge=  7.5359  magn=  0.0337
     atom   4 (R=0.158)  charge=  7.5370  magn=  0.0443
     atom   5 (R=0.158)  charge=  4.9384  magn=  0.0249
     atom   6 (R=0.158)  charge=  4.9384  magn=  0.0249
     atom   7 (R=0.158)  charge=  4.9423  magn=  0.0251
     atom   8 (R=0.158)  charge=  4.9423  magn=  0.0251
     atom   9 (R=0.158)  charge=  4.9505  magn=  0.0160
     atom  10 (R=0.158)  charge=  4.9505  magn=  0.0160
     atom  11 (R=0.158)  charge=  4.9422  magn=  0.0244
     atom  12 (R=0.158)  charge=  4.9422  magn=  0.0244

     total cpu time spent up to now is      687.1 secs

     End of self-consistent calculation

 ------ SPIN UP ------------


          k = 0.0835 0.0682 0.0785 ( 19032 PWs)   bands (ev):

   -85.1215 -68.3517 -63.8051 -63.7832 -49.0855 -48.6000 -48.1557 -37.4155
   -37.4115 -37.3856 -28.3481 -28.2834 -28.2666 -28.1774 -28.1530 -28.1000
    -8.3559  -7.1431  -6.9423  -6.8268  -6.6256  -6.4962  -6.2269  -5.9971
     3.0927   3.2161   3.3918   3.7364   3.8899   4.1429   4.5042   4.7500
     5.0421   5.2895   5.4142   5.7112   5.9608   6.3814   6.6188   6.7530
     6.9372   7.0085   7.3474   7.6521   7.8240   8.0430   8.2144   8.4270
     8.4609   8.9003   9.0577   9.1693   9.2811   9.3799   9.6755   9.7681
    10.5054  10.9894  13.8964  14.1649  14.2816  14.6042  15.2387  15.4775
    16.7086

     occupation numbers 
     1.0000   1.0000   1.0000   1.0000   1.0000   1.0000   1.0000   1.0000
     1.0000   1.0000   1.0000   1.0000   1.0000   1.0000   1.0000   1.0000
     1.0000   1.0000   1.0000   1.0000   1.0000   1.0000   1.0000   1.0000
     1.0000   1.0000   1.0000   1.0000   1.0000   1.0000   1.0000   1.0000
     1.0000   1.0000   1.0000   1.0000   1.0000   1.0000   1.0000   1.0000
     1.0000   1.0000   1.0000   1.0000   1.0000   1.0000   1.0000   1.0000
     1.0000   1.0000   1.0000   1.0000   1.0000   1.0000   1.0000   1.0000
     1.0000   1.0000   0.0000   0.0000   0.0000   0.0000   0.0000   0.0000
     0.0000

          k = 0.0839 0.0682 0.2335 ( 19013 PWs)   bands (ev):

   -85.1215 -68.3518 -63.8046 -63.7837 -49.0855 -48.6000 -48.1557 -37.4155
   -37.4115 -37.3856 -28.3446 -28.3000 -28.2541 -28.1992 -28.1318 -28.1001
    -8.1544  -7.1473  -7.0879  -6.9784  -6.4956  -6.4553  -6.2622  -6.0624
     3.1129   3.2880   3.3621   3.8276   3.9110   4.1751   4.5445   4.7441
     4.8717   5.0800   5.4711   5.7975   5.9946   6.2398   6.4720   6.8088
     7.0273   7.1613   7.3728   7.4988   7.7451   8.0640   8.1942   8.3351
     8.6464   8.8617   8.9513   9.2004   9.2728   9.4743   9.6005   9.7235
    10.7539  11.1496  14.0179  14.0878  14.2673  14.5295  15.1025  15.1772
    17.3638

     occupation numbers 
     1.0000   1.0000   1.0000   1.0000   1.0000   1.0000   1.0000   1.0000
     1.0000   1.0000   1.0000   1.0000   1.0000   1.0000   1.0000   1.0000
     1.0000   1.0000   1.0000   1.0000   1.0000   1.0000   1.0000   1.0000
     1.0000   1.0000   1.0000   1.0000   1.0000   1.0000   1.0000   1.0000
     1.0000   1.0000   1.0000   1.0000   1.0000   1.0000   1.0000   1.0000
     1.0000   1.0000   1.0000   1.0000   1.0000   1.0000   1.0000   1.0000
     1.0000   1.0000   1.0000   1.0000   1.0000   1.0000   1.0000   1.0000
     1.0000   1.0000   0.0000   0.0000   0.0000   0.0000   0.0000   0.0000
     0.0000

          k = 0.0843 0.0682 0.3885 ( 19031 PWs)   bands (ev):

   -85.1215 -68.3518 -63.8041 -63.7842 -49.0855 -48.6000 -48.1556 -37.4155
   -37.4115 -37.3856 -28.3359 -28.3180 -28.2394 -28.2192 -28.1146 -28.1039
    -7.8012  -7.4050  -7.1254  -7.0763  -6.4814  -6.4659  -6.1976  -6.1215
     3.1217   3.2660   3.3835   3.7331   3.8683   4.3831   4.6420   4.7738
     4.9393   5.2177   5.3385   5.7888   5.9786   6.1915   6.4245   6.5477
     6.9273   7.1206   7.3480   7.6163   7.7968   7.9466   8.1685   8.4285
     8.6507   8.7563   8.9807   9.1765   9.3860   9.4735   9.6172   9.7741
    10.9052  11.2092  14.0596  14.1558  14.3598  14.4977  14.7363  14.8420
    17.8448

     occupation numbers 
     1.0000   1.0000   1.0000   1.0000   1.0000   1.0000   1.0000   1.0000
     1.0000   1.0000   1.0000   1.0000   1.0000   1.0000   1.0000   1.0000
     1.0000   1.0000   1.0000   1.0000   1.0000   1.0000   1.0000   1.0000
     1.0000   1.0000   1.0000   1.0000   1.0000   1.0000   1.0000   1.0000
     1.0000   1.0000   1.0000   1.0000   1.0000   1.0000   1.0000   1.0000
     1.0000   1.0000   1.0000   1.0000   1.0000   1.0000   1.0000   1.0000
     1.0000   1.0000   1.0000   1.0000   1.0000   1.0000   1.0000   1.0000
     1.0000   1.0000   0.0000   0.0000   0.0000   0.0000   0.0000   0.0000
     0.0000

          k = 0.0824 0.0682-0.3865 ( 19011 PWs)   bands (ev):

   -85.1215 -68.3518 -63.8041 -63.7842 -49.0855 -48.6000 -48.1556 -37.4155
   -37.4115 -37.3856 -28.3358 -28.3180 -28.2394 -28.2191 -28.1146 -28.1040
    -7.8144  -7.3895  -7.1182  -7.0624  -6.5258  -6.4609  -6.1898  -6.1175
     3.0868   3.2762   3.3920   3.7237   3.8962   4.4531   4.5664   4.6825
     4.9834   5.2390   5.5800   5.7453   5.8877   6.1494   6.3489   6.7400
     6.8946   7.0309   7.3692   7.6287   7.8344   7.9158   8.3362   8.4009
     8.5540   8.7358   8.9114   9.1705   9.2580   9.4316   9.7032   9.8518
    10.9472  11.0900  14.0057  14.2315  14.3595  14.4714  14.6314  14.8794
    17.8642

     occupation numbers 
     1.0000   1.0000   1.0000   1.0000   1.0000   1.0000   1.0000   1.0000
     1.0000   1.0000   1.0000   1.0000   1.0000   1.0000   1.0000   1.0000
     1.0000   1.0000   1.0000   1.0000   1.0000   1.0000   1.0000   1.0000
     1.0000   1.0000   1.0000   1.0000   1.0000   1.0000   1.0000   1.0000
     1.0000   1.0000   1.0000   1.0000   1.0000   1.0000   1.0000   1.0000
     1.0000   1.0000   1.0000   1.0000   1.0000   1.0000   1.0000   1.0000
     1.0000   1.0000   1.0000   1.0000   1.0000   1.0000   1.0000   1.0000
     1.0000   1.0000   0.0000   0.0000   0.0000   0.0000   0.0000   0.0000
     0.0000

          k = 0.0828 0.0682-0.2315 ( 19020 PWs)   bands (ev):

   -85.1215 -68.3518 -63.8046 -63.7838 -49.0855 -48.6000 -48.1557 -37.4155
   -37.4115 -37.3856 -28.3444 -28.3000 -28.2540 -28.1993 -28.1317 -28.1003
    -8.1651  -7.1355  -7.0511  -6.9385  -6.5744  -6.5151  -6.2396  -6.0319
     3.0514   3.2928   3.3751   3.8007   3.9545   4.2110   4.4543   4.7936
     4.9292   5.2179   5.5473   5.6622   5.9715   6.3189   6.5353   6.8492
     6.8942   7.1053   7.3890   7.5410   7.8512   8.0767   8.2242   8.3781
     8.5796   8.6338   8.8808   9.1204   9.3213   9.3821   9.7105   9.8201
    10.7552  10.9780  13.9023  14.1333  14.2684  14.5837  14.9795  15.1475
    17.3432

     occupation numbers 
     1.0000   1.0000   1.0000   1.0000   1.0000   1.0000   1.0000   1.0000
     1.0000   1.0000   1.0000   1.0000   1.0000   1.0000   1.0000   1.0000
     1.0000   1.0000   1.0000   1.0000   1.0000   1.0000   1.0000   1.0000
     1.0000   1.0000   1.0000   1.0000   1.0000   1.0000   1.0000   1.0000
     1.0000   1.0000   1.0000   1.0000   1.0000   1.0000   1.0000   1.0000
     1.0000   1.0000   1.0000   1.0000   1.0000   1.0000   1.0000   1.0000
     1.0000   1.0000   1.0000   1.0000   1.0000   1.0000   1.0000   1.0000
     1.0000   1.0000   0.0000   0.0000   0.0000   0.0000   0.0000   0.0000
     0.0000

          k = 0.0831 0.0682-0.0765 ( 19007 PWs)   bands (ev):

   -85.1215 -68.3517 -63.8051 -63.7833 -49.0855 -48.6000 -48.1557 -37.4155
   -37.4115 -37.3856 -28.3480 -28.2835 -28.2664 -28.1776 -28.1529 -28.1000
    -8.3600  -7.1463  -6.8616  -6.7927  -6.7082  -6.5620  -6.2078  -5.9790
     3.0619   3.2103   3.3978   3.7107   3.9320   4.2077   4.3781   4.8303
     5.1026   5.2949   5.5040   5.6144   5.9756   6.4409   6.5047   6.8064
     6.8738   7.0924   7.3461   7.6854   7.7864   8.1276   8.1646   8.3635
     8.5325   8.7540   8.9495   9.1008   9.3910   9.4793   9.6859   9.7812
    10.4579  10.9305  13.9121  14.0748  14.2932  14.6288  15.2618  15.3881
    16.7447

     occupation numbers 
     1.0000   1.0000   1.0000   1.0000   1.0000   1.0000   1.0000   1.0000
     1.0000   1.0000   1.0000   1.0000   1.0000   1.0000   1.0000   1.0000
     1.0000   1.0000   1.0000   1.0000   1.0000   1.0000   1.0000   1.0000
     1.0000   1.0000   1.0000   1.0000   1.0000   1.0000   1.0000   1.0000
     1.0000   1.0000   1.0000   1.0000   1.0000   1.0000   1.0000   1.0000
     1.0000   1.0000   1.0000   1.0000   1.0000   1.0000   1.0000   1.0000
     1.0000   1.0000   1.0000   1.0000   1.0000   1.0000   1.0000   1.0000
     1.0000   1.0000   0.0000   0.0000   0.0000   0.0000   0.0000   0.0000
     0.0000

          k = 0.0835 0.2045 0.0785 ( 19015 PWs)   bands (ev):

   -85.1215 -68.3517 -63.8051 -63.7832 -49.0855 -48.6000 -48.1557 -37.4155
   -37.4115 -37.3856 -28.3478 -28.2825 -28.2662 -28.1782 -28.1541 -28.1003
    -8.2502  -7.2112  -7.0228  -6.7805  -6.6635  -6.4953  -6.2416  -5.9881
     3.1703   3.2786   3.4341   3.7962   4.0528   4.1766   4.5570   4.7256
     5.0240   5.2430   5.4633   5.5336   5.9855   6.1750   6.4806   6.6418
     6.7987   7.0413   7.4757   7.6459   7.7426   8.0764   8.2490   8.4137
     8.5876   8.7751   8.9603   9.1271   9.2989   9.4295   9.5978   9.8388
    10.6828  11.0132  13.8257  14.0066  14.3906  14.8140  15.2101  15.3753
    17.1870

     occupation numbers 
     1.0000   1.0000   1.0000   1.0000   1.0000   1.0000   1.0000   1.0000
     1.0000   1.0000   1.0000   1.0000   1.0000   1.0000   1.0000   1.0000
     1.0000   1.0000   1.0000   1.0000   1.0000   1.0000   1.0000   1.0000
     1.0000   1.0000   1.0000   1.0000   1.0000   1.0000   1.0000   1.0000
     1.0000   1.0000   1.0000   1.0000   1.0000   1.0000   1.0000   1.0000
     1.0000   1.0000   1.0000   1.0000   1.0000   1.0000   1.0000   1.0000
     1.0000   1.0000   1.0000   1.0000   1.0000   1.0000   1.0000   1.0000
     1.0000   1.0000   0.0000   0.0000   0.0000   0.0000   0.0000   0.0000
     0.0000

          k = 0.0839 0.2045 0.2335 ( 19033 PWs)   bands (ev):

   -85.1215 -68.3518 -63.8045 -63.7836 -49.0855 -48.6000 -48.1557 -37.4155
   -37.4115 -37.3856 -28.3450 -28.3003 -28.2535 -28.1999 -28.1319 -28.0997
    -8.0648  -7.2541  -7.0847  -6.8857  -6.5443  -6.4488  -6.3576  -6.0436
     3.1599   3.3067   3.4238   3.8706   4.0297   4.2752   4.5433   4.7989
     4.9053   5.1001   5.4929   5.6678   5.9643   6.1466   6.4179   6.6129
     6.8643   7.1378   7.3428   7.5985   7.6646   8.0607   8.2080   8.3897
     8.6829   8.7670   8.9438   9.1114   9.2706   9.4154   9.6282   9.8175
    10.8462  11.1632  13.8099  14.1693  14.3568  14.7339  15.0181  15.1408
    17.6549

     occupation numbers 
     1.0000   1.0000   1.0000   1.0000   1.0000   1.0000   1.0000   1.0000
     1.0000   1.0000   1.0000   1.0000   1.0000   1.0000   1.0000   1.0000
     1.0000   1.0000   1.0000   1.0000   1.0000   1.0000   1.0000   1.0000
     1.0000   1.0000   1.0000   1.0000   1.0000   1.0000   1.0000   1.0000
     1.0000   1.0000   1.0000   1.0000   1.0000   1.0000   1.0000   1.0000
     1.0000   1.0000   1.0000   1.0000   1.0000   1.0000   1.0000   1.0000
     1.0000   1.0000   1.0000   1.0000   1.0000   1.0000   1.0000   1.0000
     1.0000   1.0000   0.0000   0.0000   0.0000   0.0000   0.0000   0.0000
     0.0000

          k = 0.0843 0.2045 0.3885 ( 19013 PWs)   bands (ev):

   -85.1216 -68.3518 -63.8040 -63.7841 -49.0855 -48.6000 -48.1556 -37.4155
   -37.4115 -37.3856 -28.3371 -28.3191 -28.2391 -28.2194 -28.1139 -28.1029
    -7.7485  -7.4281  -7.0864  -7.0045  -6.5493  -6.5130  -6.2506  -6.1348
     3.1521   3.2813   3.4417   3.8593   4.0159   4.3163   4.6231   4.8122
     4.9197   5.2467   5.4629   5.7929   5.8987   6.2077   6.3255   6.5788
     6.7889   7.0045   7.2769   7.5087   7.7857   7.9285   8.1705   8.3109
     8.5836   8.8576   8.9151   9.2081   9.3637   9.4594   9.6185   9.8437
    10.9398  11.2385  13.9162  14.1778  14.4433  14.6242  14.7711  14.8190
    17.9577

     occupation numbers 
     1.0000   1.0000   1.0000   1.0000   1.0000   1.0000   1.0000   1.0000
     1.0000   1.0000   1.0000   1.0000   1.0000   1.0000   1.0000   1.0000
     1.0000   1.0000   1.0000   1.0000   1.0000   1.0000   1.0000   1.0000
     1.0000   1.0000   1.0000   1.0000   1.0000   1.0000   1.0000   1.0000
     1.0000   1.0000   1.0000   1.0000   1.0000   1.0000   1.0000   1.0000
     1.0000   1.0000   1.0000   1.0000   1.0000   1.0000   1.0000   1.0000
     1.0000   1.0000   1.0000   1.0000   1.0000   1.0000   1.0000   1.0000
     1.0000   1.0000   0.0000   0.0000   0.0000   0.0000   0.0000   0.0000
     0.0000

          k = 0.0824 0.2045-0.3865 ( 19010 PWs)   bands (ev):

   -85.1216 -68.3518 -63.8040 -63.7842 -49.0855 -48.6000 -48.1556 -37.4155
   -37.4115 -37.3856 -28.3370 -28.3191 -28.2390 -28.2194 -28.1138 -28.1030
    -7.7569  -7.4096  -7.1096  -6.9662  -6.6221  -6.4648  -6.2757  -6.1141
     3.1418   3.2908   3.4440   3.8562   4.0223   4.3242   4.6632   4.7254
     4.9929   5.1773   5.5702   5.7974   5.9839   6.0770   6.3418   6.5581
     6.7276   7.0743   7.3079   7.4473   7.7603   7.9701   8.2325   8.3962
     8.5454   8.7706   8.9470   9.1582   9.3132   9.4662   9.6329   9.8830
    10.9401  11.1518  13.8619  14.2410  14.4328  14.5312  14.7281  14.8596
    18.0335

     occupation numbers 
     1.0000   1.0000   1.0000   1.0000   1.0000   1.0000   1.0000   1.0000
     1.0000   1.0000   1.0000   1.0000   1.0000   1.0000   1.0000   1.0000
     1.0000   1.0000   1.0000   1.0000   1.0000   1.0000   1.0000   1.0000
     1.0000   1.0000   1.0000   1.0000   1.0000   1.0000   1.0000   1.0000
     1.0000   1.0000   1.0000   1.0000   1.0000   1.0000   1.0000   1.0000
     1.0000   1.0000   1.0000   1.0000   1.0000   1.0000   1.0000   1.0000
     1.0000   1.0000   1.0000   1.0000   1.0000   1.0000   1.0000   1.0000
     1.0000   1.0000   0.0000   0.0000   0.0000   0.0000   0.0000   0.0000
     0.0000

          k = 0.0828 0.2045-0.2315 ( 19009 PWs)   bands (ev):

   -85.1215 -68.3518 -63.8046 -63.7837 -49.0855 -48.6000 -48.1557 -37.4155
   -37.4115 -37.3856 -28.3448 -28.3003 -28.2533 -28.2000 -28.1318 -28.0998
    -8.0726  -7.2157  -7.0841  -6.8359  -6.6461  -6.5218  -6.2952  -6.0190
     3.1436   3.3050   3.4357   3.8789   3.9857   4.3115   4.5697   4.7615
     4.9349   5.2256   5.5007   5.6706   5.9166   6.1752   6.4232   6.5858
     6.8415   7.0510   7.3297   7.5871   7.7605   8.1118   8.3274   8.4648
     8.5902   8.6468   8.8566   9.1516   9.2639   9.4201   9.6406   9.8629
    10.7469  11.0498  13.7631  14.1931  14.3337  14.7004  14.9050  15.1299
    17.8007

     occupation numbers 
     1.0000   1.0000   1.0000   1.0000   1.0000   1.0000   1.0000   1.0000
     1.0000   1.0000   1.0000   1.0000   1.0000   1.0000   1.0000   1.0000
     1.0000   1.0000   1.0000   1.0000   1.0000   1.0000   1.0000   1.0000
     1.0000   1.0000   1.0000   1.0000   1.0000   1.0000   1.0000   1.0000
     1.0000   1.0000   1.0000   1.0000   1.0000   1.0000   1.0000   1.0000
     1.0000   1.0000   1.0000   1.0000   1.0000   1.0000   1.0000   1.0000
     1.0000   1.0000   1.0000   1.0000   1.0000   1.0000   1.0000   1.0000
     1.0000   1.0000   0.0000   0.0000   0.0000   0.0000   0.0000   0.0000
     0.0000

          k = 0.0831 0.2045-0.0765 ( 19023 PWs)   bands (ev):

   -85.1215 -68.3517 -63.8051 -63.7832 -49.0855 -48.6000 -48.1557 -37.4155
   -37.4115 -37.3856 -28.3476 -28.2827 -28.2659 -28.1785 -28.1539 -28.1004
    -8.2534  -7.2114  -6.9496  -6.7998  -6.7041  -6.5494  -6.2159  -5.9728
     3.1702   3.2615   3.4335   3.7822   4.0874   4.1968   4.5171   4.7327
     5.0648   5.2335   5.4725   5.6447   5.9013   6.2621   6.3489   6.6624
     6.7821   7.0679   7.4230   7.6455   7.8384   8.0507   8.2514   8.4147
     8.5494   8.8040   8.9311   9.0871   9.3421   9.4537   9.6355   9.8336
    10.5686  10.9875  13.8351  14.0278  14.2967  14.8304  15.2373  15.2825
    17.2599

     occupation numbers 
     1.0000   1.0000   1.0000   1.0000   1.0000   1.0000   1.0000   1.0000
     1.0000   1.0000   1.0000   1.0000   1.0000   1.0000   1.0000   1.0000
     1.0000   1.0000   1.0000   1.0000   1.0000   1.0000   1.0000   1.0000
     1.0000   1.0000   1.0000   1.0000   1.0000   1.0000   1.0000   1.0000
     1.0000   1.0000   1.0000   1.0000   1.0000   1.0000   1.0000   1.0000
     1.0000   1.0000   1.0000   1.0000   1.0000   1.0000   1.0000   1.0000
     1.0000   1.0000   1.0000   1.0000   1.0000   1.0000   1.0000   1.0000
     1.0000   1.0000   0.0000   0.0000   0.0000   0.0000   0.0000   0.0000
     0.0000

          k = 0.0835 0.3409 0.0785 ( 19004 PWs)   bands (ev):

   -85.1215 -68.3517 -63.8051 -63.7831 -49.0855 -48.6000 -48.1557 -37.4155
   -37.4115 -37.3856 -28.3474 -28.2816 -28.2657 -28.1791 -28.1552 -28.1007
    -8.1046  -7.3959  -6.9969  -6.7427  -6.6940  -6.5241  -6.2534  -5.9806
     3.2749   3.3719   3.4352   3.8719   4.1506   4.3400   4.5746   4.7235
     4.8341   5.2092   5.3703   5.6193   5.8956   6.0425   6.4131   6.5977
     6.8803   6.9843   7.3744   7.5899   7.6612   8.0651   8.1850   8.3073
     8.6603   8.7845   9.0584   9.1345   9.3006   9.5188   9.5456   9.8023
    10.8239  11.0587  13.6108  14.1552  14.5926  14.7442  15.1154  15.3784
    17.8647

     occupation numbers 
     1.0000   1.0000   1.0000   1.0000   1.0000   1.0000   1.0000   1.0000
     1.0000   1.0000   1.0000   1.0000   1.0000   1.0000   1.0000   1.0000
     1.0000   1.0000   1.0000   1.0000   1.0000   1.0000   1.0000   1.0000
     1.0000   1.0000   1.0000   1.0000   1.0000   1.0000   1.0000   1.0000
     1.0000   1.0000   1.0000   1.0000   1.0000   1.0000   1.0000   1.0000
     1.0000   1.0000   1.0000   1.0000   1.0000   1.0000   1.0000   1.0000
     1.0000   1.0000   1.0000   1.0000   1.0000   1.0000   1.0000   1.0000
     1.0000   1.0000   0.0000   0.0000   0.0000   0.0000   0.0000   0.0000
     0.0000

          k = 0.0839 0.3409 0.2335 ( 19014 PWs)   bands (ev):

   -85.1215 -68.3518 -63.8045 -63.7836 -49.0855 -48.6000 -48.1557 -37.4155
   -37.4115 -37.3856 -28.3454 -28.3006 -28.2529 -28.2006 -28.1320 -28.0993
    -7.9424  -7.4002  -7.0363  -6.8093  -6.5885  -6.4864  -6.4246  -6.0353
     3.2279   3.3630   3.4364   3.8952   4.1294   4.3972   4.6258   4.7984
     4.8447   5.1705   5.5079   5.6387   5.9084   6.1724   6.3167   6.5253
     6.7120   6.8941   7.3105   7.4892   7.7385   7.9788   8.2924   8.3798
     8.6008   8.8311   8.9980   9.1194   9.2104   9.4714   9.5937   9.8471
    10.9547  11.1469  13.6727  14.2692  14.5647  14.7340  14.8334  15.2137
    17.9598

     occupation numbers 
     1.0000   1.0000   1.0000   1.0000   1.0000   1.0000   1.0000   1.0000
     1.0000   1.0000   1.0000   1.0000   1.0000   1.0000   1.0000   1.0000
     1.0000   1.0000   1.0000   1.0000   1.0000   1.0000   1.0000   1.0000
     1.0000   1.0000   1.0000   1.0000   1.0000   1.0000   1.0000   1.0000
     1.0000   1.0000   1.0000   1.0000   1.0000   1.0000   1.0000   1.0000
     1.0000   1.0000   1.0000   1.0000   1.0000   1.0000   1.0000   1.0000
     1.0000   1.0000   1.0000   1.0000   1.0000   1.0000   1.0000   1.0000
     1.0000   1.0000   0.0000   0.0000   0.0000   0.0000   0.0000   0.0000
     0.0000

          k = 0.0843 0.3409 0.3885 ( 19029 PWs)   bands (ev):

   -85.1216 -68.3518 -63.8040 -63.7841 -49.0855 -48.6000 -48.1556 -37.4155
   -37.4115 -37.3856 -28.3383 -28.3202 -28.2388 -28.2195 -28.1131 -28.1019
    -7.6793  -7.4769  -6.9845  -6.9158  -6.6515  -6.6245  -6.2740  -6.1490
     3.1977   3.3144   3.4666   3.9891   4.1282   4.3833   4.5326   4.7223
     5.0796   5.1624   5.6447   5.8053   5.8795   6.2545   6.2842   6.5101
     6.7033   6.9017   7.1014   7.4297   7.5272   7.9138   8.1271   8.3595
     8.5464   8.8530   9.0936   9.1586   9.2653   9.4895   9.6633   9.8909
    10.9720  11.2527  13.8470  14.1909  14.4538  14.6549  14.7372  14.9718
    17.9440

     occupation numbers 
     1.0000   1.0000   1.0000   1.0000   1.0000   1.0000   1.0000   1.0000
     1.0000   1.0000   1.0000   1.0000   1.0000   1.0000   1.0000   1.0000
     1.0000   1.0000   1.0000   1.0000   1.0000   1.0000   1.0000   1.0000
     1.0000   1.0000   1.0000   1.0000   1.0000   1.0000   1.0000   1.0000
     1.0000   1.0000   1.0000   1.0000   1.0000   1.0000   1.0000   1.0000
     1.0000   1.0000   1.0000   1.0000   1.0000   1.0000   1.0000   1.0000
     1.0000   1.0000   1.0000   1.0000   1.0000   1.0000   1.0000   1.0000
     1.0000   1.0000   0.0000   0.0000   0.0000   0.0000   0.0000   0.0000
     0.0000

          k = 0.0824 0.3409-0.3865 ( 18994 PWs)   bands (ev):

   -85.1216 -68.3518 -63.8040 -63.7841 -49.0855 -48.6000 -48.1556 -37.4155
   -37.4115 -37.3856 -28.3382 -28.3203 -28.2386 -28.2196 -28.1130 -28.1020
    -7.6925  -7.4294  -7.0656  -6.8764  -6.7035  -6.5368  -6.3407  -6.1138
     3.2011   3.3279   3.4686   3.9741   4.1831   4.3072   4.5967   4.7354
     5.0337   5.2242   5.5281   5.8629   5.9268   6.1186   6.2611   6.5067
     6.7752   6.9467   7.1752   7.3442   7.5697   7.9443   8.0768   8.3521
     8.6086   8.8284   9.0914   9.1063   9.3128   9.4807   9.6855   9.9104
    10.9298  11.1811  13.8104  14.1052  14.5220  14.6191  14.7703  14.9137
    17.8983

     occupation numbers 
     1.0000   1.0000   1.0000   1.0000   1.0000   1.0000   1.0000   1.0000
     1.0000   1.0000   1.0000   1.0000   1.0000   1.0000   1.0000   1.0000
     1.0000   1.0000   1.0000   1.0000   1.0000   1.0000   1.0000   1.0000
     1.0000   1.0000   1.0000   1.0000   1.0000   1.0000   1.0000   1.0000
     1.0000   1.0000   1.0000   1.0000   1.0000   1.0000   1.0000   1.0000
     1.0000   1.0000   1.0000   1.0000   1.0000   1.0000   1.0000   1.0000
     1.0000   1.0000   1.0000   1.0000   1.0000   1.0000   1.0000   1.0000
     1.0000   1.0000   0.0000   0.0000   0.0000   0.0000   0.0000   0.0000
     0.0000

          k = 0.0828 0.3409-0.2315 ( 18996 PWs)   bands (ev):

   -85.1215 -68.3518 -63.8046 -63.7836 -49.0855 -48.6000 -48.1557 -37.4155
   -37.4115 -37.3856 -28.3452 -28.3007 -28.2526 -28.2007 -28.1319 -28.0994
    -7.9493  -7.3421  -7.0759  -6.7820  -6.6502  -6.5592  -6.3598  -6.0103
     3.2428   3.3627   3.4531   3.9385   4.0393   4.3784   4.6974   4.8063
     4.9915   5.1570   5.3926   5.6371   5.9134   6.0224   6.3168   6.5060
     6.7623   7.0576   7.2611   7.3808   7.8925   8.0527   8.2440   8.3795
     8.6185   8.7483   9.0116   9.1284   9.2441   9.3707   9.6887   9.9323
    10.7876  11.0345  13.6681  14.2476  14.5030  14.6843  14.7702  15.1840
    17.9993

     occupation numbers 
     1.0000   1.0000   1.0000   1.0000   1.0000   1.0000   1.0000   1.0000
     1.0000   1.0000   1.0000   1.0000   1.0000   1.0000   1.0000   1.0000
     1.0000   1.0000   1.0000   1.0000   1.0000   1.0000   1.0000   1.0000
     1.0000   1.0000   1.0000   1.0000   1.0000   1.0000   1.0000   1.0000
     1.0000   1.0000   1.0000   1.0000   1.0000   1.0000   1.0000   1.0000
     1.0000   1.0000   1.0000   1.0000   1.0000   1.0000   1.0000   1.0000
     1.0000   1.0000   1.0000   1.0000   1.0000   1.0000   1.0000   1.0000
     1.0000   1.0000   0.0000   0.0000   0.0000   0.0000   0.0000   0.0000
     0.0000

          k = 0.0831 0.3409-0.0765 ( 19019 PWs)   bands (ev):

   -85.1215 -68.3517 -63.8051 -63.7831 -49.0855 -48.6000 -48.1557 -37.4155
   -37.4115 -37.3856 -28.3473 -28.2819 -28.2653 -28.1794 -28.1549 -28.1007
    -8.1073  -7.3828  -6.9432  -6.8043  -6.7037  -6.5594  -6.2272  -5.9670
     3.3013   3.3426   3.4404   3.8821   4.1426   4.3150   4.5789   4.7622
     4.9676   5.0668   5.3893   5.6446   5.8761   5.9717   6.4414   6.6685
     6.8364   7.0523   7.2453   7.4793   7.8159   8.1130   8.2676   8.3211
     8.5260   8.8110   9.0166   9.2203   9.2936   9.3956   9.6461   9.8645
    10.7031  11.0127  13.6507  14.1653  14.4627  14.7730  15.0743  15.3523
    18.0174

     occupation numbers 
     1.0000   1.0000   1.0000   1.0000   1.0000   1.0000   1.0000   1.0000
     1.0000   1.0000   1.0000   1.0000   1.0000   1.0000   1.0000   1.0000
     1.0000   1.0000   1.0000   1.0000   1.0000   1.0000   1.0000   1.0000
     1.0000   1.0000   1.0000   1.0000   1.0000   1.0000   1.0000   1.0000
     1.0000   1.0000   1.0000   1.0000   1.0000   1.0000   1.0000   1.0000
     1.0000   1.0000   1.0000   1.0000   1.0000   1.0000   1.0000   1.0000
     1.0000   1.0000   1.0000   1.0000   1.0000   1.0000   1.0000   1.0000
     1.0000   1.0000   0.0000   0.0000   0.0000   0.0000   0.0000   0.0000
     0.0000

          k = 0.2502 0.0682 0.0805 ( 19046 PWs)   bands (ev):

   -85.1215 -68.3517 -63.8051 -63.7831 -49.0855 -48.6000 -48.1557 -37.4155
   -37.4115 -37.3856 -28.3487 -28.2836 -28.2676 -28.1780 -28.1533 -28.1001
    -8.2096  -7.1431  -7.0356  -6.8680  -6.5746  -6.4299  -6.2436  -6.1640
     3.0910   3.3770   3.4339   3.8842   3.9731   4.1447   4.3175   4.9099
     5.0365   5.2187   5.4095   5.6753   5.8725   6.0422   6.3547   6.6811
     7.0686   7.2456   7.4473   7.6504   7.7268   8.0541   8.2706   8.4390
     8.5868   8.6521   8.9334   9.2411   9.3354   9.5428   9.6052   9.9441
    10.5549  11.0351  13.9839  14.0801  14.2383  14.5823  15.3125  15.3811
    17.2954

     occupation numbers 
     1.0000   1.0000   1.0000   1.0000   1.0000   1.0000   1.0000   1.0000
     1.0000   1.0000   1.0000   1.0000   1.0000   1.0000   1.0000   1.0000
     1.0000   1.0000   1.0000   1.0000   1.0000   1.0000   1.0000   1.0000
     1.0000   1.0000   1.0000   1.0000   1.0000   1.0000   1.0000   1.0000
     1.0000   1.0000   1.0000   1.0000   1.0000   1.0000   1.0000   1.0000
     1.0000   1.0000   1.0000   1.0000   1.0000   1.0000   1.0000   1.0000
     1.0000   1.0000   1.0000   1.0000   1.0000   1.0000   1.0000   1.0000
     1.0000   1.0000   0.0000   0.0000   0.0000   0.0000   0.0000   0.0000
     0.0000

          k = 0.2506 0.0682 0.2355 ( 19014 PWs)   bands (ev):

   -85.1215 -68.3518 -63.8046 -63.7837 -49.0855 -48.6000 -48.1557 -37.4155
   -37.4115 -37.3856 -28.3450 -28.3004 -28.2550 -28.1999 -28.1320 -28.1001
    -8.0170  -7.1520  -7.1088  -6.9765  -6.5444  -6.4700  -6.2549  -6.1650
     3.1631   3.3380   3.4659   3.9008   4.0937   4.1987   4.3901   4.7733
     4.8967   5.2167   5.3006   5.6280   5.7861   5.9959   6.3044   6.9483
     7.1225   7.2904   7.3693   7.4718   7.5649   8.1655   8.2685   8.3752
     8.6475   8.7926   8.9066   9.2025   9.3897   9.5614   9.6386   9.9027
    10.6346  11.2172  13.9211  14.1868  14.2851  14.6086  15.1676  15.2348
    17.5257

     occupation numbers 
     1.0000   1.0000   1.0000   1.0000   1.0000   1.0000   1.0000   1.0000
     1.0000   1.0000   1.0000   1.0000   1.0000   1.0000   1.0000   1.0000
     1.0000   1.0000   1.0000   1.0000   1.0000   1.0000   1.0000   1.0000
     1.0000   1.0000   1.0000   1.0000   1.0000   1.0000   1.0000   1.0000
     1.0000   1.0000   1.0000   1.0000   1.0000   1.0000   1.0000   1.0000
     1.0000   1.0000   1.0000   1.0000   1.0000   1.0000   1.0000   1.0000
     1.0000   1.0000   1.0000   1.0000   1.0000   1.0000   1.0000   1.0000
     1.0000   1.0000   0.0000   0.0000   0.0000   0.0000   0.0000   0.0000
     0.0000

          k = 0.2510 0.0682 0.3905 ( 19021 PWs)   bands (ev):

   -85.1215 -68.3518 -63.8042 -63.7843 -49.0855 -48.6000 -48.1556 -37.4155
   -37.4115 -37.3856 -28.3361 -28.3182 -28.2401 -28.2200 -28.1148 -28.1039
    -7.6884  -7.3369  -7.1487  -7.0418  -6.6218  -6.5151  -6.2086  -6.1540
     3.2234   3.3380   3.4563   3.8554   4.0082   4.2828   4.5193   4.7096
     4.8537   5.2243   5.4756   5.5715   5.8540   6.2064   6.4704   6.6021
     6.8103   7.0376   7.3500   7.5367   7.8608   7.9067   8.1632   8.3093
     8.6564   8.8810   9.0316   9.2307   9.3908   9.5775   9.7907   9.8604
    10.7357  11.1820  13.9513  14.2118  14.5092  14.6501  14.8135  14.9231
    17.5840

     occupation numbers 
     1.0000   1.0000   1.0000   1.0000   1.0000   1.0000   1.0000   1.0000
     1.0000   1.0000   1.0000   1.0000   1.0000   1.0000   1.0000   1.0000
     1.0000   1.0000   1.0000   1.0000   1.0000   1.0000   1.0000   1.0000
     1.0000   1.0000   1.0000   1.0000   1.0000   1.0000   1.0000   1.0000
     1.0000   1.0000   1.0000   1.0000   1.0000   1.0000   1.0000   1.0000
     1.0000   1.0000   1.0000   1.0000   1.0000   1.0000   1.0000   1.0000
     1.0000   1.0000   1.0000   1.0000   1.0000   1.0000   1.0000   1.0000
     1.0000   1.0000   0.0000   0.0000   0.0000   0.0000   0.0000   0.0000
     0.0000

          k = 0.2491 0.0682-0.3844 ( 19017 PWs)   bands (ev):

   -85.1215 -68.3518 -63.8042 -63.7844 -49.0855 -48.6000 -48.1556 -37.4156
   -37.4115 -37.3856 -28.3359 -28.3181 -28.2401 -28.2199 -28.1147 -28.1042
    -7.7185  -7.3071  -7.1201  -7.0169  -6.6434  -6.5696  -6.1937  -6.1542
     3.1638   3.3777   3.4504   3.7931   4.0590   4.3714   4.4460   4.6182
     4.9995   5.3173   5.4473   5.6777   5.9486   6.0860   6.4569   6.6921
     6.7142   7.0088   7.3964   7.6087   7.7009   7.9093   8.2307   8.3654
     8.5363   8.8072   9.0418   9.2144   9.3714   9.6142   9.7022   9.9171
    10.8052  10.9911  13.9845  14.2384  14.4056  14.5786  14.7085  14.9741
    17.8083

     occupation numbers 
     1.0000   1.0000   1.0000   1.0000   1.0000   1.0000   1.0000   1.0000
     1.0000   1.0000   1.0000   1.0000   1.0000   1.0000   1.0000   1.0000
     1.0000   1.0000   1.0000   1.0000   1.0000   1.0000   1.0000   1.0000
     1.0000   1.0000   1.0000   1.0000   1.0000   1.0000   1.0000   1.0000
     1.0000   1.0000   1.0000   1.0000   1.0000   1.0000   1.0000   1.0000
     1.0000   1.0000   1.0000   1.0000   1.0000   1.0000   1.0000   1.0000
     1.0000   1.0000   1.0000   1.0000   1.0000   1.0000   1.0000   1.0000
     1.0000   1.0000   0.0000   0.0000   0.0000   0.0000   0.0000   0.0000
     0.0000

          k = 0.2494 0.0682-0.2294 ( 19010 PWs)   bands (ev):

   -85.1215 -68.3518 -63.8047 -63.7839 -49.0855 -48.6000 -48.1557 -37.4156
   -37.4115 -37.3856 -28.3445 -28.3004 -28.2547 -28.2001 -28.1319 -28.1004
    -8.0433  -7.1496  -6.9745  -6.8746  -6.7221  -6.6169  -6.2131  -6.1104
     3.0781   3.3814   3.4297   3.8528   4.0802   4.2504   4.3687   4.7963
     5.0159   5.2312   5.5852   5.6685   5.8747   6.1353   6.4315   6.5909
     6.9461   7.0459   7.4766   7.6236   7.7595   8.0041   8.1007   8.4563
     8.6235   8.7304   9.0015   9.1609   9.3236   9.5680   9.7208   9.7744
    10.6675  10.9163  13.8552  14.2218  14.2750  14.6539  14.7954  15.2413
    17.7366

     occupation numbers 
     1.0000   1.0000   1.0000   1.0000   1.0000   1.0000   1.0000   1.0000
     1.0000   1.0000   1.0000   1.0000   1.0000   1.0000   1.0000   1.0000
     1.0000   1.0000   1.0000   1.0000   1.0000   1.0000   1.0000   1.0000
     1.0000   1.0000   1.0000   1.0000   1.0000   1.0000   1.0000   1.0000
     1.0000   1.0000   1.0000   1.0000   1.0000   1.0000   1.0000   1.0000
     1.0000   1.0000   1.0000   1.0000   1.0000   1.0000   1.0000   1.0000
     1.0000   1.0000   1.0000   1.0000   1.0000   1.0000   1.0000   1.0000
     1.0000   1.0000   0.0000   0.0000   0.0000   0.0000   0.0000   0.0000
     0.0000

          k = 0.2498 0.0682-0.0745 ( 19020 PWs)   bands (ev):

   -85.1215 -68.3517 -63.8051 -63.7832 -49.0855 -48.6000 -48.1557 -37.4155
   -37.4115 -37.3856 -28.3484 -28.2839 -28.2672 -28.1784 -28.1529 -28.1002
    -8.2198  -7.1576  -6.9025  -6.7853  -6.7336  -6.5679  -6.1942  -6.1150
     3.0558   3.3765   3.4112   3.8661   4.0344   4.0941   4.3336   4.9252
     5.0533   5.2914   5.5185   5.6076   6.0390   6.2105   6.4168   6.5989
     6.7695   7.1295   7.4657   7.5759   7.8909   8.1099   8.2158   8.3625
     8.5436   8.7133   8.9307   9.2298   9.3788   9.5641   9.5973   9.8899
    10.5260  10.9033  13.9500  14.0316  14.2965  14.5803  15.1452  15.3710
    17.3657

     occupation numbers 
     1.0000   1.0000   1.0000   1.0000   1.0000   1.0000   1.0000   1.0000
     1.0000   1.0000   1.0000   1.0000   1.0000   1.0000   1.0000   1.0000
     1.0000   1.0000   1.0000   1.0000   1.0000   1.0000   1.0000   1.0000
     1.0000   1.0000   1.0000   1.0000   1.0000   1.0000   1.0000   1.0000
     1.0000   1.0000   1.0000   1.0000   1.0000   1.0000   1.0000   1.0000
     1.0000   1.0000   1.0000   1.0000   1.0000   1.0000   1.0000   1.0000
     1.0000   1.0000   1.0000   1.0000   1.0000   1.0000   1.0000   1.0000
     1.0000   1.0000   0.0000   0.0000   0.0000   0.0000   0.0000   0.0000
     0.0000

          k = 0.2502 0.2045 0.0805 ( 19035 PWs)   bands (ev):

   -85.1215 -68.3517 -63.8051 -63.7831 -49.0855 -48.6000 -48.1557 -37.4155
   -37.4115 -37.3856 -28.3481 -28.2825 -28.2671 -28.1788 -28.1544 -28.1005
    -8.1276  -7.2158  -7.1090  -6.8264  -6.6104  -6.4305  -6.2445  -6.1171
     3.1133   3.3677   3.4291   3.8818   4.1115   4.1783   4.4030   4.8030
     4.8840   5.2734   5.4833   5.6877   5.9712   6.0909   6.3770   6.6624
     6.8657   7.1388   7.5400   7.6948   7.8260   8.0304   8.1037   8.3948
     8.4638   8.6410   8.9253   9.1469   9.3818   9.5299   9.6042   9.8824
    10.6640  11.0200  13.8269  14.0577  14.3706  14.7951  15.2631  15.3262
    17.5257

     occupation numbers 
     1.0000   1.0000   1.0000   1.0000   1.0000   1.0000   1.0000   1.0000
     1.0000   1.0000   1.0000   1.0000   1.0000   1.0000   1.0000   1.0000
     1.0000   1.0000   1.0000   1.0000   1.0000   1.0000   1.0000   1.0000
     1.0000   1.0000   1.0000   1.0000   1.0000   1.0000   1.0000   1.0000
     1.0000   1.0000   1.0000   1.0000   1.0000   1.0000   1.0000   1.0000
     1.0000   1.0000   1.0000   1.0000   1.0000   1.0000   1.0000   1.0000
     1.0000   1.0000   1.0000   1.0000   1.0000   1.0000   1.0000   1.0000
     1.0000   1.0000   0.0000   0.0000   0.0000   0.0000   0.0000   0.0000
     0.0000

          k = 0.2506 0.2045 0.2355 ( 19019 PWs)   bands (ev):

   -85.1215 -68.3518 -63.8047 -63.7837 -49.0855 -48.6000 -48.1557 -37.4155
   -37.4115 -37.3856 -28.3452 -28.3005 -28.2543 -28.2005 -28.1321 -28.0997
    -7.9533  -7.2690  -7.1204  -6.8967  -6.5542  -6.4613  -6.3243  -6.1211
     3.1571   3.3416   3.4416   3.8589   4.1348   4.2725   4.5425   4.6780
     4.9344   5.1614   5.3901   5.7116   5.8555   5.9846   6.3447   6.7866
     7.0833   7.1513   7.4010   7.6054   7.7119   8.0021   8.2405   8.4017
     8.5635   8.6926   8.8203   9.0546   9.3109   9.5434   9.6794   9.9015
    10.7277  11.2077  13.7556  14.2352  14.4165  14.7719  15.1347  15.1804
    17.5960

     occupation numbers 
     1.0000   1.0000   1.0000   1.0000   1.0000   1.0000   1.0000   1.0000
     1.0000   1.0000   1.0000   1.0000   1.0000   1.0000   1.0000   1.0000
     1.0000   1.0000   1.0000   1.0000   1.0000   1.0000   1.0000   1.0000
     1.0000   1.0000   1.0000   1.0000   1.0000   1.0000   1.0000   1.0000
     1.0000   1.0000   1.0000   1.0000   1.0000   1.0000   1.0000   1.0000
     1.0000   1.0000   1.0000   1.0000   1.0000   1.0000   1.0000   1.0000
     1.0000   1.0000   1.0000   1.0000   1.0000   1.0000   1.0000   1.0000
     1.0000   1.0000   0.0000   0.0000   0.0000   0.0000   0.0000   0.0000
     0.0000

          k = 0.2510 0.2045 0.3905 ( 19034 PWs)   bands (ev):

   -85.1215 -68.3518 -63.8042 -63.7844 -49.0855 -48.6000 -48.1556 -37.4155
   -37.4115 -37.3856 -28.3371 -28.3192 -28.2397 -28.2200 -28.1141 -28.1030
    -7.6633  -7.3834  -7.1543  -6.9652  -6.6506  -6.5049  -6.2322  -6.1711
     3.1833   3.3512   3.4580   3.8475   4.0916   4.3014   4.5490   4.6591
     4.9845   5.1562   5.4723   5.6332   5.9279   6.1879   6.4357   6.6712
     6.7444   7.1732   7.3696   7.5155   7.8465   7.9295   8.0846   8.2969
     8.5968   8.7805   8.8571   9.1068   9.3591   9.4618   9.8060   9.9160
    10.7762  11.1897  13.8775  14.2012  14.5275  14.7043  14.8933  14.9407
    17.6233

     occupation numbers 
     1.0000   1.0000   1.0000   1.0000   1.0000   1.0000   1.0000   1.0000
     1.0000   1.0000   1.0000   1.0000   1.0000   1.0000   1.0000   1.0000
     1.0000   1.0000   1.0000   1.0000   1.0000   1.0000   1.0000   1.0000
     1.0000   1.0000   1.0000   1.0000   1.0000   1.0000   1.0000   1.0000
     1.0000   1.0000   1.0000   1.0000   1.0000   1.0000   1.0000   1.0000
     1.0000   1.0000   1.0000   1.0000   1.0000   1.0000   1.0000   1.0000
     1.0000   1.0000   1.0000   1.0000   1.0000   1.0000   1.0000   1.0000
     1.0000   1.0000   0.0000   0.0000   0.0000   0.0000   0.0000   0.0000
     0.0000

          k = 0.2491 0.2045-0.3844 ( 19025 PWs)   bands (ev):

   -85.1216 -68.3518 -63.8043 -63.7844 -49.0855 -48.6000 -48.1556 -37.4156
   -37.4115 -37.3856 -28.3369 -28.3192 -28.2396 -28.2200 -28.1140 -28.1031
    -7.6826  -7.3321  -7.1803  -6.9351  -6.6790  -6.5347  -6.2545  -6.1340
     3.1540   3.3904   3.4643   3.8563   4.1209   4.2622   4.4908   4.6916
     4.9596   5.2483   5.4889   5.6856   5.9860   6.0946   6.4198   6.6761
     6.8180   7.1357   7.3338   7.5666   7.7100   8.0265   8.1098   8.3935
     8.5379   8.6420   8.8655   9.0963   9.3339   9.5817   9.7897   9.9356
    10.7554  11.0036  13.8638  14.2336  14.4466  14.5846  14.8456  14.9608
    17.8580

     occupation numbers 
     1.0000   1.0000   1.0000   1.0000   1.0000   1.0000   1.0000   1.0000
     1.0000   1.0000   1.0000   1.0000   1.0000   1.0000   1.0000   1.0000
     1.0000   1.0000   1.0000   1.0000   1.0000   1.0000   1.0000   1.0000
     1.0000   1.0000   1.0000   1.0000   1.0000   1.0000   1.0000   1.0000
     1.0000   1.0000   1.0000   1.0000   1.0000   1.0000   1.0000   1.0000
     1.0000   1.0000   1.0000   1.0000   1.0000   1.0000   1.0000   1.0000
     1.0000   1.0000   1.0000   1.0000   1.0000   1.0000   1.0000   1.0000
     1.0000   1.0000   0.0000   0.0000   0.0000   0.0000   0.0000   0.0000
     0.0000

          k = 0.2494 0.2045-0.2294 ( 19023 PWs)   bands (ev):

   -85.1215 -68.3518 -63.8048 -63.7838 -49.0855 -48.6000 -48.1557 -37.4156
   -37.4115 -37.3856 -28.3448 -28.3006 -28.2538 -28.2007 -28.1320 -28.0999
    -7.9722  -7.2205  -7.0505  -6.8116  -6.7448  -6.6067  -6.2359  -6.0717
     3.1142   3.3753   3.4502   3.9241   4.0734   4.2529   4.5003   4.6778
     4.9206   5.4028   5.5564   5.6087   5.8614   6.1200   6.4184   6.6077
     6.9127   7.0698   7.4274   7.6778   7.8581   7.9748   8.1629   8.4192
     8.4832   8.6863   8.8621   9.0763   9.3432   9.6018   9.7282   9.8566
    10.5529  10.9292  13.7651  14.2817  14.3192  14.6853  14.8204  15.1973
    18.0165

     occupation numbers 
     1.0000   1.0000   1.0000   1.0000   1.0000   1.0000   1.0000   1.0000
     1.0000   1.0000   1.0000   1.0000   1.0000   1.0000   1.0000   1.0000
     1.0000   1.0000   1.0000   1.0000   1.0000   1.0000   1.0000   1.0000
     1.0000   1.0000   1.0000   1.0000   1.0000   1.0000   1.0000   1.0000
     1.0000   1.0000   1.0000   1.0000   1.0000   1.0000   1.0000   1.0000
     1.0000   1.0000   1.0000   1.0000   1.0000   1.0000   1.0000   1.0000
     1.0000   1.0000   1.0000   1.0000   1.0000   1.0000   1.0000   1.0000
     1.0000   1.0000   0.0000   0.0000   0.0000   0.0000   0.0000   0.0000
     0.0000

          k = 0.2498 0.2045-0.0745 ( 19031 PWs)   bands (ev):

   -85.1215 -68.3517 -63.8052 -63.7832 -49.0855 -48.6000 -48.1557 -37.4155
   -37.4115 -37.3856 -28.3479 -28.2830 -28.2665 -28.1792 -28.1540 -28.1006
    -8.1356  -7.2326  -6.9534  -6.8206  -6.7608  -6.5194  -6.1896  -6.0758
     3.0966   3.3808   3.4080   3.9362   4.0533   4.1829   4.4372   4.7675
     4.8723   5.3823   5.5474   5.7034   5.9137   6.2446   6.4527   6.6540
     6.6925   7.0351   7.4833   7.6771   7.8673   8.0307   8.1811   8.2810
     8.5425   8.7162   8.8695   9.2480   9.3719   9.4527   9.6713   9.8882
    10.5084  10.9092  13.8952  14.1035  14.2056  14.8006  15.0858  15.3276
    17.6913

     occupation numbers 
     1.0000   1.0000   1.0000   1.0000   1.0000   1.0000   1.0000   1.0000
     1.0000   1.0000   1.0000   1.0000   1.0000   1.0000   1.0000   1.0000
     1.0000   1.0000   1.0000   1.0000   1.0000   1.0000   1.0000   1.0000
     1.0000   1.0000   1.0000   1.0000   1.0000   1.0000   1.0000   1.0000
     1.0000   1.0000   1.0000   1.0000   1.0000   1.0000   1.0000   1.0000
     1.0000   1.0000   1.0000   1.0000   1.0000   1.0000   1.0000   1.0000
     1.0000   1.0000   1.0000   1.0000   1.0000   1.0000   1.0000   1.0000
     1.0000   1.0000   0.0000   0.0000   0.0000   0.0000   0.0000   0.0000
     0.0000

          k = 0.2502 0.3409 0.0805 ( 19006 PWs)   bands (ev):

   -85.1215 -68.3517 -63.8052 -63.7831 -49.0855 -48.6000 -48.1557 -37.4155
   -37.4115 -37.3856 -28.3476 -28.2815 -28.2665 -28.1795 -28.1554 -28.1009
    -8.0195  -7.3699  -7.0959  -6.8184  -6.6355  -6.4380  -6.2327  -6.0846
     3.1651   3.3624   3.4217   3.8604   4.0901   4.3068   4.4855   4.6652
     4.9386   5.3554   5.5563   5.6551   6.0373   6.0913   6.3514   6.4485
     6.9143   7.2352   7.4987   7.6436   7.8905   7.9374   8.0761   8.1818
     8.4173   8.7370   8.8981   9.1110   9.3095   9.5018   9.6169   9.8586
    10.8051  10.9663  13.6727  14.1566  14.5315  14.8953  15.1363  15.3112
    17.7146

     occupation numbers 
     1.0000   1.0000   1.0000   1.0000   1.0000   1.0000   1.0000   1.0000
     1.0000   1.0000   1.0000   1.0000   1.0000   1.0000   1.0000   1.0000
     1.0000   1.0000   1.0000   1.0000   1.0000   1.0000   1.0000   1.0000
     1.0000   1.0000   1.0000   1.0000   1.0000   1.0000   1.0000   1.0000
     1.0000   1.0000   1.0000   1.0000   1.0000   1.0000   1.0000   1.0000
     1.0000   1.0000   1.0000   1.0000   1.0000   1.0000   1.0000   1.0000
     1.0000   1.0000   1.0000   1.0000   1.0000   1.0000   1.0000   1.0000
     1.0000   1.0000   0.0000   0.0000   0.0000   0.0000   0.0000   0.0000
     0.0000

          k = 0.2506 0.3409 0.2355 ( 19020 PWs)   bands (ev):

   -85.1215 -68.3518 -63.8047 -63.7837 -49.0855 -48.6000 -48.1557 -37.4155
   -37.4115 -37.3856 -28.3454 -28.3007 -28.2536 -28.2010 -28.1322 -28.0994
    -7.8681  -7.3992  -7.0944  -6.8656  -6.5480  -6.4647  -6.3756  -6.0961
     3.1650   3.3513   3.4467   3.8025   4.0792   4.3297   4.5782   4.6933
     5.0272   5.2845   5.4741   5.7191   5.8990   6.1243   6.3130   6.6414
     6.7882   7.1890   7.3882   7.5749   7.8505   8.0039   8.0869   8.3374
     8.5540   8.8104   8.8905   8.9462   9.1646   9.4896   9.5526   9.8551
    10.8599  11.1974  13.6584  14.2879  14.6223  14.7891  15.0699  15.1689
    17.5149

     occupation numbers 
     1.0000   1.0000   1.0000   1.0000   1.0000   1.0000   1.0000   1.0000
     1.0000   1.0000   1.0000   1.0000   1.0000   1.0000   1.0000   1.0000
     1.0000   1.0000   1.0000   1.0000   1.0000   1.0000   1.0000   1.0000
     1.0000   1.0000   1.0000   1.0000   1.0000   1.0000   1.0000   1.0000
     1.0000   1.0000   1.0000   1.0000   1.0000   1.0000   1.0000   1.0000
     1.0000   1.0000   1.0000   1.0000   1.0000   1.0000   1.0000   1.0000
     1.0000   1.0000   1.0000   1.0000   1.0000   1.0000   1.0000   1.0000
     1.0000   1.0000   0.0000   0.0000   0.0000   0.0000   0.0000   0.0000
     0.0000

          k = 0.2510 0.3409 0.3905 ( 19033 PWs)   bands (ev):

   -85.1216 -68.3518 -63.8043 -63.7844 -49.0855 -48.6000 -48.1556 -37.4155
   -37.4115 -37.3856 -28.3381 -28.3202 -28.2393 -28.2200 -28.1133 -28.1020
    -7.6217  -7.4613  -7.0769  -6.9704  -6.6240  -6.5446  -6.2501  -6.1858
     3.1653   3.3534   3.5005   3.8487   4.0022   4.3810   4.5214   4.6067
     5.1389   5.2279   5.5854   5.7862   6.0307   6.0620   6.2915   6.6443
     6.8225   6.9121   7.3526   7.6843   7.8452   7.9846   8.0725   8.3339
     8.4469   8.7563   8.8611   9.0452   9.1756   9.4716   9.5892   9.8911
    10.8932  11.1996  13.8395  14.2382  14.4740  14.6945  14.9629  15.0329
    17.5086

     occupation numbers 
     1.0000   1.0000   1.0000   1.0000   1.0000   1.0000   1.0000   1.0000
     1.0000   1.0000   1.0000   1.0000   1.0000   1.0000   1.0000   1.0000
     1.0000   1.0000   1.0000   1.0000   1.0000   1.0000   1.0000   1.0000
     1.0000   1.0000   1.0000   1.0000   1.0000   1.0000   1.0000   1.0000
     1.0000   1.0000   1.0000   1.0000   1.0000   1.0000   1.0000   1.0000
     1.0000   1.0000   1.0000   1.0000   1.0000   1.0000   1.0000   1.0000
     1.0000   1.0000   1.0000   1.0000   1.0000   1.0000   1.0000   1.0000
     1.0000   1.0000   0.0000   0.0000   0.0000   0.0000   0.0000   0.0000
     0.0000

          k = 0.2491 0.3409-0.3844 ( 19014 PWs)   bands (ev):

   -85.1216 -68.3518 -63.8043 -63.7845 -49.0855 -48.6000 -48.1556 -37.4156
   -37.4115 -37.3856 -28.3380 -28.3203 -28.2390 -28.2201 -28.1132 -28.1021
    -7.6496  -7.3454  -7.1854  -6.9680  -6.6272  -6.5138  -6.3324  -6.1194
     3.1568   3.3877   3.5101   3.8967   4.0949   4.3077   4.4550   4.5889
     5.0494   5.3933   5.4460   5.8241   5.9180   6.1714   6.2714   6.6364
     6.8723   7.0879   7.4005   7.5761   7.6662   8.0565   8.2053   8.3355
     8.4449   8.6080   8.7863   9.0283   9.2878   9.5886   9.6426   9.9186
    10.8371  10.9676  13.8328  14.0779  14.5796  14.6095  14.9277  14.9624
    17.7302

     occupation numbers 
     1.0000   1.0000   1.0000   1.0000   1.0000   1.0000   1.0000   1.0000
     1.0000   1.0000   1.0000   1.0000   1.0000   1.0000   1.0000   1.0000
     1.0000   1.0000   1.0000   1.0000   1.0000   1.0000   1.0000   1.0000
     1.0000   1.0000   1.0000   1.0000   1.0000   1.0000   1.0000   1.0000
     1.0000   1.0000   1.0000   1.0000   1.0000   1.0000   1.0000   1.0000
     1.0000   1.0000   1.0000   1.0000   1.0000   1.0000   1.0000   1.0000
     1.0000   1.0000   1.0000   1.0000   1.0000   1.0000   1.0000   1.0000
     1.0000   1.0000   0.0000   0.0000   0.0000   0.0000   0.0000   0.0000
     0.0000

          k = 0.2494 0.3409-0.2294 ( 19002 PWs)   bands (ev):

   -85.1215 -68.3518 -63.8049 -63.7838 -49.0855 -48.6000 -48.1557 -37.4156
   -37.4115 -37.3856 -28.3450 -28.3009 -28.2530 -28.2014 -28.1321 -28.0995
    -7.8830  -7.3057  -7.0917  -6.8514  -6.7154  -6.5787  -6.2528  -6.0446
     3.1585   3.3727   3.4817   3.9663   4.0736   4.1753   4.5788   4.7479
     4.9678   5.3117   5.5179   5.6154   5.8853   6.1229   6.2281   6.7123
     7.0229   7.1384   7.3622   7.6747   7.8164   7.9842   8.1609   8.3025
     8.4628   8.6336   8.8066   9.0715   9.3177   9.5562   9.7736   9.8700
    10.5828  10.8552  13.7248  14.2647  14.4523  14.5929  14.9139  15.1502
    18.1011

     occupation numbers 
     1.0000   1.0000   1.0000   1.0000   1.0000   1.0000   1.0000   1.0000
     1.0000   1.0000   1.0000   1.0000   1.0000   1.0000   1.0000   1.0000
     1.0000   1.0000   1.0000   1.0000   1.0000   1.0000   1.0000   1.0000
     1.0000   1.0000   1.0000   1.0000   1.0000   1.0000   1.0000   1.0000
     1.0000   1.0000   1.0000   1.0000   1.0000   1.0000   1.0000   1.0000
     1.0000   1.0000   1.0000   1.0000   1.0000   1.0000   1.0000   1.0000
     1.0000   1.0000   1.0000   1.0000   1.0000   1.0000   1.0000   1.0000
     1.0000   1.0000   0.0000   0.0000   0.0000   0.0000   0.0000   0.0000
     0.0000

          k = 0.2498 0.3409-0.0745 ( 19015 PWs)   bands (ev):

   -85.1215 -68.3517 -63.8053 -63.7832 -49.0855 -48.6000 -48.1557 -37.4156
   -37.4115 -37.3856 -28.3473 -28.2821 -28.2658 -28.1801 -28.1550 -28.1009
    -8.0254  -7.3596  -6.9547  -6.8571  -6.7928  -6.4872  -6.1737  -6.0491
     3.1638   3.3578   3.4412   3.9441   3.9840   4.3424   4.5173   4.6971
     4.9280   5.3312   5.5172   5.6767   5.8427   6.2498   6.3141   6.6623
     6.8271   7.1805   7.5710   7.6015   7.8569   7.9256   8.0642   8.1854
     8.5490   8.6858   8.8568   9.1946   9.3200   9.4034   9.7688   9.8942
    10.6161  10.8251  13.8033  14.1876  14.3043  14.8148  15.0548  15.2909
    18.0219

     occupation numbers 
     1.0000   1.0000   1.0000   1.0000   1.0000   1.0000   1.0000   1.0000
     1.0000   1.0000   1.0000   1.0000   1.0000   1.0000   1.0000   1.0000
     1.0000   1.0000   1.0000   1.0000   1.0000   1.0000   1.0000   1.0000
     1.0000   1.0000   1.0000   1.0000   1.0000   1.0000   1.0000   1.0000
     1.0000   1.0000   1.0000   1.0000   1.0000   1.0000   1.0000   1.0000
     1.0000   1.0000   1.0000   1.0000   1.0000   1.0000   1.0000   1.0000
     1.0000   1.0000   1.0000   1.0000   1.0000   1.0000   1.0000   1.0000
     1.0000   1.0000   0.0000   0.0000   0.0000   0.0000   0.0000   0.0000
     0.0000

          k = 0.4169 0.0682 0.0826 ( 19055 PWs)   bands (ev):

   -85.1215 -68.3517 -63.8051 -63.7831 -49.0855 -48.6000 -48.1557 -37.4155
   -37.4115 -37.3857 -28.3491 -28.2840 -28.2684 -28.1788 -28.1533 -28.1003
    -8.0283  -7.1487  -7.1079  -6.8869  -6.5961  -6.4071  -6.3253  -6.2245
     3.1941   3.3686   3.5372   3.8543   4.0122   4.2702   4.5111   4.7756
     4.9694   5.0434   5.3400   5.6053   5.9546   6.1197   6.3529   6.7050
     7.0808   7.3057   7.4195   7.6114   7.7257   7.8503   8.0395   8.1988
     8.5663   8.8763   9.0542   9.1320   9.4500   9.6017   9.6904   9.9875
    10.7031  11.0615  13.9512  14.1015  14.2341  14.5676  15.0487  15.4192
    17.8799

     occupation numbers 
     1.0000   1.0000   1.0000   1.0000   1.0000   1.0000   1.0000   1.0000
     1.0000   1.0000   1.0000   1.0000   1.0000   1.0000   1.0000   1.0000
     1.0000   1.0000   1.0000   1.0000   1.0000   1.0000   1.0000   1.0000
     1.0000   1.0000   1.0000   1.0000   1.0000   1.0000   1.0000   1.0000
     1.0000   1.0000   1.0000   1.0000   1.0000   1.0000   1.0000   1.0000
     1.0000   1.0000   1.0000   1.0000   1.0000   1.0000   1.0000   1.0000
     1.0000   1.0000   1.0000   1.0000   1.0000   1.0000   1.0000   1.0000
     1.0000   1.0000   0.0000   0.0000   0.0000   0.0000   0.0000   0.0000
     0.0000

          k = 0.4172 0.0682 0.2376 ( 19045 PWs)   bands (ev):

   -85.1215 -68.3518 -63.8047 -63.7838 -49.0855 -48.6000 -48.1557 -37.4156
   -37.4115 -37.3857 -28.3451 -28.3007 -28.2557 -28.2007 -28.1322 -28.1003
    -7.8582  -7.1775  -7.0580  -6.9321  -6.7210  -6.5513  -6.2484  -6.1942
     3.2552   3.3676   3.5416   3.9050   4.1295   4.3895   4.4757   4.6378
     4.9519   5.0107   5.2392   5.6582   5.8262   5.9799   6.4641   6.6515
     6.8099   7.1583   7.3937   7.5702   7.8915   8.0531   8.3678   8.4258
     8.5219   8.7482   8.8874   9.0254   9.4676   9.6178   9.8045  10.0016
    10.6275  11.1427  13.8637  14.3122  14.3818  14.5407  15.0108  15.2932
    17.6192

     occupation numbers 
     1.0000   1.0000   1.0000   1.0000   1.0000   1.0000   1.0000   1.0000
     1.0000   1.0000   1.0000   1.0000   1.0000   1.0000   1.0000   1.0000
     1.0000   1.0000   1.0000   1.0000   1.0000   1.0000   1.0000   1.0000
     1.0000   1.0000   1.0000   1.0000   1.0000   1.0000   1.0000   1.0000
     1.0000   1.0000   1.0000   1.0000   1.0000   1.0000   1.0000   1.0000
     1.0000   1.0000   1.0000   1.0000   1.0000   1.0000   1.0000   1.0000
     1.0000   1.0000   1.0000   1.0000   1.0000   1.0000   1.0000   1.0000
     1.0000   1.0000   0.0000   0.0000   0.0000   0.0000   0.0000   0.0000
     0.0000

          k = 0.4176 0.0682 0.3926 ( 19030 PWs)   bands (ev):

   -85.1215 -68.3518 -63.8043 -63.7846 -49.0855 -48.6000 -48.1556 -37.4156
   -37.4115 -37.3857 -28.3361 -28.3184 -28.2408 -28.2207 -28.1149 -28.1040
    -7.5664  -7.2404  -7.1313  -6.9919  -6.7992  -6.6329  -6.2142  -6.1832
     3.3351   3.4328   3.4981   4.0198   4.2257   4.2911   4.3579   4.4459
     4.8284   5.2242   5.3512   5.5947   5.8691   6.1257   6.5228   6.7071
     6.7725   6.9438   7.2637   7.3805   7.7893   7.9022   8.2732   8.5395
     8.7196   8.9260   8.9689   9.1238   9.3221   9.5278   9.8839  10.0482
    10.7024  11.0455  14.0595  14.3228  14.5037  14.7050  14.7656  15.0343
    17.6065

     occupation numbers 
     1.0000   1.0000   1.0000   1.0000   1.0000   1.0000   1.0000   1.0000
     1.0000   1.0000   1.0000   1.0000   1.0000   1.0000   1.0000   1.0000
     1.0000   1.0000   1.0000   1.0000   1.0000   1.0000   1.0000   1.0000
     1.0000   1.0000   1.0000   1.0000   1.0000   1.0000   1.0000   1.0000
     1.0000   1.0000   1.0000   1.0000   1.0000   1.0000   1.0000   1.0000
     1.0000   1.0000   1.0000   1.0000   1.0000   1.0000   1.0000   1.0000
     1.0000   1.0000   1.0000   1.0000   1.0000   1.0000   1.0000   1.0000
     1.0000   1.0000   0.0000   0.0000   0.0000   0.0000   0.0000   0.0000
     0.0000

          k = 0.4157 0.0682-0.3824 ( 19032 PWs)   bands (ev):

   -85.1215 -68.3518 -63.8043 -63.7846 -49.0855 -48.6000 -48.1556 -37.4156
   -37.4115 -37.3857 -28.3360 -28.3183 -28.2409 -28.2207 -28.1149 -28.1041
    -7.5840  -7.2363  -7.0861  -7.0039  -6.7487  -6.7105  -6.2109  -6.1832
     3.3408   3.4082   3.5062   3.9481   4.1328   4.3468   4.4402   4.5310
     4.8231   5.1874   5.4267   5.7032   5.7500   6.2123   6.3586   6.7487
     6.9245   6.9665   7.0929   7.4893   7.7056   7.8727   8.2362   8.5484
     8.7038   8.8920   9.0277   9.2411   9.3151   9.4188   9.8656  10.0103
    10.8034  10.9316  14.1047  14.2950  14.4760  14.6290  14.7250  15.0596
    17.8472

     occupation numbers 
     1.0000   1.0000   1.0000   1.0000   1.0000   1.0000   1.0000   1.0000
     1.0000   1.0000   1.0000   1.0000   1.0000   1.0000   1.0000   1.0000
     1.0000   1.0000   1.0000   1.0000   1.0000   1.0000   1.0000   1.0000
     1.0000   1.0000   1.0000   1.0000   1.0000   1.0000   1.0000   1.0000
     1.0000   1.0000   1.0000   1.0000   1.0000   1.0000   1.0000   1.0000
     1.0000   1.0000   1.0000   1.0000   1.0000   1.0000   1.0000   1.0000
     1.0000   1.0000   1.0000   1.0000   1.0000   1.0000   1.0000   1.0000
     1.0000   1.0000   0.0000   0.0000   0.0000   0.0000   0.0000   0.0000
     0.0000

          k = 0.4161 0.0682-0.2274 ( 19051 PWs)   bands (ev):

   -85.1215 -68.3518 -63.8047 -63.7839 -49.0855 -48.6000 -48.1557 -37.4156
   -37.4115 -37.3857 -28.3448 -28.3007 -28.2555 -28.2007 -28.1321 -28.1004
    -7.8766  -7.1731  -6.9355  -6.8667  -6.8468  -6.6461  -6.2281  -6.1758
     3.2508   3.3469   3.5090   3.8958   4.1922   4.2560   4.4864   4.6793
     4.9421   5.1068   5.4494   5.6193   5.8615   6.2617   6.3628   6.6015
     6.8063   6.9423   7.2117   7.7522   7.8301   8.0031   8.2276   8.5144
     8.6515   8.7353   8.8603   9.1851   9.4503   9.5016   9.7609   9.9145
    10.7590  10.9534  13.8600  14.2865  14.4289  14.5525  14.7724  15.3034
    18.0066

     occupation numbers 
     1.0000   1.0000   1.0000   1.0000   1.0000   1.0000   1.0000   1.0000
     1.0000   1.0000   1.0000   1.0000   1.0000   1.0000   1.0000   1.0000
     1.0000   1.0000   1.0000   1.0000   1.0000   1.0000   1.0000   1.0000
     1.0000   1.0000   1.0000   1.0000   1.0000   1.0000   1.0000   1.0000
     1.0000   1.0000   1.0000   1.0000   1.0000   1.0000   1.0000   1.0000
     1.0000   1.0000   1.0000   1.0000   1.0000   1.0000   1.0000   1.0000
     1.0000   1.0000   1.0000   1.0000   1.0000   1.0000   1.0000   1.0000
     1.0000   1.0000   0.0000   0.0000   0.0000   0.0000   0.0000   0.0000
     0.0000

          k = 0.4165 0.0682-0.0724 ( 19067 PWs)   bands (ev):

   -85.1215 -68.3517 -63.8051 -63.7831 -49.0855 -48.6000 -48.1557 -37.4156
   -37.4115 -37.3856 -28.3490 -28.2842 -28.2682 -28.1790 -28.1531 -28.1003
    -8.0359  -7.1628  -7.0515  -6.8462  -6.6741  -6.4784  -6.2895  -6.1905
     3.1904   3.3533   3.5109   3.8980   4.0409   4.1763   4.5463   4.7200
     4.9995   5.0916   5.3608   5.7491   5.9317   6.2268   6.3725   6.7619
     6.9805   7.0829   7.3356   7.5555   7.7399   7.8946   8.1226   8.2306
     8.5266   8.8666   9.1259   9.2611   9.4069   9.5141   9.6505   9.9698
    10.7821  10.9292  13.9112  14.1193  14.2949  14.5450  14.9337  15.4186
    18.0904

     occupation numbers 
     1.0000   1.0000   1.0000   1.0000   1.0000   1.0000   1.0000   1.0000
     1.0000   1.0000   1.0000   1.0000   1.0000   1.0000   1.0000   1.0000
     1.0000   1.0000   1.0000   1.0000   1.0000   1.0000   1.0000   1.0000
     1.0000   1.0000   1.0000   1.0000   1.0000   1.0000   1.0000   1.0000
     1.0000   1.0000   1.0000   1.0000   1.0000   1.0000   1.0000   1.0000
     1.0000   1.0000   1.0000   1.0000   1.0000   1.0000   1.0000   1.0000
     1.0000   1.0000   1.0000   1.0000   1.0000   1.0000   1.0000   1.0000
     1.0000   1.0000   0.0000   0.0000   0.0000   0.0000   0.0000   0.0000
     0.0000

          k = 0.4169 0.2045 0.0826 ( 19018 PWs)   bands (ev):

   -85.1215 -68.3517 -63.8052 -63.7831 -49.0855 -48.6000 -48.1557 -37.4156
   -37.4115 -37.3857 -28.3484 -28.2829 -28.2677 -28.1795 -28.1544 -28.1007
    -7.9815  -7.2339  -7.1492  -6.8611  -6.6280  -6.4041  -6.2807  -6.1734
     3.1388   3.3247   3.4750   3.8157   3.9916   4.3376   4.5247   4.7844
     4.9949   5.1456   5.5152   5.6766   5.9770   6.1739   6.4699   6.7058
     6.8994   7.1922   7.4320   7.5791   7.6293   7.8807   8.1333   8.1966
     8.5990   8.6854   9.0563   9.2722   9.3424   9.5160   9.6300   9.9964
    10.5799  10.9490  13.8648  14.1480  14.3264  14.6872  15.0562  15.4179
    17.7772

     occupation numbers 
     1.0000   1.0000   1.0000   1.0000   1.0000   1.0000   1.0000   1.0000
     1.0000   1.0000   1.0000   1.0000   1.0000   1.0000   1.0000   1.0000
     1.0000   1.0000   1.0000   1.0000   1.0000   1.0000   1.0000   1.0000
     1.0000   1.0000   1.0000   1.0000   1.0000   1.0000   1.0000   1.0000
     1.0000   1.0000   1.0000   1.0000   1.0000   1.0000   1.0000   1.0000
     1.0000   1.0000   1.0000   1.0000   1.0000   1.0000   1.0000   1.0000
     1.0000   1.0000   1.0000   1.0000   1.0000   1.0000   1.0000   1.0000
     1.0000   1.0000   0.0000   0.0000   0.0000   0.0000   0.0000   0.0000
     0.0000

          k = 0.4172 0.2045 0.2376 ( 19030 PWs)   bands (ev):

   -85.1215 -68.3518 -63.8048 -63.7839 -49.0855 -48.6000 -48.1557 -37.4156
   -37.4115 -37.3857 -28.3452 -28.3008 -28.2548 -28.2012 -28.1323 -28.0999
    -7.8284  -7.2876  -7.0913  -6.8960  -6.6850  -6.5217  -6.2632  -6.1503
     3.1933   3.3451   3.4696   3.8232   4.1154   4.3322   4.5914   4.6526
     4.8768   5.2097   5.3327   5.7577   5.8534   6.0675   6.5243   6.6310
     6.8875   7.2703   7.4738   7.5483   7.7533   7.8573   8.2240   8.4365
     8.5807   8.7359   8.8530   9.1534   9.3012   9.5008   9.6782   9.9777
    10.5579  11.0795  13.7573  14.3562  14.5099  14.6520  14.9638  15.2919
    17.5433

     occupation numbers 
     1.0000   1.0000   1.0000   1.0000   1.0000   1.0000   1.0000   1.0000
     1.0000   1.0000   1.0000   1.0000   1.0000   1.0000   1.0000   1.0000
     1.0000   1.0000   1.0000   1.0000   1.0000   1.0000   1.0000   1.0000
     1.0000   1.0000   1.0000   1.0000   1.0000   1.0000   1.0000   1.0000
     1.0000   1.0000   1.0000   1.0000   1.0000   1.0000   1.0000   1.0000
     1.0000   1.0000   1.0000   1.0000   1.0000   1.0000   1.0000   1.0000
     1.0000   1.0000   1.0000   1.0000   1.0000   1.0000   1.0000   1.0000
     1.0000   1.0000   0.0000   0.0000   0.0000   0.0000   0.0000   0.0000
     0.0000

          k = 0.4176 0.2045 0.3926 ( 19051 PWs)   bands (ev):

   -85.1215 -68.3518 -63.8044 -63.7847 -49.0855 -48.6000 -48.1556 -37.4156
   -37.4115 -37.3857 -28.3370 -28.3193 -28.2402 -28.2206 -28.1142 -28.1031
    -7.5720  -7.3361  -7.1411  -7.0096  -6.6991  -6.5703  -6.2284  -6.1816
     3.2485   3.3992   3.4874   3.8977   4.2030   4.2567   4.3896   4.5249
     4.8246   5.2498   5.4670   5.6623   5.8693   6.1887   6.6293   6.7633
     6.9269   7.0147   7.3061   7.5053   7.7078   7.8653   8.1559   8.4844
     8.6657   8.8545   8.9603   9.0899   9.2500   9.4350   9.6873  10.0359
    10.6185  10.9766  13.9533  14.3187  14.6266  14.6893  14.8229  15.0600
    17.5302

     occupation numbers 
     1.0000   1.0000   1.0000   1.0000   1.0000   1.0000   1.0000   1.0000
     1.0000   1.0000   1.0000   1.0000   1.0000   1.0000   1.0000   1.0000
     1.0000   1.0000   1.0000   1.0000   1.0000   1.0000   1.0000   1.0000
     1.0000   1.0000   1.0000   1.0000   1.0000   1.0000   1.0000   1.0000
     1.0000   1.0000   1.0000   1.0000   1.0000   1.0000   1.0000   1.0000
     1.0000   1.0000   1.0000   1.0000   1.0000   1.0000   1.0000   1.0000
     1.0000   1.0000   1.0000   1.0000   1.0000   1.0000   1.0000   1.0000
     1.0000   1.0000   0.0000   0.0000   0.0000   0.0000   0.0000   0.0000
     0.0000

          k = 0.4157 0.2045-0.3824 ( 19017 PWs)   bands (ev):

   -85.1215 -68.3518 -63.8045 -63.7847 -49.0855 -48.6000 -48.1556 -37.4156
   -37.4115 -37.3857 -28.3369 -28.3193 -28.2402 -28.2206 -28.1142 -28.1031
    -7.5843  -7.3041  -7.1541  -7.0089  -6.6590  -6.6304  -6.2359  -6.1650
     3.2362   3.3863   3.5288   3.9343   4.1063   4.2864   4.4442   4.4836
     4.8314   5.2097   5.5413   5.7041   5.7815   6.3347   6.5746   6.7373
     6.8937   7.0956   7.3050   7.4605   7.7185   7.8171   8.1853   8.4532
     8.6533   8.8059   9.0092   9.1094   9.2524   9.4324   9.7408   9.9899
    10.6631  10.8547  13.9678  14.3289  14.4952  14.7167  14.7809  15.0598
    17.7488

     occupation numbers 
     1.0000   1.0000   1.0000   1.0000   1.0000   1.0000   1.0000   1.0000
     1.0000   1.0000   1.0000   1.0000   1.0000   1.0000   1.0000   1.0000
     1.0000   1.0000   1.0000   1.0000   1.0000   1.0000   1.0000   1.0000
     1.0000   1.0000   1.0000   1.0000   1.0000   1.0000   1.0000   1.0000
     1.0000   1.0000   1.0000   1.0000   1.0000   1.0000   1.0000   1.0000
     1.0000   1.0000   1.0000   1.0000   1.0000   1.0000   1.0000   1.0000
     1.0000   1.0000   1.0000   1.0000   1.0000   1.0000   1.0000   1.0000
     1.0000   1.0000   0.0000   0.0000   0.0000   0.0000   0.0000   0.0000
     0.0000

          k = 0.4161 0.2045-0.2274 ( 19019 PWs)   bands (ev):

   -85.1215 -68.3518 -63.8049 -63.7839 -49.0855 -48.6000 -48.1557 -37.4156
   -37.4115 -37.3857 -28.3449 -28.3008 -28.2546 -28.2013 -28.1322 -28.1000
    -7.8413  -7.2711  -7.0144  -6.8690  -6.7898  -6.5872  -6.2322  -6.1253
     3.1803   3.3195   3.5169   3.8418   4.1460   4.3423   4.4966   4.6058
     4.8390   5.2575   5.5145   5.7380   5.8485   6.3766   6.4006   6.5567
     6.9235   7.0678   7.3685   7.5746   7.7326   8.0242   8.1885   8.4522
     8.5936   8.6844   8.9149   9.1097   9.2625   9.5873   9.7209   9.8993
    10.6008  10.8620  13.7877  14.3643  14.4393  14.6657  14.7657  15.2779
    17.8166

     occupation numbers 
     1.0000   1.0000   1.0000   1.0000   1.0000   1.0000   1.0000   1.0000
     1.0000   1.0000   1.0000   1.0000   1.0000   1.0000   1.0000   1.0000
     1.0000   1.0000   1.0000   1.0000   1.0000   1.0000   1.0000   1.0000
     1.0000   1.0000   1.0000   1.0000   1.0000   1.0000   1.0000   1.0000
     1.0000   1.0000   1.0000   1.0000   1.0000   1.0000   1.0000   1.0000
     1.0000   1.0000   1.0000   1.0000   1.0000   1.0000   1.0000   1.0000
     1.0000   1.0000   1.0000   1.0000   1.0000   1.0000   1.0000   1.0000
     1.0000   1.0000   0.0000   0.0000   0.0000   0.0000   0.0000   0.0000
     0.0000

          k = 0.4165 0.2045-0.0724 ( 19027 PWs)   bands (ev):

   -85.1215 -68.3517 -63.8053 -63.7832 -49.0855 -48.6000 -48.1557 -37.4156
   -37.4115 -37.3857 -28.3483 -28.2831 -28.2674 -28.1797 -28.1542 -28.1007
    -7.9871  -7.2513  -7.0773  -6.8396  -6.7180  -6.4465  -6.2539  -6.1413
     3.1343   3.3077   3.4910   3.8213   4.0078   4.3545   4.5190   4.7042
     4.9382   5.2006   5.5787   5.8264   6.0345   6.1656   6.3449   6.7120
     6.8936   7.2029   7.3481   7.4719   7.7512   7.8564   8.0663   8.3115
     8.5533   8.7179   9.0768   9.2394   9.3601   9.5280   9.6410   9.9930
    10.6033  10.8095  13.9153  14.1781  14.2490  14.6686  14.9686  15.4107
    17.8977

     occupation numbers 
     1.0000   1.0000   1.0000   1.0000   1.0000   1.0000   1.0000   1.0000
     1.0000   1.0000   1.0000   1.0000   1.0000   1.0000   1.0000   1.0000
     1.0000   1.0000   1.0000   1.0000   1.0000   1.0000   1.0000   1.0000
     1.0000   1.0000   1.0000   1.0000   1.0000   1.0000   1.0000   1.0000
     1.0000   1.0000   1.0000   1.0000   1.0000   1.0000   1.0000   1.0000
     1.0000   1.0000   1.0000   1.0000   1.0000   1.0000   1.0000   1.0000
     1.0000   1.0000   1.0000   1.0000   1.0000   1.0000   1.0000   1.0000
     1.0000   1.0000   0.0000   0.0000   0.0000   0.0000   0.0000   0.0000
     0.0000

          k = 0.4169 0.3409 0.0826 ( 19030 PWs)   bands (ev):

   -85.1214 -68.3517 -63.8054 -63.7832 -49.0855 -48.6000 -48.1557 -37.4156
   -37.4115 -37.3857 -28.3476 -28.2818 -28.2669 -28.1803 -28.1555 -28.1011
    -7.9270  -7.3163  -7.1752  -6.8688  -6.6484  -6.4034  -6.2040  -6.1554
     3.0927   3.2572   3.4444   3.7797   3.9839   4.2568   4.5804   4.8787
     5.0900   5.3591   5.5957   5.7586   6.0090   6.2758   6.3491   6.5680
     6.9198   7.0189   7.3670   7.5278   7.6927   7.9822   8.2140   8.4159
     8.4934   8.6216   8.8745   9.0617   9.4019   9.4823   9.6029  10.0002
    10.5015  10.8253  13.8087  14.1968  14.4079  14.8370  15.0672  15.3567
    17.5064

     occupation numbers 
     1.0000   1.0000   1.0000   1.0000   1.0000   1.0000   1.0000   1.0000
     1.0000   1.0000   1.0000   1.0000   1.0000   1.0000   1.0000   1.0000
     1.0000   1.0000   1.0000   1.0000   1.0000   1.0000   1.0000   1.0000
     1.0000   1.0000   1.0000   1.0000   1.0000   1.0000   1.0000   1.0000
     1.0000   1.0000   1.0000   1.0000   1.0000   1.0000   1.0000   1.0000
     1.0000   1.0000   1.0000   1.0000   1.0000   1.0000   1.0000   1.0000
     1.0000   1.0000   1.0000   1.0000   1.0000   1.0000   1.0000   1.0000
     1.0000   1.0000   0.0000   0.0000   0.0000   0.0000   0.0000   0.0000
     0.0000

          k = 0.4172 0.3409 0.2376 ( 19018 PWs)   bands (ev):

   -85.1215 -68.3518 -63.8050 -63.7840 -49.0855 -48.6000 -48.1557 -37.4156
   -37.4115 -37.3857 -28.3452 -28.3009 -28.2539 -28.2017 -28.1324 -28.0995
    -7.7938  -7.3695  -7.1228  -6.9061  -6.6065  -6.5344  -6.2524  -6.1203
     3.1200   3.3081   3.4653   3.7432   4.0816   4.2214   4.6009   4.7570
     4.9842   5.2626   5.5542   5.7956   5.9229   6.1301   6.4718   6.6729
     6.8905   7.3505   7.4480   7.5960   7.7354   7.8458   8.0203   8.3884
     8.5961   8.8039   8.8871   9.0109   9.2432   9.3337   9.5893   9.9662
    10.5065  10.9944  13.6915  14.3725  14.6713  14.7636  14.9035  15.2613
    17.3563

     occupation numbers 
     1.0000   1.0000   1.0000   1.0000   1.0000   1.0000   1.0000   1.0000
     1.0000   1.0000   1.0000   1.0000   1.0000   1.0000   1.0000   1.0000
     1.0000   1.0000   1.0000   1.0000   1.0000   1.0000   1.0000   1.0000
     1.0000   1.0000   1.0000   1.0000   1.0000   1.0000   1.0000   1.0000
     1.0000   1.0000   1.0000   1.0000   1.0000   1.0000   1.0000   1.0000
     1.0000   1.0000   1.0000   1.0000   1.0000   1.0000   1.0000   1.0000
     1.0000   1.0000   1.0000   1.0000   1.0000   1.0000   1.0000   1.0000
     1.0000   1.0000   0.0000   0.0000   0.0000   0.0000   0.0000   0.0000
     0.0000

          k = 0.4176 0.3409 0.3926 ( 19026 PWs)   bands (ev):

   -85.1216 -68.3518 -63.8046 -63.7847 -49.0855 -48.6000 -48.1556 -37.4156
   -37.4115 -37.3857 -28.3379 -28.3202 -28.2396 -28.2206 -28.1135 -28.1021
    -7.5744  -7.4162  -7.1306  -7.0410  -6.5916  -6.5420  -6.2417  -6.1789
     3.1509   3.3743   3.5398   3.7979   4.0693   4.1805   4.4042   4.6241
     4.9459   5.2129   5.6948   5.7609   5.9056   6.1758   6.6174   6.8425
     6.9394   7.1853   7.2964   7.5588   7.7221   7.9304   8.1252   8.4192
     8.5787   8.7903   8.9008   9.0661   9.1285   9.3226   9.5163  10.0425
    10.5738  10.8543  13.8776  14.3358  14.5873  14.7656  14.9141  15.0677
    17.4229

     occupation numbers 
     1.0000   1.0000   1.0000   1.0000   1.0000   1.0000   1.0000   1.0000
     1.0000   1.0000   1.0000   1.0000   1.0000   1.0000   1.0000   1.0000
     1.0000   1.0000   1.0000   1.0000   1.0000   1.0000   1.0000   1.0000
     1.0000   1.0000   1.0000   1.0000   1.0000   1.0000   1.0000   1.0000
     1.0000   1.0000   1.0000   1.0000   1.0000   1.0000   1.0000   1.0000
     1.0000   1.0000   1.0000   1.0000   1.0000   1.0000   1.0000   1.0000
     1.0000   1.0000   1.0000   1.0000   1.0000   1.0000   1.0000   1.0000
     1.0000   1.0000   0.0000   0.0000   0.0000   0.0000   0.0000   0.0000
     0.0000

          k = 0.4157 0.3409-0.3824 ( 19013 PWs)   bands (ev):

   -85.1216 -68.3518 -63.8046 -63.7848 -49.0855 -48.6000 -48.1556 -37.4156
   -37.4115 -37.3857 -28.3378 -28.3202 -28.2395 -28.2206 -28.1134 -28.1022
    -7.5895  -7.3616  -7.1697  -7.0424  -6.5820  -6.5658  -6.2587  -6.1497
     3.1443   3.3703   3.5690   3.9045   4.0252   4.2212   4.3579   4.4984
     4.9960   5.2315   5.5659   5.6673   6.0128   6.4336   6.5665   6.7517
     7.0480   7.1405   7.3650   7.5402   7.6195   7.8572   8.2496   8.3300
     8.5215   8.8132   8.9327   9.0476   9.1505   9.3599   9.6331  10.0305
    10.5451  10.7208  13.9043  14.2069  14.6541  14.7399  14.8388  15.0544
    17.6847

     occupation numbers 
     1.0000   1.0000   1.0000   1.0000   1.0000   1.0000   1.0000   1.0000
     1.0000   1.0000   1.0000   1.0000   1.0000   1.0000   1.0000   1.0000
     1.0000   1.0000   1.0000   1.0000   1.0000   1.0000   1.0000   1.0000
     1.0000   1.0000   1.0000   1.0000   1.0000   1.0000   1.0000   1.0000
     1.0000   1.0000   1.0000   1.0000   1.0000   1.0000   1.0000   1.0000
     1.0000   1.0000   1.0000   1.0000   1.0000   1.0000   1.0000   1.0000
     1.0000   1.0000   1.0000   1.0000   1.0000   1.0000   1.0000   1.0000
     1.0000   1.0000   0.0000   0.0000   0.0000   0.0000   0.0000   0.0000
     0.0000

          k = 0.4161 0.3409-0.2274 ( 18997 PWs)   bands (ev):

   -85.1215 -68.3518 -63.8051 -63.7840 -49.0855 -48.6000 -48.1557 -37.4156
   -37.4115 -37.3857 -28.3450 -28.3010 -28.2536 -28.2019 -28.1323 -28.0996
    -7.8019  -7.3444  -7.0672  -6.9062  -6.7357  -6.5567  -6.2045  -6.0947
     3.1166   3.2926   3.5297   3.7605   4.1482   4.2772   4.4584   4.7052
     4.9711   5.2149   5.5728   5.7544   5.8732   6.3383   6.5472   6.6924
     7.0152   7.2093   7.3485   7.5077   7.7601   7.9203   8.0544   8.3848
     8.5200   8.7725   8.8602   9.0886   9.2384   9.4286   9.7527   9.9089
    10.4568  10.7470  13.7452  14.3662  14.5170  14.6258  14.9244  15.2039
    17.6716

     occupation numbers 
     1.0000   1.0000   1.0000   1.0000   1.0000   1.0000   1.0000   1.0000
     1.0000   1.0000   1.0000   1.0000   1.0000   1.0000   1.0000   1.0000
     1.0000   1.0000   1.0000   1.0000   1.0000   1.0000   1.0000   1.0000
     1.0000   1.0000   1.0000   1.0000   1.0000   1.0000   1.0000   1.0000
     1.0000   1.0000   1.0000   1.0000   1.0000   1.0000   1.0000   1.0000
     1.0000   1.0000   1.0000   1.0000   1.0000   1.0000   1.0000   1.0000
     1.0000   1.0000   1.0000   1.0000   1.0000   1.0000   1.0000   1.0000
     1.0000   1.0000   0.0000   0.0000   0.0000   0.0000   0.0000   0.0000
     0.0000

          k = 0.4165 0.3409-0.0724 ( 19013 PWs)   bands (ev):

   -85.1214 -68.3517 -63.8055 -63.7832 -49.0855 -48.6000 -48.1557 -37.4156
   -37.4115 -37.3857 -28.3475 -28.2821 -28.2665 -28.1805 -28.1553 -28.1011
    -7.9304  -7.3316  -7.0985  -6.8609  -6.7472  -6.4300  -6.1757  -6.1266
     3.0942   3.2471   3.4726   3.7547   4.0021   4.3157   4.5992   4.7627
     5.1317   5.2886   5.5941   5.9067   5.9609   6.1527   6.3923   6.7222
     6.8184   7.1078   7.3135   7.5055   7.8028   7.9018   8.1119   8.3522
     8.5775   8.7136   8.8055   9.1447   9.3698   9.4631   9.6879  10.0060
    10.4809  10.6782  13.9152  14.2198  14.2593  14.7473  15.0676  15.3330
    17.6514

     occupation numbers 
     1.0000   1.0000   1.0000   1.0000   1.0000   1.0000   1.0000   1.0000
     1.0000   1.0000   1.0000   1.0000   1.0000   1.0000   1.0000   1.0000
     1.0000   1.0000   1.0000   1.0000   1.0000   1.0000   1.0000   1.0000
     1.0000   1.0000   1.0000   1.0000   1.0000   1.0000   1.0000   1.0000
     1.0000   1.0000   1.0000   1.0000   1.0000   1.0000   1.0000   1.0000
     1.0000   1.0000   1.0000   1.0000   1.0000   1.0000   1.0000   1.0000
     1.0000   1.0000   1.0000   1.0000   1.0000   1.0000   1.0000   1.0000
     1.0000   1.0000   0.0000   0.0000   0.0000   0.0000   0.0000   0.0000
     0.0000

 ------ SPIN DOWN ----------


          k = 0.0835 0.0682 0.0785 ( 19032 PWs)   bands (ev):

   -82.3116 -63.7842 -63.7629 -63.7288 -45.8286 -45.6392 -45.4425 -32.6001
   -32.5888 -32.5695 -28.2771 -28.2183 -28.2075 -28.1252 -28.0826 -28.0335
    -8.2868  -7.0032  -6.8309  -6.6678  -6.5092  -6.3805  -6.1256  -5.9042
     3.9376   4.0921   4.4443   4.6687   4.8688   5.4607   5.6506   6.0247
     6.1451   6.5714   6.6455   6.9796   7.0770   7.4193   7.5506   7.8102
     7.8752   8.1688   8.4120   8.7528   8.9286   8.9974   9.0906   9.2838
     9.6367   9.7720  13.5950  13.8527  14.2629  14.4271  14.7412  14.9358
    15.6747  16.1359  16.3625  16.8244  16.8441  17.0123  17.2531  17.8388
    17.9766

     occupation numbers 
     1.0000   1.0000   1.0000   1.0000   1.0000   1.0000   1.0000   1.0000
     1.0000   1.0000   1.0000   1.0000   1.0000   1.0000   1.0000   1.0000
     1.0000   1.0000   1.0000   1.0000   1.0000   1.0000   1.0000   1.0000
     1.0000   1.0000   1.0000   1.0000   1.0000   1.0000   1.0000   1.0000
     1.0000   1.0000   1.0000   1.0000   1.0000   1.0000   1.0000   1.0000
     1.0000   1.0000   1.0000   1.0000   1.0000   1.0000   1.0000   1.0000
     1.0000   1.0000   0.0000   0.0000   0.0000   0.0000   0.0000   0.0000
     0.0000   0.0000   0.0000   0.0000   0.0000   0.0000   0.0000   0.0000
     0.0000

          k = 0.0839 0.0682 0.2335 ( 19013 PWs)   bands (ev):

   -82.3116 -63.7842 -63.7626 -63.7292 -45.8286 -45.6392 -45.4425 -32.6001
   -32.5888 -32.5695 -28.2738 -28.2326 -28.1964 -28.1440 -28.0647 -28.0336
    -8.0823  -7.0378  -6.9695  -6.8259  -6.4002  -6.3248  -6.1510  -5.9468
     4.1279   4.1706   4.5800   4.6522   4.8478   5.0208   5.7161   5.8557
     6.1559   6.6114   6.7557   6.8822   7.1396   7.4601   7.5594   7.7314
     8.0109   8.1855   8.4240   8.7080   8.8129   8.9577   9.1649   9.3670
     9.5820   9.7025  13.7616  14.0305  14.2118  14.4603  14.6204  14.8701
    15.6378  16.0575  16.2887  16.8555  16.9125  17.0924  17.5988  17.7161
    17.9433

     occupation numbers 
     1.0000   1.0000   1.0000   1.0000   1.0000   1.0000   1.0000   1.0000
     1.0000   1.0000   1.0000   1.0000   1.0000   1.0000   1.0000   1.0000
     1.0000   1.0000   1.0000   1.0000   1.0000   1.0000   1.0000   1.0000
     1.0000   1.0000   1.0000   1.0000   1.0000   1.0000   1.0000   1.0000
     1.0000   1.0000   1.0000   1.0000   1.0000   1.0000   1.0000   1.0000
     1.0000   1.0000   1.0000   1.0000   1.0000   1.0000   1.0000   1.0000
     1.0000   1.0000   0.0000   0.0000   0.0000   0.0000   0.0000   0.0000
     0.0000   0.0000   0.0000   0.0000   0.0000   0.0000   0.0000   0.0000
     0.0000

          k = 0.0843 0.0682 0.3885 ( 19031 PWs)   bands (ev):

   -82.3116 -63.7842 -63.7623 -63.7296 -45.8286 -45.6392 -45.4425 -32.6001
   -32.5888 -32.5695 -28.2660 -28.2485 -28.1821 -28.1641 -28.0481 -28.0374
    -7.7156  -7.3172  -7.0075  -6.9484  -6.3578  -6.3030  -6.1040  -6.0204
     4.0491   4.1384   4.7250   4.7799   4.9948   5.3593   5.5495   5.7127
     6.0965   6.3472   6.7570   6.8931   7.0859   7.3087   7.4925   7.7096
     8.1474   8.2575   8.3903   8.5982   8.8292   9.0599   9.2014   9.4295
     9.5382   9.6715  14.0054  14.1282  14.2137  14.4206  14.5274  14.7057
    15.6089  15.9298  16.2455  16.8561  16.9208  17.1111  17.5333  17.7876
    18.4416

     occupation numbers 
     1.0000   1.0000   1.0000   1.0000   1.0000   1.0000   1.0000   1.0000
     1.0000   1.0000   1.0000   1.0000   1.0000   1.0000   1.0000   1.0000
     1.0000   1.0000   1.0000   1.0000   1.0000   1.0000   1.0000   1.0000
     1.0000   1.0000   1.0000   1.0000   1.0000   1.0000   1.0000   1.0000
     1.0000   1.0000   1.0000   1.0000   1.0000   1.0000   1.0000   1.0000
     1.0000   1.0000   1.0000   1.0000   1.0000   1.0000   1.0000   1.0000
     1.0000   1.0000   0.0000   0.0000   0.0000   0.0000   0.0000   0.0000
     0.0000   0.0000   0.0000   0.0000   0.0000   0.0000   0.0000   0.0000
     0.0000

          k = 0.0824 0.0682-0.3865 ( 19011 PWs)   bands (ev):

   -82.3116 -63.7842 -63.7622 -63.7295 -45.8286 -45.6392 -45.4425 -32.6001
   -32.5888 -32.5695 -28.2661 -28.2485 -28.1818 -28.1644 -28.0479 -28.0376
    -7.7389  -7.2697  -7.0009  -6.9226  -6.4065  -6.3389  -6.1152  -5.9887
     3.9813   4.1749   4.5527   4.9654   5.1526   5.3282   5.6362   5.7620
     6.0346   6.2708   6.7658   6.9088   7.0719   7.2243   7.4525   7.7734
     8.0267   8.3259   8.3849   8.5470   8.8531   9.0504   9.2308   9.4150
     9.5240   9.6948  13.9585  14.1210  14.2772  14.4283  14.4717  14.6655
    15.5834  15.8747  16.2906  16.8790  16.9571  17.1177  17.4869  17.8863
    18.4078

     occupation numbers 
     1.0000   1.0000   1.0000   1.0000   1.0000   1.0000   1.0000   1.0000
     1.0000   1.0000   1.0000   1.0000   1.0000   1.0000   1.0000   1.0000
     1.0000   1.0000   1.0000   1.0000   1.0000   1.0000   1.0000   1.0000
     1.0000   1.0000   1.0000   1.0000   1.0000   1.0000   1.0000   1.0000
     1.0000   1.0000   1.0000   1.0000   1.0000   1.0000   1.0000   1.0000
     1.0000   1.0000   1.0000   1.0000   1.0000   1.0000   1.0000   1.0000
     1.0000   1.0000   0.0000   0.0000   0.0000   0.0000   0.0000   0.0000
     0.0000   0.0000   0.0000   0.0000   0.0000   0.0000   0.0000   0.0000
     0.0000

          k = 0.0828 0.0682-0.2315 ( 19020 PWs)   bands (ev):

   -82.3116 -63.7842 -63.7625 -63.7291 -45.8286 -45.6392 -45.4425 -32.6001
   -32.5888 -32.5695 -28.2739 -28.2327 -28.1961 -28.1443 -28.0645 -28.0338
    -8.0930  -7.0011  -6.8983  -6.7683  -6.4968  -6.4302  -6.1520  -5.9133
     4.0067   4.0925   4.7284   4.7513   4.9102   5.0670   5.8650   5.9233
     6.2640   6.4000   6.6051   6.9989   7.2046   7.3127   7.5552   7.6844
     7.8600   8.1811   8.4245   8.5618   8.7824   9.1055   9.2247   9.3286
     9.5932   9.7270  13.7906  14.0431  14.0908  14.3443  14.6821  14.8441
    15.5910  15.9457  16.3704  16.8799  16.9859  17.1002  17.5157  17.8166
    18.0439

     occupation numbers 
     1.0000   1.0000   1.0000   1.0000   1.0000   1.0000   1.0000   1.0000
     1.0000   1.0000   1.0000   1.0000   1.0000   1.0000   1.0000   1.0000
     1.0000   1.0000   1.0000   1.0000   1.0000   1.0000   1.0000   1.0000
     1.0000   1.0000   1.0000   1.0000   1.0000   1.0000   1.0000   1.0000
     1.0000   1.0000   1.0000   1.0000   1.0000   1.0000   1.0000   1.0000
     1.0000   1.0000   1.0000   1.0000   1.0000   1.0000   1.0000   1.0000
     1.0000   1.0000   0.0000   0.0000   0.0000   0.0000   0.0000   0.0000
     0.0000   0.0000   0.0000   0.0000   0.0000   0.0000   0.0000   0.0000
     0.0000

          k = 0.0831 0.0682-0.0765 ( 19007 PWs)   bands (ev):

   -82.3116 -63.7842 -63.7629 -63.7288 -45.8286 -45.6392 -45.4425 -32.6001
   -32.5888 -32.5695 -28.2772 -28.2184 -28.2072 -28.1254 -28.0825 -28.0336
    -8.2899  -6.9902  -6.7391  -6.6562  -6.5880  -6.4253  -6.1385  -5.8885
     3.8801   4.0797   4.4980   4.6341   4.9982   5.5124   5.6414   6.0501
     6.1949   6.4300   6.7006   6.9645   7.2186   7.3985   7.5248   7.6474
     7.7922   8.1871   8.4389   8.6660   8.8221   9.0323   9.1664   9.3399
     9.6737   9.7645  13.6079  13.8567  14.1733  14.3856  14.7730  14.9262
    15.6543  16.0742  16.4049  16.8258  16.9016  17.0174  17.2517  17.8440
    18.0489

     occupation numbers 
     1.0000   1.0000   1.0000   1.0000   1.0000   1.0000   1.0000   1.0000
     1.0000   1.0000   1.0000   1.0000   1.0000   1.0000   1.0000   1.0000
     1.0000   1.0000   1.0000   1.0000   1.0000   1.0000   1.0000   1.0000
     1.0000   1.0000   1.0000   1.0000   1.0000   1.0000   1.0000   1.0000
     1.0000   1.0000   1.0000   1.0000   1.0000   1.0000   1.0000   1.0000
     1.0000   1.0000   1.0000   1.0000   1.0000   1.0000   1.0000   1.0000
     1.0000   1.0000   0.0000   0.0000   0.0000   0.0000   0.0000   0.0000
     0.0000   0.0000   0.0000   0.0000   0.0000   0.0000   0.0000   0.0000
     0.0000

          k = 0.0835 0.2045 0.0785 ( 19015 PWs)   bands (ev):

   -82.3116 -63.7842 -63.7630 -63.7288 -45.8286 -45.6392 -45.4425 -32.6001
   -32.5888 -32.5695 -28.2766 -28.2177 -28.2063 -28.1257 -28.0841 -28.0339
    -8.1832  -7.0945  -6.9317  -6.6338  -6.5691  -6.3537  -6.1088  -5.8501
     4.0878   4.2401   4.4850   4.7031   4.8179   5.4298   5.6038   5.9794
     6.1633   6.4257   6.5648   6.8315   7.0557   7.3680   7.7300   7.7861
     8.0590   8.2974   8.5160   8.6738   8.7791   8.9311   9.0309   9.1992
     9.5616   9.6871  13.5988  13.9430  14.2516  14.4703  14.7715  14.9563
    15.6276  16.1265  16.4067  16.8167  16.9484  17.0939  17.5569  17.9169
    18.0038

     occupation numbers 
     1.0000   1.0000   1.0000   1.0000   1.0000   1.0000   1.0000   1.0000
     1.0000   1.0000   1.0000   1.0000   1.0000   1.0000   1.0000   1.0000
     1.0000   1.0000   1.0000   1.0000   1.0000   1.0000   1.0000   1.0000
     1.0000   1.0000   1.0000   1.0000   1.0000   1.0000   1.0000   1.0000
     1.0000   1.0000   1.0000   1.0000   1.0000   1.0000   1.0000   1.0000
     1.0000   1.0000   1.0000   1.0000   1.0000   1.0000   1.0000   1.0000
     1.0000   1.0000   0.0000   0.0000   0.0000   0.0000   0.0000   0.0000
     0.0000   0.0000   0.0000   0.0000   0.0000   0.0000   0.0000   0.0000
     0.0000

          k = 0.0839 0.2045 0.2335 ( 19033 PWs)   bands (ev):

   -82.3116 -63.7842 -63.7626 -63.7292 -45.8286 -45.6392 -45.4425 -32.6001
   -32.5888 -32.5695 -28.2741 -28.2328 -28.1955 -28.1447 -28.0649 -28.0332
    -7.9962  -7.1605  -6.9968  -6.7191  -6.4616  -6.3164  -6.2249  -5.8821
     4.1508   4.2811   4.5450   4.7988   4.8950   5.0345   5.7467   5.9593
     6.2064   6.4009   6.5383   6.8006   7.2404   7.4441   7.5402   7.8742
     7.9957   8.1879   8.4053   8.5972   8.8562   8.9415   9.0642   9.1892
     9.5576   9.6326  13.7148  14.1167  14.3276  14.5109  14.6087  14.9042
    15.5955  16.0668  16.3052  16.9087  16.9681  17.0909  17.7507  17.8526
    18.0595

     occupation numbers 
     1.0000   1.0000   1.0000   1.0000   1.0000   1.0000   1.0000   1.0000
     1.0000   1.0000   1.0000   1.0000   1.0000   1.0000   1.0000   1.0000
     1.0000   1.0000   1.0000   1.0000   1.0000   1.0000   1.0000   1.0000
     1.0000   1.0000   1.0000   1.0000   1.0000   1.0000   1.0000   1.0000
     1.0000   1.0000   1.0000   1.0000   1.0000   1.0000   1.0000   1.0000
     1.0000   1.0000   1.0000   1.0000   1.0000   1.0000   1.0000   1.0000
     1.0000   1.0000   0.0000   0.0000   0.0000   0.0000   0.0000   0.0000
     0.0000   0.0000   0.0000   0.0000   0.0000   0.0000   0.0000   0.0000
     0.0000

          k = 0.0843 0.2045 0.3885 ( 19013 PWs)   bands (ev):

   -82.3115 -63.7842 -63.7623 -63.7296 -45.8286 -45.6392 -45.4425 -32.6001
   -32.5888 -32.5695 -28.2671 -28.2495 -28.1817 -28.1643 -28.0473 -28.0363
    -7.6689  -7.3489  -6.9842  -6.8868  -6.4228  -6.3830  -6.1119  -5.9886
     4.1129   4.3236   4.5374   4.6772   5.0593   5.4763   5.6179   5.9832
     6.1841   6.4092   6.5630   6.7791   7.0396   7.2830   7.6039   7.6926
     8.0108   8.2020   8.2964   8.4661   8.8337   9.0122   9.2044   9.3075
     9.5060   9.6188  13.8711  14.1523  14.3332  14.5208  14.6293  14.7461
    15.5732  15.9726  16.2283  16.9422  17.0208  17.0952  17.6277  17.7776
    18.4251

     occupation numbers 
     1.0000   1.0000   1.0000   1.0000   1.0000   1.0000   1.0000   1.0000
     1.0000   1.0000   1.0000   1.0000   1.0000   1.0000   1.0000   1.0000
     1.0000   1.0000   1.0000   1.0000   1.0000   1.0000   1.0000   1.0000
     1.0000   1.0000   1.0000   1.0000   1.0000   1.0000   1.0000   1.0000
     1.0000   1.0000   1.0000   1.0000   1.0000   1.0000   1.0000   1.0000
     1.0000   1.0000   1.0000   1.0000   1.0000   1.0000   1.0000   1.0000
     1.0000   1.0000   0.0000   0.0000   0.0000   0.0000   0.0000   0.0000
     0.0000   0.0000   0.0000   0.0000   0.0000   0.0000   0.0000   0.0000
     0.0000

          k = 0.0824 0.2045-0.3865 ( 19010 PWs)   bands (ev):

   -82.3115 -63.7842 -63.7623 -63.7295 -45.8286 -45.6392 -45.4425 -32.6001
   -32.5888 -32.5695 -28.2671 -28.2495 -28.1814 -28.1645 -28.0471 -28.0365
    -7.6818  -7.3067  -7.0013  -6.8479  -6.5120  -6.3292  -6.1819  -5.9408
     4.0937   4.3290   4.4458   4.8416   5.1832   5.4100   5.6518   5.7942
     6.2838   6.4264   6.6383   6.7558   6.9817   7.2171   7.5519   7.7902
     7.9596   8.1918   8.2926   8.4849   8.8084   9.0334   9.1850   9.2847
     9.4619   9.7132  13.8803  14.0979  14.3577  14.4959  14.6071  14.6758
    15.5717  15.9100  16.2898  16.9218  17.0657  17.1093  17.5692  17.8608
    18.5379

     occupation numbers 
     1.0000   1.0000   1.0000   1.0000   1.0000   1.0000   1.0000   1.0000
     1.0000   1.0000   1.0000   1.0000   1.0000   1.0000   1.0000   1.0000
     1.0000   1.0000   1.0000   1.0000   1.0000   1.0000   1.0000   1.0000
     1.0000   1.0000   1.0000   1.0000   1.0000   1.0000   1.0000   1.0000
     1.0000   1.0000   1.0000   1.0000   1.0000   1.0000   1.0000   1.0000
     1.0000   1.0000   1.0000   1.0000   1.0000   1.0000   1.0000   1.0000
     1.0000   1.0000   0.0000   0.0000   0.0000   0.0000   0.0000   0.0000
     0.0000   0.0000   0.0000   0.0000   0.0000   0.0000   0.0000   0.0000
     0.0000

          k = 0.0828 0.2045-0.2315 ( 19009 PWs)   bands (ev):

   -82.3116 -63.7842 -63.7626 -63.7292 -45.8286 -45.6392 -45.4425 -32.6001
   -32.5888 -32.5695 -28.2741 -28.2329 -28.1953 -28.1450 -28.0647 -28.0333
    -8.0001  -7.0880  -6.9835  -6.6856  -6.5549  -6.4033  -6.2002  -5.8550
     4.1085   4.2274   4.5977   4.8426   5.0086   5.1742   5.7302   5.9087
     6.1010   6.4237   6.5293   6.9478   7.1175   7.3839   7.5435   7.8095
     8.0451   8.1980   8.3557   8.5178   8.7574   9.0166   9.0932   9.1948
     9.5551   9.7151  13.6984  14.1177  14.1890  14.4515  14.6728  14.8043
    15.5732  15.9618  16.4044  16.8490  17.0625  17.1179  17.6376  17.9980
    18.1995

     occupation numbers 
     1.0000   1.0000   1.0000   1.0000   1.0000   1.0000   1.0000   1.0000
     1.0000   1.0000   1.0000   1.0000   1.0000   1.0000   1.0000   1.0000
     1.0000   1.0000   1.0000   1.0000   1.0000   1.0000   1.0000   1.0000
     1.0000   1.0000   1.0000   1.0000   1.0000   1.0000   1.0000   1.0000
     1.0000   1.0000   1.0000   1.0000   1.0000   1.0000   1.0000   1.0000
     1.0000   1.0000   1.0000   1.0000   1.0000   1.0000   1.0000   1.0000
     1.0000   1.0000   0.0000   0.0000   0.0000   0.0000   0.0000   0.0000
     0.0000   0.0000   0.0000   0.0000   0.0000   0.0000   0.0000   0.0000
     0.0000

          k = 0.0831 0.2045-0.0765 ( 19023 PWs)   bands (ev):

   -82.3116 -63.7842 -63.7629 -63.7288 -45.8286 -45.6392 -45.4425 -32.6001
   -32.5888 -32.5695 -28.2766 -28.2178 -28.2062 -28.1259 -28.0840 -28.0340
    -8.1841  -7.0791  -6.8517  -6.7002  -6.6046  -6.3609  -6.1112  -5.8398
     4.0394   4.2397   4.5679   4.7229   4.8061   5.4793   5.6125   6.0387
     6.1335   6.4056   6.5359   6.7724   7.0664   7.4344   7.6563   7.7924
     8.0689   8.2780   8.4853   8.6254   8.7601   8.8609   9.1007   9.2398
     9.6101   9.6855  13.5731  13.9474  14.2032  14.4366  14.8129  14.8994
    15.6091  16.0765  16.4508  16.7890  16.9939  17.1087  17.5690  17.8931
    18.0991

     occupation numbers 
     1.0000   1.0000   1.0000   1.0000   1.0000   1.0000   1.0000   1.0000
     1.0000   1.0000   1.0000   1.0000   1.0000   1.0000   1.0000   1.0000
     1.0000   1.0000   1.0000   1.0000   1.0000   1.0000   1.0000   1.0000
     1.0000   1.0000   1.0000   1.0000   1.0000   1.0000   1.0000   1.0000
     1.0000   1.0000   1.0000   1.0000   1.0000   1.0000   1.0000   1.0000
     1.0000   1.0000   1.0000   1.0000   1.0000   1.0000   1.0000   1.0000
     1.0000   1.0000   0.0000   0.0000   0.0000   0.0000   0.0000   0.0000
     0.0000   0.0000   0.0000   0.0000   0.0000   0.0000   0.0000   0.0000
     0.0000

          k = 0.0835 0.3409 0.0785 ( 19004 PWs)   bands (ev):

   -82.3116 -63.7842 -63.7630 -63.7289 -45.8286 -45.6392 -45.4424 -32.6001
   -32.5888 -32.5695 -28.2760 -28.2172 -28.2050 -28.1263 -28.0856 -28.0343
    -8.0419  -7.2960  -6.9208  -6.6348  -6.6047  -6.3519  -6.0879  -5.8037
     4.2529   4.4241   4.5020   4.6818   4.9551   5.3403   5.4779   5.7552
     6.0902   6.4304   6.6360   6.8135   7.0471   7.2694   7.7941   7.9041
     8.2524   8.2808   8.3499   8.6015   8.7924   8.8966   8.9780   9.1362
     9.5155   9.5831  13.5987  14.0193  14.2784  14.5745  14.7272  14.9762
    15.5802  16.1393  16.4437  16.7862  17.0138  17.1151  17.8853  18.0322
    18.2394

     occupation numbers 
     1.0000   1.0000   1.0000   1.0000   1.0000   1.0000   1.0000   1.0000
     1.0000   1.0000   1.0000   1.0000   1.0000   1.0000   1.0000   1.0000
     1.0000   1.0000   1.0000   1.0000   1.0000   1.0000   1.0000   1.0000
     1.0000   1.0000   1.0000   1.0000   1.0000   1.0000   1.0000   1.0000
     1.0000   1.0000   1.0000   1.0000   1.0000   1.0000   1.0000   1.0000
     1.0000   1.0000   1.0000   1.0000   1.0000   1.0000   1.0000   1.0000
     1.0000   1.0000   0.0000   0.0000   0.0000   0.0000   0.0000   0.0000
     0.0000   0.0000   0.0000   0.0000   0.0000   0.0000   0.0000   0.0000
     0.0000

          k = 0.0839 0.3409 0.2335 ( 19014 PWs)   bands (ev):

   -82.3116 -63.7842 -63.7627 -63.7292 -45.8286 -45.6392 -45.4425 -32.6001
   -32.5888 -32.5695 -28.2744 -28.2331 -28.1946 -28.1453 -28.0651 -28.0328
    -7.8802  -7.3156  -6.9706  -6.6554  -6.4955  -6.3846  -6.2388  -5.8354
     4.1520   4.3425   4.5109   4.9555   5.1088   5.1491   5.6385   5.9523
     6.1246   6.3382   6.5928   6.6546   7.0341   7.3871   7.6512   7.9494
     8.1219   8.2238   8.4437   8.4981   8.7317   8.8034   8.9883   9.1793
     9.4960   9.5673  13.6796  14.1639  14.4786  14.5749  14.6545  14.8518
    15.5488  16.0974  16.3253  16.9368  17.0308  17.0794  17.8256  17.9284
    18.3244

     occupation numbers 
     1.0000   1.0000   1.0000   1.0000   1.0000   1.0000   1.0000   1.0000
     1.0000   1.0000   1.0000   1.0000   1.0000   1.0000   1.0000   1.0000
     1.0000   1.0000   1.0000   1.0000   1.0000   1.0000   1.0000   1.0000
     1.0000   1.0000   1.0000   1.0000   1.0000   1.0000   1.0000   1.0000
     1.0000   1.0000   1.0000   1.0000   1.0000   1.0000   1.0000   1.0000
     1.0000   1.0000   1.0000   1.0000   1.0000   1.0000   1.0000   1.0000
     1.0000   1.0000   0.0000   0.0000   0.0000   0.0000   0.0000   0.0000
     0.0000   0.0000   0.0000   0.0000   0.0000   0.0000   0.0000   0.0000
     0.0000

          k = 0.0843 0.3409 0.3885 ( 19029 PWs)   bands (ev):

   -82.3115 -63.7842 -63.7623 -63.7296 -45.8286 -45.6392 -45.4425 -32.6001
   -32.5888 -32.5695 -28.2682 -28.2505 -28.1812 -28.1644 -28.0464 -28.0353
    -7.6092  -7.4024  -6.9089  -6.8076  -6.5294  -6.4986  -6.1008  -5.9589
     4.1870   4.3044   4.5727   4.6474   5.1377   5.6220   5.7830   6.0253
     6.2929   6.3687   6.4976   6.7112   6.9694   7.3091   7.3756   7.7116
     8.0304   8.1010   8.2738   8.4358   8.7422   8.9004   9.2230   9.2478
     9.4267   9.5918  13.8132  14.2110  14.3627  14.6271  14.7267  14.7418
    15.5420  16.0354  16.2168  17.0158  17.0894  17.0993  17.7169  17.7740
    18.3190

     occupation numbers 
     1.0000   1.0000   1.0000   1.0000   1.0000   1.0000   1.0000   1.0000
     1.0000   1.0000   1.0000   1.0000   1.0000   1.0000   1.0000   1.0000
     1.0000   1.0000   1.0000   1.0000   1.0000   1.0000   1.0000   1.0000
     1.0000   1.0000   1.0000   1.0000   1.0000   1.0000   1.0000   1.0000
     1.0000   1.0000   1.0000   1.0000   1.0000   1.0000   1.0000   1.0000
     1.0000   1.0000   1.0000   1.0000   1.0000   1.0000   1.0000   1.0000
     1.0000   1.0000   0.0000   0.0000   0.0000   0.0000   0.0000   0.0000
     0.0000   0.0000   0.0000   0.0000   0.0000   0.0000   0.0000   0.0000
     0.0000

          k = 0.0824 0.3409-0.3865 ( 18994 PWs)   bands (ev):

   -82.3115 -63.7842 -63.7623 -63.7296 -45.8286 -45.6392 -45.4425 -32.6001
   -32.5888 -32.5695 -28.2682 -28.2505 -28.1811 -28.1647 -28.0463 -28.0354
    -7.6165  -7.3450  -6.9728  -6.7850  -6.5851  -6.4269  -6.1808  -5.9093
     4.1392   4.4342   4.5281   4.6996   5.2253   5.4749   5.7447   5.9390
     6.2984   6.4919   6.5277   6.6630   6.9449   7.3191   7.4627   7.6723
     7.9787   8.0635   8.2613   8.5279   8.7864   8.8962   9.1237   9.1817
     9.4252   9.7075  13.8947  14.0582  14.4107  14.5050  14.6653  14.7629
    15.5666  15.9650  16.2947  16.9848  17.0787  17.1340  17.6729  17.8174
    18.3270

     occupation numbers 
     1.0000   1.0000   1.0000   1.0000   1.0000   1.0000   1.0000   1.0000
     1.0000   1.0000   1.0000   1.0000   1.0000   1.0000   1.0000   1.0000
     1.0000   1.0000   1.0000   1.0000   1.0000   1.0000   1.0000   1.0000
     1.0000   1.0000   1.0000   1.0000   1.0000   1.0000   1.0000   1.0000
     1.0000   1.0000   1.0000   1.0000   1.0000   1.0000   1.0000   1.0000
     1.0000   1.0000   1.0000   1.0000   1.0000   1.0000   1.0000   1.0000
     1.0000   1.0000   0.0000   0.0000   0.0000   0.0000   0.0000   0.0000
     0.0000   0.0000   0.0000   0.0000   0.0000   0.0000   0.0000   0.0000
     0.0000

          k = 0.0828 0.3409-0.2315 ( 18996 PWs)   bands (ev):

   -82.3115 -63.7842 -63.7626 -63.7292 -45.8286 -45.6392 -45.4425 -32.6001
   -32.5888 -32.5695 -28.2743 -28.2331 -28.1945 -28.1456 -28.0649 -28.0329
    -7.8754  -7.2387  -6.9983  -6.6969  -6.5152  -6.4228  -6.2281  -5.8120
     4.1630   4.4103   4.5131   5.0479   5.1168   5.2607   5.5293   5.8031
     5.9666   6.3316   6.6319   6.7980   7.0268   7.4536   7.6572   7.9487
     8.0162   8.2966   8.3164   8.5323   8.7543   8.8927   8.9132   9.0524
     9.5117   9.7060  13.6496  14.1532  14.3998  14.4602  14.6509  14.7603
    15.5706  15.9958  16.4353  16.8279  17.0965  17.1214  17.7196  17.9824
    18.4759

     occupation numbers 
     1.0000   1.0000   1.0000   1.0000   1.0000   1.0000   1.0000   1.0000
     1.0000   1.0000   1.0000   1.0000   1.0000   1.0000   1.0000   1.0000
     1.0000   1.0000   1.0000   1.0000   1.0000   1.0000   1.0000   1.0000
     1.0000   1.0000   1.0000   1.0000   1.0000   1.0000   1.0000   1.0000
     1.0000   1.0000   1.0000   1.0000   1.0000   1.0000   1.0000   1.0000
     1.0000   1.0000   1.0000   1.0000   1.0000   1.0000   1.0000   1.0000
     1.0000   1.0000   0.0000   0.0000   0.0000   0.0000   0.0000   0.0000
     0.0000   0.0000   0.0000   0.0000   0.0000   0.0000   0.0000   0.0000
     0.0000

          k = 0.0831 0.3409-0.0765 ( 19019 PWs)   bands (ev):

   -82.3116 -63.7842 -63.7629 -63.7289 -45.8286 -45.6392 -45.4424 -32.6001
   -32.5888 -32.5695 -28.2760 -28.2172 -28.2050 -28.1265 -28.0854 -28.0344
    -8.0394  -7.2744  -6.8659  -6.7212  -6.6288  -6.3387  -6.0818  -5.7974
     4.2447   4.4378   4.5724   4.7393   4.8643   5.3368   5.5596   5.7567
     5.9135   6.4778   6.6936   6.7950   7.0007   7.3322   7.7728   7.9566
     8.1076   8.3197   8.4533   8.6127   8.7025   8.7766   9.0647   9.1237
     9.5531   9.6203  13.5469  14.0143  14.2913  14.5248  14.7378  14.9102
    15.5797  16.0950  16.4878  16.7361  17.0477  17.1275  17.8244  18.0529
    18.3702

     occupation numbers 
     1.0000   1.0000   1.0000   1.0000   1.0000   1.0000   1.0000   1.0000
     1.0000   1.0000   1.0000   1.0000   1.0000   1.0000   1.0000   1.0000
     1.0000   1.0000   1.0000   1.0000   1.0000   1.0000   1.0000   1.0000
     1.0000   1.0000   1.0000   1.0000   1.0000   1.0000   1.0000   1.0000
     1.0000   1.0000   1.0000   1.0000   1.0000   1.0000   1.0000   1.0000
     1.0000   1.0000   1.0000   1.0000   1.0000   1.0000   1.0000   1.0000
     1.0000   1.0000   0.0000   0.0000   0.0000   0.0000   0.0000   0.0000
     0.0000   0.0000   0.0000   0.0000   0.0000   0.0000   0.0000   0.0000
     0.0000

          k = 0.2502 0.0682 0.0805 ( 19046 PWs)   bands (ev):

   -82.3116 -63.7842 -63.7630 -63.7289 -45.8286 -45.6392 -45.4425 -32.6001
   -32.5888 -32.5696 -28.2770 -28.2187 -28.2080 -28.1259 -28.0826 -28.0336
    -8.1403  -7.0457  -6.9320  -6.7234  -6.4482  -6.2934  -6.1062  -6.0475
     4.1127   4.2149   4.4757   4.6623   4.8534   5.3534   5.7745   5.8152
     5.9381   6.2408   6.6717   7.0468   7.2211   7.4316   7.6659   7.8570
     8.0402   8.3699   8.5192   8.6493   8.7745   8.9942   9.1095   9.2512
     9.4386   9.7577  13.6419  13.9322  14.2677  14.4945  14.7086  15.0374
    15.5510  16.1446  16.4532  16.8158  16.9359  17.0466  17.6485  17.8263
    17.9520

     occupation numbers 
     1.0000   1.0000   1.0000   1.0000   1.0000   1.0000   1.0000   1.0000
     1.0000   1.0000   1.0000   1.0000   1.0000   1.0000   1.0000   1.0000
     1.0000   1.0000   1.0000   1.0000   1.0000   1.0000   1.0000   1.0000
     1.0000   1.0000   1.0000   1.0000   1.0000   1.0000   1.0000   1.0000
     1.0000   1.0000   1.0000   1.0000   1.0000   1.0000   1.0000   1.0000
     1.0000   1.0000   1.0000   1.0000   1.0000   1.0000   1.0000   1.0000
     1.0000   1.0000   0.0000   0.0000   0.0000   0.0000   0.0000   0.0000
     0.0000   0.0000   0.0000   0.0000   0.0000   0.0000   0.0000   0.0000
     0.0000

          k = 0.2506 0.0682 0.2355 ( 19014 PWs)   bands (ev):

   -82.3116 -63.7842 -63.7627 -63.7292 -45.8286 -45.6392 -45.4425 -32.6001
   -32.5888 -32.5696 -28.2736 -28.2328 -28.1973 -28.1445 -28.0648 -28.0336
    -7.9408  -7.0770  -7.0160  -6.8577  -6.4405  -6.2804  -6.1106  -6.0292
     4.1773   4.4259   4.5560   4.6174   4.8637   5.0931   5.3274   5.5543
     6.1867   6.5338   6.8759   7.0003   7.2937   7.4781   7.5550   7.6526
     8.1227   8.2804   8.4566   8.7267   8.9146   9.0199   9.1232   9.2108
     9.5393   9.6628  13.7086  13.9637  14.3427  14.5276  14.6575  14.9947
    15.5671  16.1194  16.3268  16.8323  16.8965  17.0619  17.6378  17.7942
    18.2551

     occupation numbers 
     1.0000   1.0000   1.0000   1.0000   1.0000   1.0000   1.0000   1.0000
     1.0000   1.0000   1.0000   1.0000   1.0000   1.0000   1.0000   1.0000
     1.0000   1.0000   1.0000   1.0000   1.0000   1.0000   1.0000   1.0000
     1.0000   1.0000   1.0000   1.0000   1.0000   1.0000   1.0000   1.0000
     1.0000   1.0000   1.0000   1.0000   1.0000   1.0000   1.0000   1.0000
     1.0000   1.0000   1.0000   1.0000   1.0000   1.0000   1.0000   1.0000
     1.0000   1.0000   0.0000   0.0000   0.0000   0.0000   0.0000   0.0000
     0.0000   0.0000   0.0000   0.0000   0.0000   0.0000   0.0000   0.0000
     0.0000

          k = 0.2510 0.0682 0.3905 ( 19021 PWs)   bands (ev):

   -82.3116 -63.7842 -63.7623 -63.7294 -45.8286 -45.6392 -45.4425 -32.6002
   -32.5888 -32.5696 -28.2659 -28.2486 -28.1830 -28.1646 -28.0482 -28.0373
    -7.5877  -7.2655  -7.0563  -6.9526  -6.5028  -6.3443  -6.0594  -6.0122
     4.1161   4.2708   4.5294   4.7228   5.0314   5.2770   5.4879   5.6263
     6.3311   6.4606   6.6299   6.9224   7.0585   7.2346   7.4632   7.7052
     8.1788   8.3349   8.4680   8.7624   8.9156   8.9698   9.1806   9.3132
     9.5547   9.7057  13.8853  13.9382  14.2874  14.4932  14.6688  14.8206
    15.5417  16.0962  16.2411  16.8449  16.9674  17.0626  17.5333  17.8363
    18.2861

     occupation numbers 
     1.0000   1.0000   1.0000   1.0000   1.0000   1.0000   1.0000   1.0000
     1.0000   1.0000   1.0000   1.0000   1.0000   1.0000   1.0000   1.0000
     1.0000   1.0000   1.0000   1.0000   1.0000   1.0000   1.0000   1.0000
     1.0000   1.0000   1.0000   1.0000   1.0000   1.0000   1.0000   1.0000
     1.0000   1.0000   1.0000   1.0000   1.0000   1.0000   1.0000   1.0000
     1.0000   1.0000   1.0000   1.0000   1.0000   1.0000   1.0000   1.0000
     1.0000   1.0000   0.0000   0.0000   0.0000   0.0000   0.0000   0.0000
     0.0000   0.0000   0.0000   0.0000   0.0000   0.0000   0.0000   0.0000
     0.0000

          k = 0.2491 0.0682-0.3844 ( 19017 PWs)   bands (ev):

   -82.3116 -63.7842 -63.7622 -63.7293 -45.8286 -45.6392 -45.4425 -32.6002
   -32.5888 -32.5696 -28.2660 -28.2487 -28.1824 -28.1652 -28.0478 -28.0377
    -7.6417  -7.1726  -7.0092  -6.9054  -6.5453  -6.4745  -6.0671  -5.9799
     3.9934   4.2206   4.5451   4.7647   5.2951   5.3691   5.7225   5.7929
     6.0094   6.3907   6.6200   6.8360   6.9135   7.2595   7.4463   7.7133
     8.1107   8.4168   8.5414   8.6667   8.8010   8.9025   9.2228   9.3825
     9.4961   9.7952  13.7908  14.1039  14.1923  14.4575  14.5330  14.8342
    15.4954  16.0079  16.3502  16.9030  17.0041  17.0550  17.5423  17.9661
    18.3946

     occupation numbers 
     1.0000   1.0000   1.0000   1.0000   1.0000   1.0000   1.0000   1.0000
     1.0000   1.0000   1.0000   1.0000   1.0000   1.0000   1.0000   1.0000
     1.0000   1.0000   1.0000   1.0000   1.0000   1.0000   1.0000   1.0000
     1.0000   1.0000   1.0000   1.0000   1.0000   1.0000   1.0000   1.0000
     1.0000   1.0000   1.0000   1.0000   1.0000   1.0000   1.0000   1.0000
     1.0000   1.0000   1.0000   1.0000   1.0000   1.0000   1.0000   1.0000
     1.0000   1.0000   0.0000   0.0000   0.0000   0.0000   0.0000   0.0000
     0.0000   0.0000   0.0000   0.0000   0.0000   0.0000   0.0000   0.0000
     0.0000

          k = 0.2494 0.0682-0.2294 ( 19010 PWs)   bands (ev):

   -82.3116 -63.7842 -63.7625 -63.7290 -45.8286 -45.6392 -45.4425 -32.6002
   -32.5888 -32.5695 -28.2738 -28.2329 -28.1967 -28.1451 -28.0644 -28.0339
    -7.9668  -7.0321  -6.8086  -6.7281  -6.6423  -6.5165  -6.1129  -5.9743
     3.9931   4.1139   4.6756   4.9462   5.0327   5.2111   5.7975   5.9223
     6.0574   6.2838   6.6613   6.7542   7.2112   7.4181   7.5374   7.6172
     8.0068   8.2144   8.5656   8.6752   8.7699   8.9040   9.1599   9.3037
     9.5801   9.8005  13.7565  13.9807  14.1395  14.2760  14.7014  14.9478
    15.4829  16.0351  16.4461  16.8785  17.0136  17.0790  17.6000  18.0283
    18.2979

     occupation numbers 
     1.0000   1.0000   1.0000   1.0000   1.0000   1.0000   1.0000   1.0000
     1.0000   1.0000   1.0000   1.0000   1.0000   1.0000   1.0000   1.0000
     1.0000   1.0000   1.0000   1.0000   1.0000   1.0000   1.0000   1.0000
     1.0000   1.0000   1.0000   1.0000   1.0000   1.0000   1.0000   1.0000
     1.0000   1.0000   1.0000   1.0000   1.0000   1.0000   1.0000   1.0000
     1.0000   1.0000   1.0000   1.0000   1.0000   1.0000   1.0000   1.0000
     1.0000   1.0000   0.0000   0.0000   0.0000   0.0000   0.0000   0.0000
     0.0000   0.0000   0.0000   0.0000   0.0000   0.0000   0.0000   0.0000
     0.0000

          k = 0.2498 0.0682-0.0745 ( 19020 PWs)   bands (ev):

   -82.3116 -63.7842 -63.7629 -63.7288 -45.8286 -45.6392 -45.4425 -32.6001
   -32.5888 -32.5695 -28.2771 -28.2190 -28.2076 -28.1262 -28.0824 -28.0337
    -8.1480  -7.0261  -6.8104  -6.6787  -6.5948  -6.3627  -6.1073  -6.0233
     4.0134   4.1424   4.4184   4.7832   5.0956   5.5573   5.6397   5.9374
     6.1348   6.2942   6.4119   6.8914   7.1872   7.4069   7.6240   7.8142
     7.9985   8.2841   8.4738   8.6609   8.7613   8.9309   9.1567   9.2308
     9.6405   9.7400  13.7061  13.9412  14.0673  14.3835  14.7491  15.0152
    15.5133  16.1259  16.4870  16.8240  17.0010  17.0704  17.5952  17.9080
    18.1014

     occupation numbers 
     1.0000   1.0000   1.0000   1.0000   1.0000   1.0000   1.0000   1.0000
     1.0000   1.0000   1.0000   1.0000   1.0000   1.0000   1.0000   1.0000
     1.0000   1.0000   1.0000   1.0000   1.0000   1.0000   1.0000   1.0000
     1.0000   1.0000   1.0000   1.0000   1.0000   1.0000   1.0000   1.0000
     1.0000   1.0000   1.0000   1.0000   1.0000   1.0000   1.0000   1.0000
     1.0000   1.0000   1.0000   1.0000   1.0000   1.0000   1.0000   1.0000
     1.0000   1.0000   0.0000   0.0000   0.0000   0.0000   0.0000   0.0000
     0.0000   0.0000   0.0000   0.0000   0.0000   0.0000   0.0000   0.0000
     0.0000

          k = 0.2502 0.2045 0.0805 ( 19035 PWs)   bands (ev):

   -82.3116 -63.7842 -63.7629 -63.7289 -45.8286 -45.6392 -45.4425 -32.6001
   -32.5888 -32.5696 -28.2766 -28.2183 -28.2068 -28.1264 -28.0841 -28.0339
    -8.0536  -7.1166  -7.0168  -6.6524  -6.5129  -6.3049  -6.1126  -5.9808
     4.1098   4.3199   4.4242   4.7286   4.9550   5.3455   5.6953   5.8610
     6.0473   6.2075   6.8449   6.9082   7.0893   7.4426   7.6310   7.8326
     8.0704   8.2713   8.4948   8.6189   8.7639   8.9737   9.1116   9.2026
     9.3600   9.6703  13.6509  14.0321  14.1883  14.5682  14.7315  15.1101
    15.5508  16.0860  16.4505  16.8378  16.9353  17.0755  17.7266  17.9034
    18.0992

     occupation numbers 
     1.0000   1.0000   1.0000   1.0000   1.0000   1.0000   1.0000   1.0000
     1.0000   1.0000   1.0000   1.0000   1.0000   1.0000   1.0000   1.0000
     1.0000   1.0000   1.0000   1.0000   1.0000   1.0000   1.0000   1.0000
     1.0000   1.0000   1.0000   1.0000   1.0000   1.0000   1.0000   1.0000
     1.0000   1.0000   1.0000   1.0000   1.0000   1.0000   1.0000   1.0000
     1.0000   1.0000   1.0000   1.0000   1.0000   1.0000   1.0000   1.0000
     1.0000   1.0000   0.0000   0.0000   0.0000   0.0000   0.0000   0.0000
     0.0000   0.0000   0.0000   0.0000   0.0000   0.0000   0.0000   0.0000
     0.0000

          k = 0.2506 0.2045 0.2355 ( 19019 PWs)   bands (ev):

   -82.3116 -63.7842 -63.7626 -63.7292 -45.8286 -45.6392 -45.4425 -32.6001
   -32.5888 -32.5696 -28.2741 -28.2330 -28.1964 -28.1452 -28.0650 -28.0332
    -7.8748  -7.1904  -7.0396  -6.7558  -6.4284  -6.2990  -6.1951  -5.9835
     4.0777   4.3031   4.6735   4.7394   4.8970   5.1551   5.5377   5.8937
     5.9987   6.3487   6.8256   6.9592   7.2755   7.4216   7.5529   7.7811
     8.0881   8.2231   8.4576   8.6568   8.8725   8.9684   9.0673   9.1299
     9.4155   9.6307  13.7043  14.0994  14.3668  14.5466  14.5978  15.0806
    15.5420  16.1069  16.3243  16.8377  16.9493  17.0575  17.7076  17.8392
    18.2442

     occupation numbers 
     1.0000   1.0000   1.0000   1.0000   1.0000   1.0000   1.0000   1.0000
     1.0000   1.0000   1.0000   1.0000   1.0000   1.0000   1.0000   1.0000
     1.0000   1.0000   1.0000   1.0000   1.0000   1.0000   1.0000   1.0000
     1.0000   1.0000   1.0000   1.0000   1.0000   1.0000   1.0000   1.0000
     1.0000   1.0000   1.0000   1.0000   1.0000   1.0000   1.0000   1.0000
     1.0000   1.0000   1.0000   1.0000   1.0000   1.0000   1.0000   1.0000
     1.0000   1.0000   0.0000   0.0000   0.0000   0.0000   0.0000   0.0000
     0.0000   0.0000   0.0000   0.0000   0.0000   0.0000   0.0000   0.0000
     0.0000

          k = 0.2510 0.2045 0.3905 ( 19034 PWs)   bands (ev):

   -82.3115 -63.7842 -63.7622 -63.7294 -45.8286 -45.6392 -45.4425 -32.6002
   -32.5888 -32.5696 -28.2671 -28.2496 -28.1826 -28.1648 -28.0473 -28.0363
    -7.5628  -7.3091  -7.0571  -6.8855  -6.4905  -6.3592  -6.0954  -6.0351
     4.0465   4.3340   4.5139   4.7717   4.9486   5.3713   5.6268   5.9724
     6.1371   6.4522   6.5413   6.9192   7.1915   7.3364   7.4114   7.6428
     8.1357   8.2610   8.4177   8.7157   8.7929   8.9571   9.1068   9.2236
     9.4111   9.7164  13.8528  14.0622  14.3427  14.4688  14.6147  14.8936
    15.5106  16.1250  16.2393  16.8152  17.0181  17.0453  17.6578  17.8022
    18.3357

     occupation numbers 
     1.0000   1.0000   1.0000   1.0000   1.0000   1.0000   1.0000   1.0000
     1.0000   1.0000   1.0000   1.0000   1.0000   1.0000   1.0000   1.0000
     1.0000   1.0000   1.0000   1.0000   1.0000   1.0000   1.0000   1.0000
     1.0000   1.0000   1.0000   1.0000   1.0000   1.0000   1.0000   1.0000
     1.0000   1.0000   1.0000   1.0000   1.0000   1.0000   1.0000   1.0000
     1.0000   1.0000   1.0000   1.0000   1.0000   1.0000   1.0000   1.0000
     1.0000   1.0000   0.0000   0.0000   0.0000   0.0000   0.0000   0.0000
     0.0000   0.0000   0.0000   0.0000   0.0000   0.0000   0.0000   0.0000
     0.0000

          k = 0.2491 0.2045-0.3844 ( 19025 PWs)   bands (ev):

   -82.3115 -63.7842 -63.7621 -63.7293 -45.8286 -45.6392 -45.4425 -32.6002
   -32.5888 -32.5696 -28.2671 -28.2496 -28.1821 -28.1654 -28.0470 -28.0366
    -7.5920  -7.2101  -7.0722  -6.8436  -6.5548  -6.4164  -6.1653  -5.9537
     4.0404   4.3260   4.5024   4.7751   5.1516   5.3604   5.6824   5.8848
     6.1484   6.4670   6.6882   6.8407   6.9275   7.2994   7.4984   7.7350
     8.0421   8.3074   8.4422   8.5548   8.7986   8.9338   9.0992   9.2228
     9.4254   9.8200  13.8125  14.0784  14.2647  14.4671  14.5863  14.7586
    15.4958  16.0182  16.3593  16.8452  17.0050  17.0741  17.6362  17.9115
    18.4735

     occupation numbers 
     1.0000   1.0000   1.0000   1.0000   1.0000   1.0000   1.0000   1.0000
     1.0000   1.0000   1.0000   1.0000   1.0000   1.0000   1.0000   1.0000
     1.0000   1.0000   1.0000   1.0000   1.0000   1.0000   1.0000   1.0000
     1.0000   1.0000   1.0000   1.0000   1.0000   1.0000   1.0000   1.0000
     1.0000   1.0000   1.0000   1.0000   1.0000   1.0000   1.0000   1.0000
     1.0000   1.0000   1.0000   1.0000   1.0000   1.0000   1.0000   1.0000
     1.0000   1.0000   0.0000   0.0000   0.0000   0.0000   0.0000   0.0000
     0.0000   0.0000   0.0000   0.0000   0.0000   0.0000   0.0000   0.0000
     0.0000

          k = 0.2494 0.2045-0.2294 ( 19023 PWs)   bands (ev):

   -82.3116 -63.7842 -63.7625 -63.7291 -45.8286 -45.6392 -45.4425 -32.6002
   -32.5888 -32.5695 -28.2741 -28.2331 -28.1960 -28.1458 -28.0647 -28.0334
    -7.8841  -7.0992  -6.9186  -6.7238  -6.6330  -6.4503  -6.1604  -5.9235
     4.0597   4.2843   4.5819   4.8546   5.1215   5.2485   5.5652   5.9610
     6.1447   6.3638   6.5159   6.9260   7.1760   7.3686   7.6288   7.7708
     8.0307   8.2151   8.3918   8.5329   8.7843   8.9227   9.0712   9.1847
     9.5033   9.7801  13.6598  14.0532  14.2516  14.3472  14.6892  14.8733
    15.5070  15.9947  16.4516  16.8395  17.0012  17.1083  17.6226  18.0210
    18.5069

     occupation numbers 
     1.0000   1.0000   1.0000   1.0000   1.0000   1.0000   1.0000   1.0000
     1.0000   1.0000   1.0000   1.0000   1.0000   1.0000   1.0000   1.0000
     1.0000   1.0000   1.0000   1.0000   1.0000   1.0000   1.0000   1.0000
     1.0000   1.0000   1.0000   1.0000   1.0000   1.0000   1.0000   1.0000
     1.0000   1.0000   1.0000   1.0000   1.0000   1.0000   1.0000   1.0000
     1.0000   1.0000   1.0000   1.0000   1.0000   1.0000   1.0000   1.0000
     1.0000   1.0000   0.0000   0.0000   0.0000   0.0000   0.0000   0.0000
     0.0000   0.0000   0.0000   0.0000   0.0000   0.0000   0.0000   0.0000
     0.0000

          k = 0.2498 0.2045-0.0745 ( 19031 PWs)   bands (ev):

   -82.3116 -63.7842 -63.7628 -63.7288 -45.8286 -45.6392 -45.4425 -32.6001
   -32.5888 -32.5695 -28.2766 -28.2184 -28.2065 -28.1268 -28.0838 -28.0341
    -8.0558  -7.1069  -6.8577  -6.7065  -6.6479  -6.3309  -6.0948  -5.9631
     4.0898   4.2664   4.4622   4.8531   4.9687   5.4146   5.5199   5.9740
     6.2917   6.3938   6.5217   6.7702   7.0415   7.4605   7.6074   7.8266
     8.0942   8.3141   8.3440   8.6288   8.7331   8.8912   9.0816   9.2359
     9.5702   9.6448  13.6283  14.0481  14.0786  14.4729  14.7750  15.0199
    15.5289  16.0511  16.4869  16.8107  17.0005  17.0945  17.6512  18.0047
    18.2623

     occupation numbers 
     1.0000   1.0000   1.0000   1.0000   1.0000   1.0000   1.0000   1.0000
     1.0000   1.0000   1.0000   1.0000   1.0000   1.0000   1.0000   1.0000
     1.0000   1.0000   1.0000   1.0000   1.0000   1.0000   1.0000   1.0000
     1.0000   1.0000   1.0000   1.0000   1.0000   1.0000   1.0000   1.0000
     1.0000   1.0000   1.0000   1.0000   1.0000   1.0000   1.0000   1.0000
     1.0000   1.0000   1.0000   1.0000   1.0000   1.0000   1.0000   1.0000
     1.0000   1.0000   0.0000   0.0000   0.0000   0.0000   0.0000   0.0000
     0.0000   0.0000   0.0000   0.0000   0.0000   0.0000   0.0000   0.0000
     0.0000

          k = 0.2502 0.3409 0.0805 ( 19006 PWs)   bands (ev):

   -82.3116 -63.7842 -63.7629 -63.7289 -45.8286 -45.6392 -45.4424 -32.6001
   -32.5888 -32.5696 -28.2761 -28.2178 -28.2055 -28.1270 -28.0855 -28.0343
    -7.9397  -7.2760  -6.9990  -6.6292  -6.5620  -6.3326  -6.0835  -5.9423
     4.0471   4.3556   4.5548   4.7642   5.1401   5.3182   5.5677   5.7701
     6.2677   6.4135   6.6238   6.7565   7.1936   7.2857   7.7697   7.8801
     8.0016   8.0959   8.4120   8.5912   8.7763   8.9227   9.1271   9.2133
     9.3315   9.5512  13.6564  14.1151  14.2135  14.4601  14.9307  15.1011
    15.5354  16.0301  16.4527  16.8501  16.9630  17.0977  17.7160  18.0277
    18.2442

     occupation numbers 
     1.0000   1.0000   1.0000   1.0000   1.0000   1.0000   1.0000   1.0000
     1.0000   1.0000   1.0000   1.0000   1.0000   1.0000   1.0000   1.0000
     1.0000   1.0000   1.0000   1.0000   1.0000   1.0000   1.0000   1.0000
     1.0000   1.0000   1.0000   1.0000   1.0000   1.0000   1.0000   1.0000
     1.0000   1.0000   1.0000   1.0000   1.0000   1.0000   1.0000   1.0000
     1.0000   1.0000   1.0000   1.0000   1.0000   1.0000   1.0000   1.0000
     1.0000   1.0000   0.0000   0.0000   0.0000   0.0000   0.0000   0.0000
     0.0000   0.0000   0.0000   0.0000   0.0000   0.0000   0.0000   0.0000
     0.0000

          k = 0.2506 0.3409 0.2355 ( 19020 PWs)   bands (ev):

   -82.3116 -63.7842 -63.7626 -63.7291 -45.8286 -45.6392 -45.4425 -32.6001
   -32.5888 -32.5696 -28.2744 -28.2333 -28.1955 -28.1459 -28.0651 -28.0327
    -7.7888  -7.3213  -7.0075  -6.7063  -6.4298  -6.3187  -6.2542  -5.9543
     3.9865   4.1936   4.7563   4.8593   4.9974   5.3717   5.7037   5.9345
     6.0548   6.3337   6.5784   6.8804   7.0781   7.3586   7.6860   7.8805
     7.9786   8.3169   8.4368   8.6757   8.7333   8.8589   8.9550   9.1674
     9.3269   9.5632  13.7050  14.2120  14.3883  14.4803  14.7079  15.0802
    15.5094  16.0955  16.3530  16.8739  16.9698  17.0531  17.7405  17.8766
    18.1400

     occupation numbers 
     1.0000   1.0000   1.0000   1.0000   1.0000   1.0000   1.0000   1.0000
     1.0000   1.0000   1.0000   1.0000   1.0000   1.0000   1.0000   1.0000
     1.0000   1.0000   1.0000   1.0000   1.0000   1.0000   1.0000   1.0000
     1.0000   1.0000   1.0000   1.0000   1.0000   1.0000   1.0000   1.0000
     1.0000   1.0000   1.0000   1.0000   1.0000   1.0000   1.0000   1.0000
     1.0000   1.0000   1.0000   1.0000   1.0000   1.0000   1.0000   1.0000
     1.0000   1.0000   0.0000   0.0000   0.0000   0.0000   0.0000   0.0000
     0.0000   0.0000   0.0000   0.0000   0.0000   0.0000   0.0000   0.0000
     0.0000

          k = 0.2510 0.3409 0.3905 ( 19033 PWs)   bands (ev):

   -82.3115 -63.7842 -63.7622 -63.7294 -45.8286 -45.6392 -45.4425 -32.6002
   -32.5888 -32.5696 -28.2682 -28.2505 -28.1822 -28.1651 -28.0464 -28.0353
    -7.5271  -7.3802  -6.9723  -6.8724  -6.4757  -6.4167  -6.1056  -6.0586
     4.0083   4.2004   4.6454   4.8099   5.0046   5.5442   5.7983   6.0065
     6.2167   6.3337   6.5701   6.7466   7.1928   7.3397   7.4763   7.5908
     8.1685   8.3064   8.3828   8.4801   8.7350   8.9515   9.0224   9.1457
     9.3015   9.6949  13.7963  14.2289  14.3744  14.4657  14.5761  14.9138
    15.4821  16.1661  16.2503  16.8318  16.9847  17.0655  17.7451  17.8005
    18.1145

     occupation numbers 
     1.0000   1.0000   1.0000   1.0000   1.0000   1.0000   1.0000   1.0000
     1.0000   1.0000   1.0000   1.0000   1.0000   1.0000   1.0000   1.0000
     1.0000   1.0000   1.0000   1.0000   1.0000   1.0000   1.0000   1.0000
     1.0000   1.0000   1.0000   1.0000   1.0000   1.0000   1.0000   1.0000
     1.0000   1.0000   1.0000   1.0000   1.0000   1.0000   1.0000   1.0000
     1.0000   1.0000   1.0000   1.0000   1.0000   1.0000   1.0000   1.0000
     1.0000   1.0000   0.0000   0.0000   0.0000   0.0000   0.0000   0.0000
     0.0000   0.0000   0.0000   0.0000   0.0000   0.0000   0.0000   0.0000
     0.0000

          k = 0.2491 0.3409-0.3844 ( 19014 PWs)   bands (ev):

   -82.3115 -63.7842 -63.7621 -63.7294 -45.8286 -45.6392 -45.4425 -32.6002
   -32.5888 -32.5696 -28.2681 -28.2506 -28.1818 -28.1656 -28.0462 -28.0355
    -7.5429  -7.2382  -7.0767  -6.8730  -6.5159  -6.3725  -6.2550  -5.9458
     4.0731   4.2938   4.6389   4.7701   5.0339   5.4377   5.6621   6.0106
     6.2016   6.4954   6.6615   6.8044   6.9698   7.3270   7.4712   7.8603
     8.0249   8.2680   8.4206   8.4752   8.7698   8.8250   8.9120   9.1165
     9.3790   9.8278  13.8597  13.9935  14.3629  14.4500  14.6472  14.7070
    15.4965  16.0428  16.3632  16.8499  16.9920  17.0507  17.6966  17.8735
    18.2969

     occupation numbers 
     1.0000   1.0000   1.0000   1.0000   1.0000   1.0000   1.0000   1.0000
     1.0000   1.0000   1.0000   1.0000   1.0000   1.0000   1.0000   1.0000
     1.0000   1.0000   1.0000   1.0000   1.0000   1.0000   1.0000   1.0000
     1.0000   1.0000   1.0000   1.0000   1.0000   1.0000   1.0000   1.0000
     1.0000   1.0000   1.0000   1.0000   1.0000   1.0000   1.0000   1.0000
     1.0000   1.0000   1.0000   1.0000   1.0000   1.0000   1.0000   1.0000
     1.0000   1.0000   0.0000   0.0000   0.0000   0.0000   0.0000   0.0000
     0.0000   0.0000   0.0000   0.0000   0.0000   0.0000   0.0000   0.0000
     0.0000

          k = 0.2494 0.3409-0.2294 ( 19002 PWs)   bands (ev):

   -82.3116 -63.7842 -63.7624 -63.7291 -45.8286 -45.6392 -45.4425 -32.6002
   -32.5888 -32.5695 -28.2743 -28.2333 -28.1953 -28.1465 -28.0648 -28.0330
    -7.7771  -7.1878  -6.9927  -6.7687  -6.5959  -6.4143  -6.1742  -5.8930
     4.1614   4.3131   4.5961   4.9363   5.0455   5.2862   5.5288   5.8814
     6.1343   6.3513   6.5691   6.9803   7.0901   7.3971   7.7237   7.8738
     8.0648   8.1904   8.3565   8.5481   8.6927   8.8385   8.9455   9.0318
     9.4596   9.7757  13.6072  14.1358  14.3071  14.4100  14.6439  14.8371
    15.5320  15.9695  16.4252  16.8742  16.9826  17.0973  17.6204  17.9908
    18.6249

     occupation numbers 
     1.0000   1.0000   1.0000   1.0000   1.0000   1.0000   1.0000   1.0000
     1.0000   1.0000   1.0000   1.0000   1.0000   1.0000   1.0000   1.0000
     1.0000   1.0000   1.0000   1.0000   1.0000   1.0000   1.0000   1.0000
     1.0000   1.0000   1.0000   1.0000   1.0000   1.0000   1.0000   1.0000
     1.0000   1.0000   1.0000   1.0000   1.0000   1.0000   1.0000   1.0000
     1.0000   1.0000   1.0000   1.0000   1.0000   1.0000   1.0000   1.0000
     1.0000   1.0000   0.0000   0.0000   0.0000   0.0000   0.0000   0.0000
     0.0000   0.0000   0.0000   0.0000   0.0000   0.0000   0.0000   0.0000
     0.0000

          k = 0.2498 0.3409-0.0745 ( 19015 PWs)   bands (ev):

   -82.3116 -63.7842 -63.7628 -63.7289 -45.8286 -45.6392 -45.4424 -32.6001
   -32.5888 -32.5696 -28.2761 -28.2178 -28.2054 -28.1274 -28.0852 -28.0345
    -7.9337  -7.2454  -6.8474  -6.7824  -6.6625  -6.3215  -6.0593  -5.9233
     4.1227   4.4255   4.5411   4.7860   5.0287   5.3632   5.4869   5.7580
     6.3522   6.4134   6.5647   6.9066   7.0543   7.4246   7.6298   7.8725
     8.0140   8.0903   8.4193   8.6144   8.7138   8.8342   9.0736   9.2239
     9.5016   9.5654  13.5678  14.1023  14.2141  14.4224  14.8776  14.9967
    15.5382  15.9834  16.4580  16.8311  17.0043  17.1130  17.6353  18.0690
    18.5266

     occupation numbers 
     1.0000   1.0000   1.0000   1.0000   1.0000   1.0000   1.0000   1.0000
     1.0000   1.0000   1.0000   1.0000   1.0000   1.0000   1.0000   1.0000
     1.0000   1.0000   1.0000   1.0000   1.0000   1.0000   1.0000   1.0000
     1.0000   1.0000   1.0000   1.0000   1.0000   1.0000   1.0000   1.0000
     1.0000   1.0000   1.0000   1.0000   1.0000   1.0000   1.0000   1.0000
     1.0000   1.0000   1.0000   1.0000   1.0000   1.0000   1.0000   1.0000
     1.0000   1.0000   0.0000   0.0000   0.0000   0.0000   0.0000   0.0000
     0.0000   0.0000   0.0000   0.0000   0.0000   0.0000   0.0000   0.0000
     0.0000

          k = 0.4169 0.0682 0.0826 ( 19055 PWs)   bands (ev):

   -82.3116 -63.7842 -63.7630 -63.7289 -45.8286 -45.6392 -45.4425 -32.6001
   -32.5887 -32.5696 -28.2769 -28.2194 -28.2083 -28.1268 -28.0825 -28.0337
    -7.9579  -7.0767  -7.0069  -6.7524  -6.4732  -6.2472  -6.2173  -6.0392
     4.1148   4.3327   4.4244   4.9786   5.0784   5.3491   5.4582   5.6342
     5.9308   6.1148   6.5415   7.1344   7.3806   7.5347   7.6794   7.8535
     7.9681   8.3070   8.5685   8.6596   8.7861   8.8504   8.9589   9.2720
     9.5314   9.7898  13.7442  14.0315  14.1779  14.5114  14.6896  15.0886
    15.4201  16.2134  16.4086  16.8640  16.9206  17.0441  17.8128  17.9421
    18.3068

     occupation numbers 
     1.0000   1.0000   1.0000   1.0000   1.0000   1.0000   1.0000   1.0000
     1.0000   1.0000   1.0000   1.0000   1.0000   1.0000   1.0000   1.0000
     1.0000   1.0000   1.0000   1.0000   1.0000   1.0000   1.0000   1.0000
     1.0000   1.0000   1.0000   1.0000   1.0000   1.0000   1.0000   1.0000
     1.0000   1.0000   1.0000   1.0000   1.0000   1.0000   1.0000   1.0000
     1.0000   1.0000   1.0000   1.0000   1.0000   1.0000   1.0000   1.0000
     1.0000   1.0000   0.0000   0.0000   0.0000   0.0000   0.0000   0.0000
     0.0000   0.0000   0.0000   0.0000   0.0000   0.0000   0.0000   0.0000
     0.0000

          k = 0.4172 0.0682 0.2376 ( 19045 PWs)   bands (ev):

   -82.3116 -63.7842 -63.7626 -63.7291 -45.8286 -45.6392 -45.4425 -32.6002
   -32.5887 -32.5697 -28.2736 -28.2331 -28.1978 -28.1453 -28.0647 -28.0338
    -7.7752  -7.1074  -6.9788  -6.8461  -6.6271  -6.3222  -6.0844  -6.0386
     4.1084   4.3905   4.6870   4.8347   4.9160   5.1111   5.3612   5.5279
     6.0167   6.4650   6.7164   7.0625   7.3597   7.4171   7.5839   7.6293
     8.0502   8.4493   8.5437   8.6973   8.9054   8.9551   9.0663   9.1528
     9.5810   9.7088  13.7114  13.9165  14.2926  14.5572  14.7156  15.0559
    15.4393  16.1976  16.3604  16.8657  16.9048  17.0469  17.6774  17.9130
    18.2573

     occupation numbers 
     1.0000   1.0000   1.0000   1.0000   1.0000   1.0000   1.0000   1.0000
     1.0000   1.0000   1.0000   1.0000   1.0000   1.0000   1.0000   1.0000
     1.0000   1.0000   1.0000   1.0000   1.0000   1.0000   1.0000   1.0000
     1.0000   1.0000   1.0000   1.0000   1.0000   1.0000   1.0000   1.0000
     1.0000   1.0000   1.0000   1.0000   1.0000   1.0000   1.0000   1.0000
     1.0000   1.0000   1.0000   1.0000   1.0000   1.0000   1.0000   1.0000
     1.0000   1.0000   0.0000   0.0000   0.0000   0.0000   0.0000   0.0000
     0.0000   0.0000   0.0000   0.0000   0.0000   0.0000   0.0000   0.0000
     0.0000

          k = 0.4176 0.0682 0.3926 ( 19030 PWs)   bands (ev):

   -82.3116 -63.7842 -63.7622 -63.7292 -45.8286 -45.6392 -45.4425 -32.6003
   -32.5887 -32.5697 -28.2659 -28.2488 -28.1835 -28.1654 -28.0481 -28.0375
    -7.4603  -7.1648  -7.0527  -6.9201  -6.7075  -6.4811  -6.0150  -5.9935
     4.1733   4.3350   4.4431   4.5402   5.0587   5.4624   5.5928   5.7300
     6.1341   6.5093   6.5774   6.8254   7.0082   7.2009   7.5233   7.6384
     8.1555   8.4733   8.6216   8.7708   8.9599   9.0200   9.1580   9.1957
     9.5490   9.7027  13.7622  13.7958  14.3628  14.5555  14.7554  14.9043
    15.4444  16.1977  16.3366  16.8818  16.9701  17.0089  17.6020  17.8911
    18.1618

     occupation numbers 
     1.0000   1.0000   1.0000   1.0000   1.0000   1.0000   1.0000   1.0000
     1.0000   1.0000   1.0000   1.0000   1.0000   1.0000   1.0000   1.0000
     1.0000   1.0000   1.0000   1.0000   1.0000   1.0000   1.0000   1.0000
     1.0000   1.0000   1.0000   1.0000   1.0000   1.0000   1.0000   1.0000
     1.0000   1.0000   1.0000   1.0000   1.0000   1.0000   1.0000   1.0000
     1.0000   1.0000   1.0000   1.0000   1.0000   1.0000   1.0000   1.0000
     1.0000   1.0000   0.0000   0.0000   0.0000   0.0000   0.0000   0.0000
     0.0000   0.0000   0.0000   0.0000   0.0000   0.0000   0.0000   0.0000
     0.0000

          k = 0.4157 0.0682-0.3824 ( 19032 PWs)   bands (ev):

   -82.3116 -63.7842 -63.7622 -63.7292 -45.8286 -45.6392 -45.4425 -32.6003
   -32.5887 -32.5697 -28.2659 -28.2488 -28.1832 -28.1657 -28.0479 -28.0376
    -7.4928  -7.1461  -6.9637  -6.9195  -6.6587  -6.6183  -6.0214  -5.9818
     4.0986   4.2581   4.4504   4.6009   5.3457   5.4700   5.7266   5.7726
     5.9326   6.3863   6.5667   6.8177   7.0072   7.1559   7.5685   7.6303
     8.1344   8.4780   8.6120   8.7547   8.8509   8.9957   9.1818   9.2846
     9.5015   9.7671  13.7088  13.8803  14.2896  14.5409  14.6709  14.9510
    15.4211  16.1584  16.4043  16.9149  16.9515  17.0088  17.7005  17.9034
    18.1492

     occupation numbers 
     1.0000   1.0000   1.0000   1.0000   1.0000   1.0000   1.0000   1.0000
     1.0000   1.0000   1.0000   1.0000   1.0000   1.0000   1.0000   1.0000
     1.0000   1.0000   1.0000   1.0000   1.0000   1.0000   1.0000   1.0000
     1.0000   1.0000   1.0000   1.0000   1.0000   1.0000   1.0000   1.0000
     1.0000   1.0000   1.0000   1.0000   1.0000   1.0000   1.0000   1.0000
     1.0000   1.0000   1.0000   1.0000   1.0000   1.0000   1.0000   1.0000
     1.0000   1.0000   0.0000   0.0000   0.0000   0.0000   0.0000   0.0000
     0.0000   0.0000   0.0000   0.0000   0.0000   0.0000   0.0000   0.0000
     0.0000

          k = 0.4161 0.0682-0.2274 ( 19051 PWs)   bands (ev):

   -82.3116 -63.7842 -63.7626 -63.7290 -45.8286 -45.6392 -45.4425 -32.6002
   -32.5887 -32.5696 -28.2737 -28.2331 -28.1976 -28.1456 -28.0645 -28.0339
    -7.7932  -7.0864  -6.8474  -6.7769  -6.7442  -6.4390  -6.0828  -6.0247
     4.0371   4.2267   4.5791   5.0552   5.1019   5.3035   5.5601   5.6685
     5.9040   6.3798   6.5367   6.8957   7.3192   7.4219   7.5418   7.7057
     7.9742   8.3486   8.5719   8.7378   8.8240   8.9084   9.0793   9.2177
     9.6034   9.7824  13.7465  13.9821  14.0873  14.4553  14.7066  15.0507
    15.4039  16.1897  16.4258  16.8867  16.9137  17.0755  17.7965  17.9159
    18.2974

     occupation numbers 
     1.0000   1.0000   1.0000   1.0000   1.0000   1.0000   1.0000   1.0000
     1.0000   1.0000   1.0000   1.0000   1.0000   1.0000   1.0000   1.0000
     1.0000   1.0000   1.0000   1.0000   1.0000   1.0000   1.0000   1.0000
     1.0000   1.0000   1.0000   1.0000   1.0000   1.0000   1.0000   1.0000
     1.0000   1.0000   1.0000   1.0000   1.0000   1.0000   1.0000   1.0000
     1.0000   1.0000   1.0000   1.0000   1.0000   1.0000   1.0000   1.0000
     1.0000   1.0000   0.0000   0.0000   0.0000   0.0000   0.0000   0.0000
     0.0000   0.0000   0.0000   0.0000   0.0000   0.0000   0.0000   0.0000
     0.0000

          k = 0.4165 0.0682-0.0724 ( 19067 PWs)   bands (ev):

   -82.3116 -63.7842 -63.7630 -63.7288 -45.8286 -45.6392 -45.4425 -32.6001
   -32.5887 -32.5696 -28.2769 -28.2196 -28.2081 -28.1269 -28.0824 -28.0337
    -7.9634  -7.0714  -6.9576  -6.7339  -6.5380  -6.2803  -6.1858  -6.0477
     4.0922   4.2560   4.3887   5.0325   5.3113   5.3886   5.4708   5.6471
     6.0102   6.1300   6.3874   7.0432   7.3367   7.5458   7.6380   7.7891
     7.9994   8.2472   8.6261   8.6382   8.7282   8.8869   9.0190   9.1993
     9.6552   9.7620  13.8595  13.9336  14.1003  14.4488  14.6958  15.0758
    15.4097  16.2379  16.4137  16.8722  16.9204  17.0728  17.8373  17.9313
    18.3965

     occupation numbers 
     1.0000   1.0000   1.0000   1.0000   1.0000   1.0000   1.0000   1.0000
     1.0000   1.0000   1.0000   1.0000   1.0000   1.0000   1.0000   1.0000
     1.0000   1.0000   1.0000   1.0000   1.0000   1.0000   1.0000   1.0000
     1.0000   1.0000   1.0000   1.0000   1.0000   1.0000   1.0000   1.0000
     1.0000   1.0000   1.0000   1.0000   1.0000   1.0000   1.0000   1.0000
     1.0000   1.0000   1.0000   1.0000   1.0000   1.0000   1.0000   1.0000
     1.0000   1.0000   0.0000   0.0000   0.0000   0.0000   0.0000   0.0000
     0.0000   0.0000   0.0000   0.0000   0.0000   0.0000   0.0000   0.0000
     0.0000

          k = 0.4169 0.2045 0.0826 ( 19018 PWs)   bands (ev):

   -82.3116 -63.7842 -63.7628 -63.7289 -45.8286 -45.6392 -45.4425 -32.6001
   -32.5888 -32.5696 -28.2765 -28.2190 -28.2071 -28.1273 -28.0839 -28.0341
    -7.8938  -7.1455  -7.0472  -6.6807  -6.5245  -6.2731  -6.1944  -6.0219
     3.9247   4.3360   4.5610   5.0551   5.1692   5.3288   5.5054   5.7139
     6.0356   6.1718   6.8733   6.9600   7.2038   7.4224   7.6039   7.6889
     7.9387   8.2351   8.5665   8.6294   8.8018   8.8576   8.9630   9.2300
     9.5034   9.7273  13.7281  14.0194  14.1840  14.5580  14.6462  15.2346
    15.4520  16.1491  16.3947  16.8681  16.9020  17.0600  17.7663  17.9523
    18.3401

     occupation numbers 
     1.0000   1.0000   1.0000   1.0000   1.0000   1.0000   1.0000   1.0000
     1.0000   1.0000   1.0000   1.0000   1.0000   1.0000   1.0000   1.0000
     1.0000   1.0000   1.0000   1.0000   1.0000   1.0000   1.0000   1.0000
     1.0000   1.0000   1.0000   1.0000   1.0000   1.0000   1.0000   1.0000
     1.0000   1.0000   1.0000   1.0000   1.0000   1.0000   1.0000   1.0000
     1.0000   1.0000   1.0000   1.0000   1.0000   1.0000   1.0000   1.0000
     1.0000   1.0000   0.0000   0.0000   0.0000   0.0000   0.0000   0.0000
     0.0000   0.0000   0.0000   0.0000   0.0000   0.0000   0.0000   0.0000
     0.0000

          k = 0.4172 0.2045 0.2376 ( 19030 PWs)   bands (ev):

   -82.3116 -63.7842 -63.7625 -63.7291 -45.8286 -45.6392 -45.4425 -32.6002
   -32.5888 -32.5697 -28.2741 -28.2332 -28.1970 -28.1460 -28.0649 -28.0333
    -7.7297  -7.2105  -6.9942  -6.7810  -6.5707  -6.3271  -6.1415  -6.0338
     3.9460   4.4288   4.6045   4.8938   4.9632   5.2713   5.4890   5.6447
     6.1263   6.3850   6.7545   7.0273   7.2840   7.3729   7.5576   7.7641
     8.0720   8.2492   8.4453   8.7436   8.8250   8.9220   9.0038   9.1169
     9.5023   9.6606  13.7033  14.0095  14.3096  14.5381  14.5863  15.1661
    15.4583  16.1646  16.3440  16.8007  16.9272  17.0526  17.7134  17.8786
    18.2534

     occupation numbers 
     1.0000   1.0000   1.0000   1.0000   1.0000   1.0000   1.0000   1.0000
     1.0000   1.0000   1.0000   1.0000   1.0000   1.0000   1.0000   1.0000
     1.0000   1.0000   1.0000   1.0000   1.0000   1.0000   1.0000   1.0000
     1.0000   1.0000   1.0000   1.0000   1.0000   1.0000   1.0000   1.0000
     1.0000   1.0000   1.0000   1.0000   1.0000   1.0000   1.0000   1.0000
     1.0000   1.0000   1.0000   1.0000   1.0000   1.0000   1.0000   1.0000
     1.0000   1.0000   0.0000   0.0000   0.0000   0.0000   0.0000   0.0000
     0.0000   0.0000   0.0000   0.0000   0.0000   0.0000   0.0000   0.0000
     0.0000

          k = 0.4176 0.2045 0.3926 ( 19051 PWs)   bands (ev):

   -82.3115 -63.7842 -63.7621 -63.7292 -45.8286 -45.6392 -45.4425 -32.6003
   -32.5887 -32.5697 -28.2670 -28.2497 -28.1832 -28.1657 -28.0472 -28.0364
    -7.4536  -7.2551  -7.0278  -6.9152  -6.6029  -6.4387  -6.0684  -6.0397
     4.0541   4.4204   4.4439   4.6173   4.9224   5.4273   5.6703   5.8307
     6.2831   6.4592   6.6062   6.9396   7.0798   7.2675   7.5830   7.6455
     8.1879   8.3133   8.4482   8.7149   8.8904   8.9490   9.0943   9.1745
     9.4447   9.6555  13.7958  13.8937  14.3157  14.4375  14.7077  14.9671
    15.4405  16.1845  16.3267  16.7923  16.9357  16.9983  17.6597  17.8243
    18.2959

     occupation numbers 
     1.0000   1.0000   1.0000   1.0000   1.0000   1.0000   1.0000   1.0000
     1.0000   1.0000   1.0000   1.0000   1.0000   1.0000   1.0000   1.0000
     1.0000   1.0000   1.0000   1.0000   1.0000   1.0000   1.0000   1.0000
     1.0000   1.0000   1.0000   1.0000   1.0000   1.0000   1.0000   1.0000
     1.0000   1.0000   1.0000   1.0000   1.0000   1.0000   1.0000   1.0000
     1.0000   1.0000   1.0000   1.0000   1.0000   1.0000   1.0000   1.0000
     1.0000   1.0000   0.0000   0.0000   0.0000   0.0000   0.0000   0.0000
     0.0000   0.0000   0.0000   0.0000   0.0000   0.0000   0.0000   0.0000
     0.0000

          k = 0.4157 0.2045-0.3824 ( 19017 PWs)   bands (ev):

   -82.3115 -63.7842 -63.7621 -63.7292 -45.8286 -45.6392 -45.4425 -32.6003
   -32.5887 -32.5697 -28.2670 -28.2497 -28.1830 -28.1660 -28.0471 -28.0365
    -7.4711  -7.2133  -7.0120  -6.9089  -6.5740  -6.5334  -6.0998  -5.9956
     4.0908   4.3695   4.4077   4.6325   5.0875   5.3172   5.7455   5.8243
     6.2307   6.5367   6.6371   6.8644   7.0873   7.2049   7.5590   7.7546
     8.0788   8.3229   8.5098   8.6618   8.7255   8.9772   9.1612   9.2336
     9.3842   9.7267  13.7523  13.9514  14.2213  14.4597  14.6872  14.9226
    15.4265  16.1371  16.3791  16.8426  16.9190  16.9858  17.6766  17.8690
    18.3304

     occupation numbers 
     1.0000   1.0000   1.0000   1.0000   1.0000   1.0000   1.0000   1.0000
     1.0000   1.0000   1.0000   1.0000   1.0000   1.0000   1.0000   1.0000
     1.0000   1.0000   1.0000   1.0000   1.0000   1.0000   1.0000   1.0000
     1.0000   1.0000   1.0000   1.0000   1.0000   1.0000   1.0000   1.0000
     1.0000   1.0000   1.0000   1.0000   1.0000   1.0000   1.0000   1.0000
     1.0000   1.0000   1.0000   1.0000   1.0000   1.0000   1.0000   1.0000
     1.0000   1.0000   0.0000   0.0000   0.0000   0.0000   0.0000   0.0000
     0.0000   0.0000   0.0000   0.0000   0.0000   0.0000   0.0000   0.0000
     0.0000

          k = 0.4161 0.2045-0.2274 ( 19019 PWs)   bands (ev):

   -82.3116 -63.7842 -63.7624 -63.7290 -45.8286 -45.6392 -45.4425 -32.6002
   -32.5888 -32.5696 -28.2741 -28.2333 -28.1968 -28.1463 -28.0647 -28.0334
    -7.7363  -7.1785  -6.8761  -6.7908  -6.6796  -6.4070  -6.1334  -6.0000
     3.9706   4.3978   4.5860   4.9021   5.0110   5.2771   5.5915   5.7194
     6.2573   6.3579   6.5761   6.9879   7.2964   7.3943   7.4564   7.8495
     8.0016   8.2187   8.4271   8.6073   8.7752   8.8684   9.0918   9.2054
     9.5058   9.7400  13.6916  14.0225  14.1777  14.4384  14.6352  15.0913
    15.4348  16.1193  16.4072  16.8695  16.9109  17.0447  17.7057  17.9382
    18.3403

     occupation numbers 
     1.0000   1.0000   1.0000   1.0000   1.0000   1.0000   1.0000   1.0000
     1.0000   1.0000   1.0000   1.0000   1.0000   1.0000   1.0000   1.0000
     1.0000   1.0000   1.0000   1.0000   1.0000   1.0000   1.0000   1.0000
     1.0000   1.0000   1.0000   1.0000   1.0000   1.0000   1.0000   1.0000
     1.0000   1.0000   1.0000   1.0000   1.0000   1.0000   1.0000   1.0000
     1.0000   1.0000   1.0000   1.0000   1.0000   1.0000   1.0000   1.0000
     1.0000   1.0000   0.0000   0.0000   0.0000   0.0000   0.0000   0.0000
     0.0000   0.0000   0.0000   0.0000   0.0000   0.0000   0.0000   0.0000
     0.0000

          k = 0.4165 0.2045-0.0724 ( 19027 PWs)   bands (ev):

   -82.3116 -63.7842 -63.7628 -63.7289 -45.8286 -45.6392 -45.4425 -32.6001
   -32.5888 -32.5696 -28.2766 -28.2190 -28.2070 -28.1275 -28.0838 -28.0341
    -7.8954  -7.1485  -6.9775  -6.6804  -6.6052  -6.3020  -6.1577  -6.0210
     3.9336   4.3120   4.5898   5.0456   5.1769   5.3078   5.4715   5.8894
     6.0494   6.3212   6.6183   6.9122   7.2833   7.3671   7.5432   7.7485
     7.9577   8.2110   8.4565   8.6684   8.7444   8.8890   9.0019   9.2144
     9.6088   9.6951  13.7508  13.9569  14.1768  14.4587  14.6963  15.1948
    15.4454  16.1398  16.4139  16.8720  16.9310  17.0529  17.7256  17.9803
    18.4421

     occupation numbers 
     1.0000   1.0000   1.0000   1.0000   1.0000   1.0000   1.0000   1.0000
     1.0000   1.0000   1.0000   1.0000   1.0000   1.0000   1.0000   1.0000
     1.0000   1.0000   1.0000   1.0000   1.0000   1.0000   1.0000   1.0000
     1.0000   1.0000   1.0000   1.0000   1.0000   1.0000   1.0000   1.0000
     1.0000   1.0000   1.0000   1.0000   1.0000   1.0000   1.0000   1.0000
     1.0000   1.0000   1.0000   1.0000   1.0000   1.0000   1.0000   1.0000
     1.0000   1.0000   0.0000   0.0000   0.0000   0.0000   0.0000   0.0000
     0.0000   0.0000   0.0000   0.0000   0.0000   0.0000   0.0000   0.0000
     0.0000

          k = 0.4169 0.3409 0.0826 ( 19030 PWs)   bands (ev):

   -82.3116 -63.7842 -63.7627 -63.7289 -45.8286 -45.6392 -45.4424 -32.6001
   -32.5888 -32.5696 -28.2762 -28.2185 -28.2059 -28.1279 -28.0853 -28.0344
    -7.8175  -7.2316  -7.0468  -6.6619  -6.5700  -6.3078  -6.1163  -6.0396
     3.7721   4.4262   4.5991   5.0974   5.1506   5.2907   5.7020   6.0260
     6.0465   6.4044   6.5716   6.9160   7.2111   7.3308   7.5258   7.6852
     7.8413   8.1736   8.3032   8.6376   8.7617   8.8340   9.0322   9.3394
     9.4734   9.6407  13.6675  14.1153  14.2290  14.3894  14.7434  15.3586
    15.4746  16.0663  16.4059  16.8363  16.9207  17.0598  17.7403  17.9125
    18.1756

     occupation numbers 
     1.0000   1.0000   1.0000   1.0000   1.0000   1.0000   1.0000   1.0000
     1.0000   1.0000   1.0000   1.0000   1.0000   1.0000   1.0000   1.0000
     1.0000   1.0000   1.0000   1.0000   1.0000   1.0000   1.0000   1.0000
     1.0000   1.0000   1.0000   1.0000   1.0000   1.0000   1.0000   1.0000
     1.0000   1.0000   1.0000   1.0000   1.0000   1.0000   1.0000   1.0000
     1.0000   1.0000   1.0000   1.0000   1.0000   1.0000   1.0000   1.0000
     1.0000   1.0000   0.0000   0.0000   0.0000   0.0000   0.0000   0.0000
     0.0000   0.0000   0.0000   0.0000   0.0000   0.0000   0.0000   0.0000
     0.0000

          k = 0.4172 0.3409 0.2376 ( 19018 PWs)   bands (ev):

   -82.3116 -63.7842 -63.7624 -63.7290 -45.8286 -45.6392 -45.4425 -32.6002
   -32.5888 -32.5697 -28.2745 -28.2334 -28.1962 -28.1468 -28.0650 -28.0329
    -7.6773  -7.2927  -6.9920  -6.7680  -6.4838  -6.3759  -6.1661  -6.0412
     3.8157   4.3587   4.6729   4.9315   5.0243   5.3303   5.6998   5.8042
     6.2317   6.4290   6.5448   7.0167   7.2118   7.3843   7.5670   7.7298
     8.0088   8.2609   8.4451   8.6101   8.6635   8.9051   8.9836   9.1845
     9.4426   9.5649  13.7057  14.1044  14.3551  14.4032  14.5622  15.2415
    15.4606  16.1304  16.3547  16.7618  16.9445  17.0177  17.7307  17.8537
    18.1368

     occupation numbers 
     1.0000   1.0000   1.0000   1.0000   1.0000   1.0000   1.0000   1.0000
     1.0000   1.0000   1.0000   1.0000   1.0000   1.0000   1.0000   1.0000
     1.0000   1.0000   1.0000   1.0000   1.0000   1.0000   1.0000   1.0000
     1.0000   1.0000   1.0000   1.0000   1.0000   1.0000   1.0000   1.0000
     1.0000   1.0000   1.0000   1.0000   1.0000   1.0000   1.0000   1.0000
     1.0000   1.0000   1.0000   1.0000   1.0000   1.0000   1.0000   1.0000
     1.0000   1.0000   0.0000   0.0000   0.0000   0.0000   0.0000   0.0000
     0.0000   0.0000   0.0000   0.0000   0.0000   0.0000   0.0000   0.0000
     0.0000

          k = 0.4176 0.3409 0.3926 ( 19026 PWs)   bands (ev):

   -82.3115 -63.7842 -63.7620 -63.7292 -45.8286 -45.6392 -45.4425 -32.6003
   -32.5888 -32.5697 -28.2681 -28.2506 -28.1829 -28.1660 -28.0464 -28.0354
    -7.4470  -7.3287  -6.9770  -6.9233  -6.4931  -6.4262  -6.1263  -6.0861
     3.9965   4.2984   4.4745   4.6313   5.1119   5.4638   5.6411   5.9895
     6.1618   6.4068   6.8153   7.0229   7.0904   7.2874   7.5763   7.7790
     8.1403   8.2817   8.3658   8.5514   8.7918   8.9237   8.9908   9.1384
     9.3797   9.5893  13.8196  14.0318  14.2282  14.3306  14.6662  15.0138
    15.4274  16.1924  16.3122  16.7233  16.8980  16.9750  17.6871  17.8090
    18.2628

     occupation numbers 
     1.0000   1.0000   1.0000   1.0000   1.0000   1.0000   1.0000   1.0000
     1.0000   1.0000   1.0000   1.0000   1.0000   1.0000   1.0000   1.0000
     1.0000   1.0000   1.0000   1.0000   1.0000   1.0000   1.0000   1.0000
     1.0000   1.0000   1.0000   1.0000   1.0000   1.0000   1.0000   1.0000
     1.0000   1.0000   1.0000   1.0000   1.0000   1.0000   1.0000   1.0000
     1.0000   1.0000   1.0000   1.0000   1.0000   1.0000   1.0000   1.0000
     1.0000   1.0000   0.0000   0.0000   0.0000   0.0000   0.0000   0.0000
     0.0000   0.0000   0.0000   0.0000   0.0000   0.0000   0.0000   0.0000
     0.0000

          k = 0.4157 0.3409-0.3824 ( 19013 PWs)   bands (ev):

   -82.3115 -63.7842 -63.7619 -63.7292 -45.8286 -45.6392 -45.4425 -32.6003
   -32.5888 -32.5697 -28.2681 -28.2506 -28.1828 -28.1662 -28.0462 -28.0355
    -7.4561  -7.2687  -7.0039  -6.9238  -6.4950  -6.4736  -6.1699  -6.0226
     4.1255   4.2749   4.4620   4.5950   5.0391   5.4227   5.7162   5.8852
     6.2228   6.4945   6.8083   6.9953   7.1459   7.1989   7.6517   7.9530
     8.0521   8.2034   8.3445   8.4804   8.6633   8.9208   9.1214   9.1968
     9.2523   9.7013  13.7891  14.0153  14.1936  14.3197  14.7305  14.8832
    15.4288  16.1339  16.3492  16.7514  16.9094  16.9610  17.6773  17.8425
    18.4045

     occupation numbers 
     1.0000   1.0000   1.0000   1.0000   1.0000   1.0000   1.0000   1.0000
     1.0000   1.0000   1.0000   1.0000   1.0000   1.0000   1.0000   1.0000
     1.0000   1.0000   1.0000   1.0000   1.0000   1.0000   1.0000   1.0000
     1.0000   1.0000   1.0000   1.0000   1.0000   1.0000   1.0000   1.0000
     1.0000   1.0000   1.0000   1.0000   1.0000   1.0000   1.0000   1.0000
     1.0000   1.0000   1.0000   1.0000   1.0000   1.0000   1.0000   1.0000
     1.0000   1.0000   0.0000   0.0000   0.0000   0.0000   0.0000   0.0000
     0.0000   0.0000   0.0000   0.0000   0.0000   0.0000   0.0000   0.0000
     0.0000

          k = 0.4161 0.3409-0.2274 ( 18997 PWs)   bands (ev):

   -82.3116 -63.7842 -63.7623 -63.7290 -45.8286 -45.6392 -45.4425 -32.6002
   -32.5888 -32.5697 -28.2744 -28.2334 -28.1961 -28.1470 -28.0649 -28.0330
    -7.6698  -7.2499  -6.9159  -6.7983  -6.6360  -6.4061  -6.1338  -5.9986
     3.9076   4.4888   4.6676   4.8300   4.9587   5.1466   5.7921   5.9067
     6.2231   6.3111   6.6904   7.1132   7.2231   7.4028   7.4330   7.9115
     7.9949   8.1537   8.3342   8.5270   8.5572   8.8922   9.0867   9.2447
     9.3622   9.7144  13.6367  14.1046  14.2372  14.3903  14.5875  15.1075
    15.4649  16.0645  16.3779  16.8174  16.9457  17.0094  17.6616  17.9206
    18.3732

     occupation numbers 
     1.0000   1.0000   1.0000   1.0000   1.0000   1.0000   1.0000   1.0000
     1.0000   1.0000   1.0000   1.0000   1.0000   1.0000   1.0000   1.0000
     1.0000   1.0000   1.0000   1.0000   1.0000   1.0000   1.0000   1.0000
     1.0000   1.0000   1.0000   1.0000   1.0000   1.0000   1.0000   1.0000
     1.0000   1.0000   1.0000   1.0000   1.0000   1.0000   1.0000   1.0000
     1.0000   1.0000   1.0000   1.0000   1.0000   1.0000   1.0000   1.0000
     1.0000   1.0000   0.0000   0.0000   0.0000   0.0000   0.0000   0.0000
     0.0000   0.0000   0.0000   0.0000   0.0000   0.0000   0.0000   0.0000
     0.0000

          k = 0.4165 0.3409-0.0724 ( 19013 PWs)   bands (ev):

   -82.3116 -63.7842 -63.7626 -63.7289 -45.8286 -45.6392 -45.4424 -32.6001
   -32.5888 -32.5696 -28.2762 -28.2185 -28.2058 -28.1281 -28.0851 -28.0345
    -7.8138  -7.2286  -6.9760  -6.6810  -6.6636  -6.3161  -6.0902  -6.0279
     3.8051   4.4357   4.7157   4.9313   5.1056   5.3088   5.6936   5.9929
     6.1145   6.4639   6.6072   6.9710   7.2011   7.2888   7.4414   7.6818
     7.8920   8.1679   8.2941   8.4738   8.7785   8.9284   9.0435   9.2962
     9.5543   9.6295  13.6262  14.1121  14.2281  14.3392  14.7488  15.3011
    15.4736  16.0434  16.4069  16.8548  16.9414  17.0470  17.6601  17.9881
    18.2970

     occupation numbers 
     1.0000   1.0000   1.0000   1.0000   1.0000   1.0000   1.0000   1.0000
     1.0000   1.0000   1.0000   1.0000   1.0000   1.0000   1.0000   1.0000
     1.0000   1.0000   1.0000   1.0000   1.0000   1.0000   1.0000   1.0000
     1.0000   1.0000   1.0000   1.0000   1.0000   1.0000   1.0000   1.0000
     1.0000   1.0000   1.0000   1.0000   1.0000   1.0000   1.0000   1.0000
     1.0000   1.0000   1.0000   1.0000   1.0000   1.0000   1.0000   1.0000
     1.0000   1.0000   0.0000   0.0000   0.0000   0.0000   0.0000   0.0000
     0.0000   0.0000   0.0000   0.0000   0.0000   0.0000   0.0000   0.0000
     0.0000

     the Fermi energy is    12.4824 ev

!    total energy              =   -1090.45031372 Ry
     estimated scf accuracy    <          9.7E-10 Ry
     smearing contrib. (-TS)   =       0.00000000 Ry
     internal energy E=F+TS    =   -1090.45031372 Ry

     The total energy is F=E-TS. E is the sum of the following terms:
     one-electron contribution =    -437.17528909 Ry
     hartree contribution      =     277.75833900 Ry
     xc contribution           =    -224.24822919 Ry
     ewald contribution        =    -706.90184643 Ry
     Hubbard energy            =       0.11671199 Ry

     total magnetization       =     8.00 Bohr mag/cell
     absolute magnetization    =     8.02 Bohr mag/cell

     convergence has been achieved in  45 iterations

     Writing all to output data dir ./tmp/MnCoWO4_FM/MnCoWO4_FM.save/ :
     XML data file, charge density, pseudopotentials, collected wavefunctions
 
     init_run     :      5.87s CPU      6.02s WALL (       1 calls)
     electrons    :    674.79s CPU    681.04s WALL (       1 calls)

     Called by init_run:
     wfcinit      :      5.79s CPU      5.92s WALL (       1 calls)
     wfcinit:atom :      0.03s CPU      0.04s WALL (     108 calls)
     wfcinit:wfcr :      4.48s CPU      4.57s WALL (     108 calls)
     potinit      :      0.02s CPU      0.02s WALL (       1 calls)
     hinit0       :      0.02s CPU      0.02s WALL (       1 calls)

     Called by electrons:
     c_bands      :    602.05s CPU    607.26s WALL (      45 calls)
     sum_band     :     71.17s CPU     72.04s WALL (      45 calls)
     v_of_rho     :      0.62s CPU      0.64s WALL (      46 calls)
     v_h          :      0.02s CPU      0.02s WALL (      46 calls)
     v_xc         :      0.60s CPU      0.61s WALL (      46 calls)
     mix_rho      :      0.93s CPU      0.95s WALL (      45 calls)

     Called by c_bands:
     init_us_2    :     12.67s CPU     12.88s WALL (    9936 calls)
     cegterg      :    554.03s CPU    558.66s WALL (    4860 calls)

     Called by sum_band:
     sum_band:wei :      0.23s CPU      0.23s WALL (      45 calls)
     sum_band:loo :     67.21s CPU     67.97s WALL (      45 calls)
     sum_band:buf :      1.34s CPU      1.37s WALL (    4860 calls)
     sum_band:ini :      4.89s CPU      4.95s WALL (    4860 calls)

     Called by *egterg:
     cdiaghg      :     60.53s CPU     60.84s WALL (   20278 calls)
     cegterg:over :     28.54s CPU     28.72s WALL (   15418 calls)
     cegterg:upda :     17.17s CPU     17.28s WALL (   15418 calls)
     cegterg:last :     31.68s CPU     31.87s WALL (    9991 calls)
     h_psi        :    400.62s CPU    404.49s WALL (   20386 calls)
     g_psi        :      1.28s CPU      1.29s WALL (   15418 calls)

     Called by h_psi:
     h_psi:calbec :     44.10s CPU     44.42s WALL (   20386 calls)
     vloc_psi     :    292.66s CPU    295.81s WALL (   20386 calls)
     add_vuspsi   :     43.02s CPU     43.30s WALL (   20386 calls)
     vhpsi        :     18.75s CPU     18.88s WALL (   20386 calls)

     General routines
     calbec       :     63.11s CPU     63.62s WALL (   45740 calls)
     fft          :      0.30s CPU      0.31s WALL (     872 calls)
     ffts         :      0.51s CPU      0.52s WALL (    1514 calls)
     fftw         :    329.55s CPU    333.11s WALL ( 1893764 calls)
 
     Parallel routines

     Hubbard U routines
     new_ns       :      3.61s CPU      3.71s WALL (      45 calls)
     vhpsi        :     18.75s CPU     18.88s WALL (   20386 calls)
 
     PWSCF        :  11m21.43s CPU  11m31.78s WALL

 
   This run was terminated on:   6:30: 0  19Nov2025            

=------------------------------------------------------------------------------=
   JOB DONE.
=------------------------------------------------------------------------------=
