
     Program PWSCF v.7.4.1 starts on 19Nov2025 at  6:36:27 
        Git branch: heads/qe-7.4.1
        Last git commit: 500de340b820e1cb8c05f2d8bb8fced102f377c1-dirty
        Last git commit date: Fri Feb 7 14:59:05 2025 +0000
        Last git commit subject: Merge branch 'qe-7.4.1' into 'master'

     This program is part of the open-source Quantum ESPRESSO suite
     for quantum simulation of materials; please cite
         "P. Giannozzi et al., J. Phys.:Condens. Matter 21 395502 (2009);
         "P. Giannozzi et al., J. Phys.:Condens. Matter 29 465901 (2017);
         "P. Giannozzi et al., J. Chem. Phys. 152 154105 (2020);
          URL http://www.quantum-espresso.org", 
     in publications or presentations arising from this work. More details at
     http://www.quantum-espresso.org/quote

     Parallel version (MPI), running on    16 processors

     MPI processes distributed on     1 nodes
     662488 MiB available memory on the printing compute node when the environment starts
 
     Reading input from inputs_AFM/NiCoWO4_AFM.in

     Current dimensions of program PWSCF are:
     Max number of different atomic species (ntypx) = 10
     Max number of k-points (npk) =  40000
     Max angular momentum in pseudopotentials (lmaxx) =  4
     Message from routine setup:
     using ibrav=0 with symmetry is DISCOURAGED, use correct ibrav instead
 
     R & G space division:  proc/nbgrp/npool/nimage =      16
     Subspace diagonalization in iterative solution of the eigenvalue problem:
     a serial algorithm will be used

 
     Parallelization info
     --------------------
     sticks:   dense  smooth     PW     G-vecs:    dense   smooth      PW
     Min         209     209     57                 9020     9020    1284
     Max         210     210     59                 9022     9022    1287
     Sum        3351    3351    917               144327   144327   20567
 
     Using Slab Decomposition
 


     bravais-lattice index     =            0
     lattice parameter (alat)  =       8.3817  a.u.
     unit-cell volume          =     812.4090 (a.u.)^3
     number of atoms/cell      =           12
     number of atomic types    =            4
     number of electrons       =       111.00
     number of Kohn-Sham states=           67
     kinetic-energy cutoff     =     120.0000  Ry
     charge density cutoff     =     480.0000  Ry
     scf convergence threshold =      1.0E-09
     mixing beta               =       0.7000
     number of iterations used =            8  local-TF  mixing
     Exchange-correlation= PBESOL
                           (   1   4  10   8   0   0   0)
     Hubbard projectors: ortho-atomic
     Hubbard parameters of DFT+U (Dudarev formulation) in eV:
     U(Ni-3d) =  8.5500
     U(Co-3d) =  7.8400

     Internal variables: lda_plus_u = T, lda_plus_u_kind = 0

     celldm(1)=   8.381713  celldm(2)=   0.000000  celldm(3)=   0.000000
     celldm(4)=   0.000000  celldm(5)=   0.000000  celldm(6)=   0.000000

     crystal axes: (cart. coord. in units of alat)
               a(1) = (   0.999999   0.000000   0.001197 )  
               a(2) = (   0.000000   1.248450   0.000000 )  
               a(3) = (  -0.002949   0.000000   1.105107 )  

     reciprocal axes: (cart. coord. in units 2 pi/alat)
               b(1) = (  0.999998  0.000000  0.002668 )  
               b(2) = (  0.000000  0.800994  0.000000 )  
               b(3) = ( -0.001083  0.000000  0.904887 )  


     PseudoPot. # 1 for Ni read from file:
     pseudo_dojo_pbesol/Ni.upf
     MD5 check sum: 3ec56ad6bf78c9cc1bbec815420e1c7d
     Pseudo is Norm-conserving + core correction, Zval = 18.0
     Generated using ONCVPSP code by D. R. Hamann
     Using radial grid of 1356 points,  6 beta functions with: 
                l(1) =   0
                l(2) =   0
                l(3) =   1
                l(4) =   1
                l(5) =   2
                l(6) =   2

     PseudoPot. # 2 for Co read from file:
     pseudo_dojo_pbesol/Co.upf
     MD5 check sum: da2f8eda8ae963674925720b0359a264
     Pseudo is Norm-conserving + core correction, Zval = 17.0
     Generated using ONCVPSP code by D. R. Hamann
     Using radial grid of 1388 points,  6 beta functions with: 
                l(1) =   0
                l(2) =   0
                l(3) =   1
                l(4) =   1
                l(5) =   2
                l(6) =   2

     PseudoPot. # 3 for W  read from file:
     pseudo_dojo_pbesol/W.upf
     MD5 check sum: b5ac44390825a9169ccdba7091ec60d0
     Pseudo is Norm-conserving + core correction, Zval = 14.0
     Generated using ONCVPSP code by D. R. Hamann
     Using radial grid of 1396 points,  8 beta functions with: 
                l(1) =   0
                l(2) =   0
                l(3) =   1
                l(4) =   1
                l(5) =   2
                l(6) =   2
                l(7) =   3
                l(8) =   3

     PseudoPot. # 4 for O  read from file:
     pseudo_dojo_pbesol/O.upf
     MD5 check sum: f226cbcd508cec715ff87a8f75a1dfba
     Pseudo is Norm-conserving + core correction, Zval =  6.0
     Generated using ONCVPSP code by D. R. Hamann
     Using radial grid of  936 points,  5 beta functions with: 
                l(1) =   0
                l(2) =   0
                l(3) =   1
                l(4) =   1
                l(5) =   2

     atomic species   valence    mass     pseudopotential
     Ni               18.00    58.69340     Ni( 1.00)
     Co               17.00    58.93319     Co( 1.00)
     W                14.00   183.84000     W ( 1.00)
     O                 6.00    15.99940     O ( 1.00)

     Starting magnetic structure 
     atomic species   magnetization
     Ni              0.200
     Co             -0.200
     W               0.000
     O               0.000

      2 Sym. Ops. (no inversion) found ( 1 have fractional translation)


                                    s                        frac. trans.

      isym =  1     identity                                     

 cryst.   s( 1) = (     1          0          0      )
                  (     0          1          0      )
                  (     0          0          1      )

 cart.    s( 1) = (  1.0000000  0.0000000  0.0000000 )
                  (  0.0000000  1.0000000  0.0000000 )
                  (  0.0000000  0.0000000  1.0000000 )


      isym =  2     180 deg rotation - cart. axis [0,1,0]        

 cryst.   s( 2) = (    -1          0          0      )    f =(  0.0000000 )
                  (     0          1          0      )       (  0.0000000 )
                  (     0          0         -1      )       (  0.5000000 )

 cart.    s( 2) = ( -1.0000000  0.0000000  0.0000000 )    f =( -0.0014745 )
                  (  0.0000000  1.0000000  0.0000000 )       (  0.0000000 )
                  (  0.0000000  0.0000000 -1.0000000 )       (  0.5525535 )


   Cartesian axes

     site n.     atom                  positions (alat units)
         1        Ni     tau(   1) = (   0.4992624   0.8094984   0.2768751  )
         2        Co     tau(   2) = (   0.4977880   0.4389512   0.8294286  )
         3        W      tau(   3) = (  -0.0022117   1.0332396   0.8288302  )
         4        W      tau(   4) = (  -0.0007372   0.2152100   0.2762767  )
         5        O      tau(   5) = (   0.7316150   0.7734498   1.0065614  )
         6        O      tau(   6) = (   0.2639609   0.7734498   0.6522958  )
         7        O      tau(   7) = (   0.2654354   0.4749998   0.0997423  )
         8        O      tau(   8) = (   0.7330895   0.4749998   0.4540079  )
         9        O      tau(   9) = (   0.7682600   0.1421934   1.0222578  )
        10        O      tau(  10) = (   0.2273159   0.1421934   0.6365993  )
        11        O      tau(  11) = (   0.7697344   1.1062562   0.4697044  )
        12        O      tau(  12) = (   0.2287904   1.1062562   0.0840459  )

   Crystallographic axes

     site n.     atom                  positions (cryst. coord.)
         1        Ni     tau(   1) = (  0.5000000  0.6484029  0.2500000  )
         2        Co     tau(   2) = (  0.5000000  0.3515971  0.7500000  )
         3        W      tau(   3) = (  0.0000000  0.8276182  0.7500000  )
         4        W      tau(   4) = (  0.0000000  0.1723818  0.2500000  )
         5        O      tau(   5) = (  0.7342992  0.6195283  0.9100319  )
         6        O      tau(   6) = (  0.2657008  0.6195283  0.5899681  )
         7        O      tau(   7) = (  0.2657008  0.3804717  0.0899681  )
         8        O      tau(   8) = (  0.7342992  0.3804717  0.4100319  )
         9        O      tau(   9) = (  0.7709859  0.1138960  0.9241958  )
        10        O      tau(  10) = (  0.2290141  0.1138960  0.5758042  )
        11        O      tau(  11) = (  0.7709859  0.8861040  0.4241958  )
        12        O      tau(  12) = (  0.2290141  0.8861040  0.0758042  )

     number of k points=    54  Marzari-Vanderbilt smearing, width (Ry)=  0.0200
                       cart. coord. in units 2pi/alat
        k(    1) = (   0.0832429   0.0667495   0.0756296), wk =   0.0185185
        k(    2) = (   0.0830624   0.0667495   0.2264441), wk =   0.0185185
        k(    3) = (   0.0828819   0.0667495   0.3772586), wk =   0.0185185
        k(    4) = (   0.0837843   0.0667495  -0.3768139), wk =   0.0185185
        k(    5) = (   0.0836039   0.0667495  -0.2259994), wk =   0.0185185
        k(    6) = (   0.0834234   0.0667495  -0.0751849), wk =   0.0185185
        k(    7) = (   0.0832429   0.2002484   0.0756296), wk =   0.0185185
        k(    8) = (   0.0830624   0.2002484   0.2264441), wk =   0.0185185
        k(    9) = (   0.0828819   0.2002484   0.3772586), wk =   0.0185185
        k(   10) = (   0.0837843   0.2002484  -0.3768139), wk =   0.0185185
        k(   11) = (   0.0836039   0.2002484  -0.2259994), wk =   0.0185185
        k(   12) = (   0.0834234   0.2002484  -0.0751849), wk =   0.0185185
        k(   13) = (   0.0832429   0.3337473   0.0756296), wk =   0.0185185
        k(   14) = (   0.0830624   0.3337473   0.2264441), wk =   0.0185185
        k(   15) = (   0.0828819   0.3337473   0.3772586), wk =   0.0185185
        k(   16) = (   0.0837843   0.3337473  -0.3768139), wk =   0.0185185
        k(   17) = (   0.0836039   0.3337473  -0.2259994), wk =   0.0185185
        k(   18) = (   0.0834234   0.3337473  -0.0751849), wk =   0.0185185
        k(   19) = (   0.2499091   0.0667495   0.0760744), wk =   0.0185185
        k(   20) = (   0.2497286   0.0667495   0.2268888), wk =   0.0185185
        k(   21) = (   0.2495482   0.0667495   0.3777033), wk =   0.0185185
        k(   22) = (   0.2504506   0.0667495  -0.3763691), wk =   0.0185185
        k(   23) = (   0.2502701   0.0667495  -0.2255546), wk =   0.0185185
        k(   24) = (   0.2500896   0.0667495  -0.0747401), wk =   0.0185185
        k(   25) = (   0.2499091   0.2002484   0.0760744), wk =   0.0185185
        k(   26) = (   0.2497286   0.2002484   0.2268888), wk =   0.0185185
        k(   27) = (   0.2495482   0.2002484   0.3777033), wk =   0.0185185
        k(   28) = (   0.2504506   0.2002484  -0.3763691), wk =   0.0185185
        k(   29) = (   0.2502701   0.2002484  -0.2255546), wk =   0.0185185
        k(   30) = (   0.2500896   0.2002484  -0.0747401), wk =   0.0185185
        k(   31) = (   0.2499091   0.3337473   0.0760744), wk =   0.0185185
        k(   32) = (   0.2497286   0.3337473   0.2268888), wk =   0.0185185
        k(   33) = (   0.2495482   0.3337473   0.3777033), wk =   0.0185185
        k(   34) = (   0.2504506   0.3337473  -0.3763691), wk =   0.0185185
        k(   35) = (   0.2502701   0.3337473  -0.2255546), wk =   0.0185185
        k(   36) = (   0.2500896   0.3337473  -0.0747401), wk =   0.0185185
        k(   37) = (   0.4165754   0.0667495   0.0765191), wk =   0.0185185
        k(   38) = (   0.4163949   0.0667495   0.2273336), wk =   0.0185185
        k(   39) = (   0.4162144   0.0667495   0.3781481), wk =   0.0185185
        k(   40) = (   0.4171169   0.0667495  -0.3759244), wk =   0.0185185
        k(   41) = (   0.4169364   0.0667495  -0.2251099), wk =   0.0185185
        k(   42) = (   0.4167559   0.0667495  -0.0742954), wk =   0.0185185
        k(   43) = (   0.4165754   0.2002484   0.0765191), wk =   0.0185185
        k(   44) = (   0.4163949   0.2002484   0.2273336), wk =   0.0185185
        k(   45) = (   0.4162144   0.2002484   0.3781481), wk =   0.0185185
        k(   46) = (   0.4171169   0.2002484  -0.3759244), wk =   0.0185185
        k(   47) = (   0.4169364   0.2002484  -0.2251099), wk =   0.0185185
        k(   48) = (   0.4167559   0.2002484  -0.0742954), wk =   0.0185185
        k(   49) = (   0.4165754   0.3337473   0.0765191), wk =   0.0185185
        k(   50) = (   0.4163949   0.3337473   0.2273336), wk =   0.0185185
        k(   51) = (   0.4162144   0.3337473   0.3781481), wk =   0.0185185
        k(   52) = (   0.4171169   0.3337473  -0.3759244), wk =   0.0185185
        k(   53) = (   0.4169364   0.3337473  -0.2251099), wk =   0.0185185
        k(   54) = (   0.4167559   0.3337473  -0.0742954), wk =   0.0185185

                       cryst. coord.
        k(    1) = (   0.0833333   0.0833333   0.0833333), wk =   0.0185185
        k(    2) = (   0.0833333   0.0833333   0.2500000), wk =   0.0185185
        k(    3) = (   0.0833333   0.0833333   0.4166667), wk =   0.0185185
        k(    4) = (   0.0833333   0.0833333  -0.4166667), wk =   0.0185185
        k(    5) = (   0.0833333   0.0833333  -0.2500000), wk =   0.0185185
        k(    6) = (   0.0833333   0.0833333  -0.0833333), wk =   0.0185185
        k(    7) = (   0.0833333   0.2500000   0.0833333), wk =   0.0185185
        k(    8) = (   0.0833333   0.2500000   0.2500000), wk =   0.0185185
        k(    9) = (   0.0833333   0.2500000   0.4166667), wk =   0.0185185
        k(   10) = (   0.0833333   0.2500000  -0.4166667), wk =   0.0185185
        k(   11) = (   0.0833333   0.2500000  -0.2500000), wk =   0.0185185
        k(   12) = (   0.0833333   0.2500000  -0.0833333), wk =   0.0185185
        k(   13) = (   0.0833333   0.4166667   0.0833333), wk =   0.0185185
        k(   14) = (   0.0833333   0.4166667   0.2500000), wk =   0.0185185
        k(   15) = (   0.0833333   0.4166667   0.4166667), wk =   0.0185185
        k(   16) = (   0.0833333   0.4166667  -0.4166667), wk =   0.0185185
        k(   17) = (   0.0833333   0.4166667  -0.2500000), wk =   0.0185185
        k(   18) = (   0.0833333   0.4166667  -0.0833333), wk =   0.0185185
        k(   19) = (   0.2500000   0.0833333   0.0833333), wk =   0.0185185
        k(   20) = (   0.2500000   0.0833333   0.2500000), wk =   0.0185185
        k(   21) = (   0.2500000   0.0833333   0.4166667), wk =   0.0185185
        k(   22) = (   0.2500000   0.0833333  -0.4166667), wk =   0.0185185
        k(   23) = (   0.2500000   0.0833333  -0.2500000), wk =   0.0185185
        k(   24) = (   0.2500000   0.0833333  -0.0833333), wk =   0.0185185
        k(   25) = (   0.2500000   0.2500000   0.0833333), wk =   0.0185185
        k(   26) = (   0.2500000   0.2500000   0.2500000), wk =   0.0185185
        k(   27) = (   0.2500000   0.2500000   0.4166667), wk =   0.0185185
        k(   28) = (   0.2500000   0.2500000  -0.4166667), wk =   0.0185185
        k(   29) = (   0.2500000   0.2500000  -0.2500000), wk =   0.0185185
        k(   30) = (   0.2500000   0.2500000  -0.0833333), wk =   0.0185185
        k(   31) = (   0.2500000   0.4166667   0.0833333), wk =   0.0185185
        k(   32) = (   0.2500000   0.4166667   0.2500000), wk =   0.0185185
        k(   33) = (   0.2500000   0.4166667   0.4166667), wk =   0.0185185
        k(   34) = (   0.2500000   0.4166667  -0.4166667), wk =   0.0185185
        k(   35) = (   0.2500000   0.4166667  -0.2500000), wk =   0.0185185
        k(   36) = (   0.2500000   0.4166667  -0.0833333), wk =   0.0185185
        k(   37) = (   0.4166667   0.0833333   0.0833333), wk =   0.0185185
        k(   38) = (   0.4166667   0.0833333   0.2500000), wk =   0.0185185
        k(   39) = (   0.4166667   0.0833333   0.4166667), wk =   0.0185185
        k(   40) = (   0.4166667   0.0833333  -0.4166667), wk =   0.0185185
        k(   41) = (   0.4166667   0.0833333  -0.2500000), wk =   0.0185185
        k(   42) = (   0.4166667   0.0833333  -0.0833333), wk =   0.0185185
        k(   43) = (   0.4166667   0.2500000   0.0833333), wk =   0.0185185
        k(   44) = (   0.4166667   0.2500000   0.2500000), wk =   0.0185185
        k(   45) = (   0.4166667   0.2500000   0.4166667), wk =   0.0185185
        k(   46) = (   0.4166667   0.2500000  -0.4166667), wk =   0.0185185
        k(   47) = (   0.4166667   0.2500000  -0.2500000), wk =   0.0185185
        k(   48) = (   0.4166667   0.2500000  -0.0833333), wk =   0.0185185
        k(   49) = (   0.4166667   0.4166667   0.0833333), wk =   0.0185185
        k(   50) = (   0.4166667   0.4166667   0.2500000), wk =   0.0185185
        k(   51) = (   0.4166667   0.4166667   0.4166667), wk =   0.0185185
        k(   52) = (   0.4166667   0.4166667  -0.4166667), wk =   0.0185185
        k(   53) = (   0.4166667   0.4166667  -0.2500000), wk =   0.0185185
        k(   54) = (   0.4166667   0.4166667  -0.0833333), wk =   0.0185185

     Dense  grid:   144327 G-vectors     FFT dimensions: (  60,  75,  72)

     Dynamical RAM for                 wfc:       1.15 MB

     Dynamical RAM for     wfc (w. buffer):     125.59 MB

     Dynamical RAM for             U proj.:       0.17 MB

     Dynamical RAM for  U proj. (w. buff.):      18.74 MB

     Dynamical RAM for           str. fact:       0.55 MB

     Dynamical RAM for           local pot:       0.00 MB

     Dynamical RAM for          nlocal pot:       3.51 MB

     Dynamical RAM for                qrad:      16.87 MB

     Dynamical RAM for          rho,v,vnew:       1.86 MB

     Dynamical RAM for               rhoin:       0.62 MB

     Dynamical RAM for            rho*nmix:       4.41 MB

     Dynamical RAM for           G-vectors:       0.59 MB

     Dynamical RAM for          h,s,v(r/c):       0.82 MB

     Dynamical RAM for          <psi|beta>:       0.21 MB

     Dynamical RAM for                 psi:       2.30 MB

     Dynamical RAM for                hpsi:       2.30 MB

     Dynamical RAM for      wfcinit/wfcrot:       2.41 MB

     Estimated static dynamical RAM per process >     170.04 MB

     Estimated max dynamical RAM per process >     180.09 MB

     Estimated total dynamical RAM >       2.81 GB
     Generating pointlists ...
     new r_m :   0.1834 (alat units)  1.5369 (a.u.) for type    1
     new r_m :   0.1834 (alat units)  1.5369 (a.u.) for type    2
     new r_m :   0.1698 (alat units)  1.4235 (a.u.) for type    3
     new r_m :   0.1698 (alat units)  1.4235 (a.u.) for type    4

     Initial potential from superposition of free atoms

     starting charge     110.9986, renormalised to     111.0000

     HUBBARD ENERGY =    0.7228  (Ry)

     STARTING HUBBARD OCCUPATIONS:

     =================== HUBBARD OCCUPATIONS ===================
     ------------------------ ATOM    1 ------------------------
     Tr[ns(  1)] (up, down, total) =   5.00000  3.00000  8.00000
     Atomic magnetic moment for atom   1 =   2.00000
     SPIN  1
     eigenvalues:
       1.000  1.000  1.000  1.000  1.000
     eigenvectors (columns):
       1.000  0.000  0.000  0.000  0.000
       0.000  1.000  0.000  0.000  0.000
       0.000  0.000  1.000  0.000  0.000
       0.000  0.000  0.000  1.000  0.000
       0.000  0.000  0.000  0.000  1.000
     occupation matrix ns (before diag.):
       1.000  0.000  0.000  0.000  0.000
       0.000  1.000  0.000  0.000  0.000
       0.000  0.000  1.000  0.000  0.000
       0.000  0.000  0.000  1.000  0.000
       0.000  0.000  0.000  0.000  1.000
     SPIN  2
     eigenvalues:
       0.600  0.600  0.600  0.600  0.600
     eigenvectors (columns):
       1.000  0.000  0.000  0.000  0.000
       0.000  1.000  0.000  0.000  0.000
       0.000  0.000  1.000  0.000  0.000
       0.000  0.000  0.000  1.000  0.000
       0.000  0.000  0.000  0.000  1.000
     occupation matrix ns (before diag.):
       0.600  0.000  0.000  0.000  0.000
       0.000  0.600  0.000  0.000  0.000
       0.000  0.000  0.600  0.000  0.000
       0.000  0.000  0.000  0.600  0.000
       0.000  0.000  0.000  0.000  0.600
     ------------------------ ATOM    2 ------------------------
     Tr[ns(  2)] (up, down, total) =   2.00000  5.00000  7.00000
     Atomic magnetic moment for atom   2 =  -3.00000
     SPIN  1
     eigenvalues:
       0.400  0.400  0.400  0.400  0.400
     eigenvectors (columns):
       1.000  0.000  0.000  0.000  0.000
       0.000  1.000  0.000  0.000  0.000
       0.000  0.000  1.000  0.000  0.000
       0.000  0.000  0.000  1.000  0.000
       0.000  0.000  0.000  0.000  1.000
     occupation matrix ns (before diag.):
       0.400  0.000  0.000  0.000  0.000
       0.000  0.400  0.000  0.000  0.000
       0.000  0.000  0.400  0.000  0.000
       0.000  0.000  0.000  0.400  0.000
       0.000  0.000  0.000  0.000  0.400
     SPIN  2
     eigenvalues:
       1.000  1.000  1.000  1.000  1.000
     eigenvectors (columns):
       1.000  0.000  0.000  0.000  0.000
       0.000  1.000  0.000  0.000  0.000
       0.000  0.000  1.000  0.000  0.000
       0.000  0.000  0.000  1.000  0.000
       0.000  0.000  0.000  0.000  1.000
     occupation matrix ns (before diag.):
       1.000  0.000  0.000  0.000  0.000
       0.000  1.000  0.000  0.000  0.000
       0.000  0.000  1.000  0.000  0.000
       0.000  0.000  0.000  1.000  0.000
       0.000  0.000  0.000  0.000  1.000

     Number of occupied Hubbard levels =   15.0000

     Atomic wfc used for Hubbard projectors are orthogonalized

     Starting wfcs are   72 randomized atomic wfcs

     total cpu time spent up to now is        5.6 secs

     per-process dynamical memory:   221.6 Mb

     Self-consistent Calculation

     iteration #  1     ecut=   120.00 Ry     beta= 0.70
     Davidson diagonalization with overlap

---- Real-time Memory Report at c_bands before calling an iterative solver
           251 MiB given to the printing process from OS
           216 MiB allocation reported by mallinfo(arena+hblkhd)
        661328 MiB available memory on the node where the printing process lives
------------------
     ethr =  1.00E-02,  avg # of iterations =  2.8

     =================== HUBBARD OCCUPATIONS ===================
     ------------------------ ATOM    1 ------------------------
     Tr[ns(  1)] (up, down, total) =   4.98397  4.88276  9.86673
     Atomic magnetic moment for atom   1 =   0.10121
     SPIN  1
     eigenvalues:
       0.994  0.995  0.998  0.998  0.999
     eigenvectors (columns):
      -0.000 -0.552 -0.829  0.000  0.089
      -0.000 -0.778  0.551 -0.000  0.304
      -0.567  0.000  0.000  0.824  0.000
      -0.000 -0.301  0.099  0.000 -0.949
       0.824 -0.000  0.000  0.567  0.000
     occupation matrix ns (before diag.):
       0.997 -0.002 -0.000 -0.001  0.000
      -0.002  0.996 -0.000 -0.001  0.000
      -0.000 -0.000  0.997 -0.000  0.002
      -0.001 -0.001 -0.000  0.998 -0.000
       0.000  0.000  0.002 -0.000  0.995
     SPIN  2
     eigenvalues:
       0.955  0.956  0.989  0.991  0.992
     eigenvectors (columns):
      -0.000 -0.559 -0.729 -0.000 -0.394
      -0.000 -0.778  0.626 -0.000 -0.054
      -0.602  0.000  0.000  0.799 -0.000
      -0.000 -0.286 -0.277  0.000  0.917
       0.799 -0.000  0.000  0.602 -0.000
     occupation matrix ns (before diag.):
       0.979 -0.014 -0.000 -0.006  0.000
      -0.014  0.969 -0.000 -0.007  0.000
      -0.000 -0.000  0.978 -0.000  0.017
      -0.006 -0.007 -0.000  0.989 -0.000
       0.000  0.000  0.017 -0.000  0.968
     ------------------------ ATOM    2 ------------------------
     Tr[ns(  2)] (up, down, total) =   0.44238  4.97919  5.42157
     Atomic magnetic moment for atom   2 =  -4.53681
     SPIN  1
     eigenvalues:
       0.050  0.052  0.054  0.143  0.143
     eigenvectors (columns):
      -0.000 -0.384  0.746 -0.000  0.545
      -0.000 -0.045 -0.604 -0.000  0.796
       0.818 -0.000  0.000 -0.576 -0.000
       0.000  0.922  0.281 -0.000  0.265
       0.576 -0.000  0.000  0.818  0.000
     occupation matrix ns (before diag.):
       0.080  0.039 -0.000  0.014  0.000
       0.039  0.110 -0.000  0.019  0.000
      -0.000 -0.000  0.081  0.000 -0.044
       0.014  0.019  0.000  0.059 -0.000
       0.000  0.000 -0.044 -0.000  0.112
     SPIN  2
     eigenvalues:
       0.992  0.993  0.998  0.998  0.998
     eigenvectors (columns):
      -0.000  0.585 -0.710 -0.000  0.391
      -0.000  0.756  0.652 -0.000  0.052
      -0.623 -0.000  0.000  0.782  0.000
      -0.000  0.292 -0.266  0.000 -0.919
       0.782  0.000  0.000  0.623  0.000
     occupation matrix ns (before diag.):
       0.996 -0.002 -0.000 -0.001  0.000
      -0.002  0.995 -0.000 -0.001  0.000
      -0.000 -0.000  0.996 -0.000  0.003
      -0.001 -0.001 -0.000  0.998 -0.000
       0.000  0.000  0.003 -0.000  0.994

     Number of occupied Hubbard levels =   15.2883

     HUBBARD ENERGY =    0.1598  (Ry)

     total cpu time spent up to now is       20.5 secs

     total energy              =   -1206.16942368 Ry
     estimated scf accuracy    <       8.27804945 Ry

     total magnetization       =    -4.96 Bohr mag/cell
     absolute magnetization    =     5.40 Bohr mag/cell

     iteration #  2     ecut=   120.00 Ry     beta= 0.70
     Davidson diagonalization with overlap

---- Real-time Memory Report at c_bands before calling an iterative solver
           259 MiB given to the printing process from OS
           222 MiB allocation reported by mallinfo(arena+hblkhd)
        663124 MiB available memory on the node where the printing process lives
------------------
     ethr =  7.46E-03,  avg # of iterations =  2.0

     =================== HUBBARD OCCUPATIONS ===================
     ------------------------ ATOM    1 ------------------------
     Tr[ns(  1)] (up, down, total) =   4.23476  3.49923  7.73399
     Atomic magnetic moment for atom   1 =   0.73554
     SPIN  1
     eigenvalues:
       0.641  0.668  0.972  0.976  0.977
     eigenvectors (columns):
       0.529  0.000  0.553  0.000  0.644
       0.805  0.000 -0.087 -0.000 -0.587
       0.000 -0.542 -0.000  0.841 -0.000
       0.269  0.000 -0.829 -0.000  0.491
      -0.000  0.841 -0.000  0.542 -0.000
     occupation matrix ns (before diag.):
       0.881 -0.143 -0.000 -0.045  0.000
      -0.143  0.759 -0.000 -0.073  0.000
      -0.000 -0.000  0.886 -0.000  0.140
      -0.045 -0.073 -0.000  0.949 -0.000
       0.000  0.000  0.140 -0.000  0.759
     SPIN  2
     eigenvalues:
       0.306  0.307  0.958  0.960  0.969
     eigenvectors (columns):
      -0.534  0.000 -0.781  0.000 -0.324
      -0.801  0.000  0.590 -0.000 -0.103
      -0.000 -0.579  0.000  0.816 -0.000
      -0.272  0.000 -0.204  0.000  0.940
       0.000  0.816  0.000  0.579 -0.000
     occupation matrix ns (before diag.):
       0.773 -0.278  0.000 -0.098  0.000
      -0.278  0.540 -0.000 -0.143  0.000
       0.000 -0.000  0.741 -0.000  0.308
      -0.098 -0.143 -0.000  0.919 -0.000
       0.000  0.000  0.308 -0.000  0.526
     ------------------------ ATOM    2 ------------------------
     Tr[ns(  2)] (up, down, total) =   3.46966  4.97355  8.44321
     Atomic magnetic moment for atom   2 =  -1.50389
     SPIN  1
     eigenvalues:
       0.384  0.423  0.778  0.917  0.968
     eigenvectors (columns):
      -0.522  0.000  0.367  0.000 -0.770
      -0.805  0.000  0.088  0.000  0.587
      -0.000 -0.550 -0.000  0.835 -0.000
      -0.283  0.000 -0.926 -0.000 -0.250
       0.000  0.835 -0.000  0.550 -0.000
     occupation matrix ns (before diag.):
       0.783 -0.252  0.000 -0.022  0.000
      -0.252  0.588 -0.000 -0.118  0.000
       0.000 -0.000  0.768 -0.000  0.227
      -0.022 -0.118 -0.000  0.758 -0.000
       0.000  0.000  0.227 -0.000  0.572
     SPIN  2
     eigenvalues:
       0.991  0.992  0.997  0.997  0.997
     eigenvectors (columns):
      -0.000  0.564 -0.329 -0.000 -0.757
      -0.000  0.772 -0.115  0.000  0.625
      -0.580 -0.000  0.000  0.814 -0.000
      -0.000  0.293  0.937 -0.000 -0.189
       0.814  0.000  0.000  0.580 -0.000
     occupation matrix ns (before diag.):
       0.995 -0.002 -0.000 -0.001  0.000
      -0.002  0.994 -0.000 -0.001  0.000
      -0.000 -0.000  0.995 -0.000  0.003
      -0.001 -0.001 -0.000  0.996 -0.000
       0.000  0.000  0.003 -0.000  0.993

     Number of occupied Hubbard levels =   16.1772

     HUBBARD ENERGY =    0.5647  (Ry)

     total cpu time spent up to now is       33.3 secs

     total energy              =   -1207.43808709 Ry
     estimated scf accuracy    <       4.58679988 Ry

     total magnetization       =    -1.04 Bohr mag/cell
     absolute magnetization    =     3.03 Bohr mag/cell

     iteration #  3     ecut=   120.00 Ry     beta= 0.70
     Davidson diagonalization with overlap

---- Real-time Memory Report at c_bands before calling an iterative solver
           260 MiB given to the printing process from OS
           223 MiB allocation reported by mallinfo(arena+hblkhd)
        657771 MiB available memory on the node where the printing process lives
------------------
     ethr =  4.13E-03,  avg # of iterations =  1.0

     =================== HUBBARD OCCUPATIONS ===================
     ------------------------ ATOM    1 ------------------------
     Tr[ns(  1)] (up, down, total) =   4.82784  3.50261  8.33045
     Atomic magnetic moment for atom   1 =   1.32523
     SPIN  1
     eigenvalues:
       0.922  0.934  0.990  0.990  0.991
     eigenvectors (columns):
      -0.000  0.541 -0.753  0.374  0.000
      -0.000  0.792  0.606  0.075  0.000
      -0.530 -0.000  0.000 -0.000  0.848
       0.000  0.283 -0.255 -0.924 -0.000
       0.848  0.000  0.000 -0.000  0.530
     occupation matrix ns (before diag.):
       0.974 -0.024 -0.000 -0.009  0.000
      -0.024  0.955 -0.000 -0.013  0.000
      -0.000 -0.000  0.972 -0.000  0.031
      -0.009 -0.013 -0.000  0.986 -0.000
       0.000  0.000  0.031 -0.000  0.941
     SPIN  2
     eigenvalues:
       0.272  0.274  0.985  0.986  0.987
     eigenvectors (columns):
      -0.535  0.000 -0.800 -0.000 -0.271
      -0.800  0.000  0.583 -0.000 -0.142
      -0.000 -0.579  0.000  0.816 -0.000
      -0.272  0.000 -0.141  0.000  0.952
       0.000  0.816  0.000  0.579 -0.000
     occupation matrix ns (before diag.):
       0.781 -0.305  0.000 -0.104  0.000
      -0.305  0.528 -0.000 -0.155  0.000
       0.000 -0.000  0.747 -0.000  0.336
      -0.104 -0.155 -0.000  0.934 -0.000
       0.000  0.000  0.336 -0.000  0.512
     ------------------------ ATOM    2 ------------------------
     Tr[ns(  2)] (up, down, total) =   2.57120  4.96744  7.53864
     Atomic magnetic moment for atom   2 =  -2.39624
     SPIN  1
     eigenvalues:
       0.199  0.210  0.268  0.891  1.003
     eigenvectors (columns):
      -0.530  0.000 -0.338 -0.000 -0.778
      -0.798  0.000 -0.112  0.000  0.592
      -0.000 -0.570  0.000  0.821 -0.000
      -0.287  0.000  0.935 -0.000 -0.210
       0.000  0.821 -0.000  0.570 -0.000
     occupation matrix ns (before diag.):
       0.694 -0.368  0.000  0.110  0.000
      -0.368  0.482 -0.000 -0.107  0.000
       0.000 -0.000  0.669 -0.000  0.319
       0.110 -0.107 -0.000  0.295 -0.000
       0.000  0.000  0.319 -0.000  0.431
     SPIN  2
     eigenvalues:
       0.987  0.988  0.997  0.997  0.997
     eigenvectors (columns):
      -0.000  0.577 -0.683 -0.448 -0.000
      -0.000  0.763  0.256  0.593  0.000
      -0.581 -0.000  0.000 -0.000  0.814
      -0.000  0.290  0.684 -0.669 -0.000
       0.814  0.000  0.000 -0.000  0.581
     occupation matrix ns (before diag.):
       0.994 -0.004 -0.000 -0.001  0.000
      -0.004  0.992 -0.000 -0.002  0.000
      -0.000 -0.000  0.994 -0.000  0.005
      -0.001 -0.002 -0.000  0.997 -0.000
       0.000  0.000  0.005 -0.000  0.991

     Number of occupied Hubbard levels =   15.8691

     HUBBARD ENERGY =    0.4509  (Ry)

     total cpu time spent up to now is       44.5 secs

     total energy              =   -1207.80712722 Ry
     estimated scf accuracy    <       0.64386958 Ry

     total magnetization       =    -1.00 Bohr mag/cell
     absolute magnetization    =     4.40 Bohr mag/cell

     iteration #  4     ecut=   120.00 Ry     beta= 0.70
     Davidson diagonalization with overlap

---- Real-time Memory Report at c_bands before calling an iterative solver
           260 MiB given to the printing process from OS
           224 MiB allocation reported by mallinfo(arena+hblkhd)
        657763 MiB available memory on the node where the printing process lives
------------------
     ethr =  5.80E-04,  avg # of iterations =  1.4

     =================== HUBBARD OCCUPATIONS ===================
     ------------------------ ATOM    1 ------------------------
     Tr[ns(  1)] (up, down, total) =   4.92611  3.28522  8.21133
     Atomic magnetic moment for atom   1 =   1.64089
     SPIN  1
     eigenvalues:
       0.972  0.975  0.992  0.993  0.993
     eigenvectors (columns):
      -0.000  0.581 -0.743 -0.000  0.333
      -0.000  0.757  0.643 -0.000  0.112
      -0.555 -0.000  0.000  0.832  0.000
      -0.000  0.298 -0.187  0.000 -0.936
       0.832  0.000  0.000  0.555  0.000
     occupation matrix ns (before diag.):
       0.987 -0.008 -0.000 -0.003  0.000
      -0.008  0.983 -0.000 -0.004  0.000
      -0.000 -0.000  0.987 -0.000  0.010
      -0.003 -0.004 -0.000  0.991 -0.000
       0.000  0.000  0.010 -0.000  0.979
     SPIN  2
     eigenvalues:
       0.158  0.160  0.988  0.989  0.990
     eigenvectors (columns):
      -0.534  0.000 -0.813 -0.000 -0.231
      -0.801  0.000  0.574 -0.000 -0.170
      -0.000 -0.578  0.000  0.816 -0.000
      -0.271  0.000 -0.094  0.000  0.958
       0.000  0.816  0.000  0.578 -0.000
     occupation matrix ns (before diag.):
       0.751 -0.355  0.000 -0.121  0.000
      -0.355  0.456 -0.000 -0.180  0.000
       0.000 -0.000  0.712 -0.000  0.391
      -0.121 -0.180 -0.000  0.929 -0.000
       0.000  0.000  0.391 -0.000  0.437
     ------------------------ ATOM    2 ------------------------
     Tr[ns(  2)] (up, down, total) =   2.32705  4.95994  7.28699
     Atomic magnetic moment for atom   2 =  -2.63288
     SPIN  1
     eigenvalues:
       0.064  0.144  0.149  0.984  0.986
     eigenvectors (columns):
      -0.327  0.551  0.000 -0.000  0.768
      -0.104  0.787  0.000  0.000 -0.609
      -0.000  0.000 -0.604  0.797  0.000
       0.939  0.279  0.000 -0.000  0.200
       0.000 -0.000  0.797  0.604  0.000
     occupation matrix ns (before diag.):
       0.631 -0.396  0.000  0.154  0.000
      -0.396  0.455 -0.000 -0.095  0.000
       0.000 -0.000  0.680 -0.000  0.402
       0.154 -0.095 -0.000  0.107 -0.000
       0.000  0.000  0.402 -0.000  0.454
     SPIN  2
     eigenvalues:
       0.985  0.985  0.996  0.997  0.997
     eigenvectors (columns):
      -0.000  0.600 -0.749 -0.000  0.282
      -0.000  0.744  0.652 -0.000  0.147
      -0.607 -0.000  0.000  0.795  0.000
      -0.000  0.294 -0.122  0.000 -0.948
       0.795  0.000  0.000  0.607  0.000
     occupation matrix ns (before diag.):
       0.992 -0.005 -0.000 -0.002  0.000
      -0.005  0.990 -0.000 -0.003  0.000
      -0.000 -0.000  0.992 -0.000  0.006
      -0.002 -0.003 -0.000  0.996 -0.000
       0.000  0.000  0.006 -0.000  0.989

     Number of occupied Hubbard levels =   15.4983

     HUBBARD ENERGY =    0.2124  (Ry)

     total cpu time spent up to now is       55.9 secs

     total energy              =   -1207.95693636 Ry
     estimated scf accuracy    <       0.18331483 Ry

     total magnetization       =    -1.00 Bohr mag/cell
     absolute magnetization    =     4.75 Bohr mag/cell

     iteration #  5     ecut=   120.00 Ry     beta= 0.70
     Davidson diagonalization with overlap

---- Real-time Memory Report at c_bands before calling an iterative solver
           261 MiB given to the printing process from OS
           224 MiB allocation reported by mallinfo(arena+hblkhd)
        657746 MiB available memory on the node where the printing process lives
------------------
     ethr =  1.65E-04,  avg # of iterations =  5.0

     =================== HUBBARD OCCUPATIONS ===================
     ------------------------ ATOM    1 ------------------------
     Tr[ns(  1)] (up, down, total) =   4.95306  3.20622  8.15928
     Atomic magnetic moment for atom   1 =   1.74684
     SPIN  1
     eigenvalues:
       0.983  0.985  0.995  0.995  0.995
     eigenvectors (columns):
      -0.000  0.588 -0.743 -0.000  0.320
      -0.000  0.751  0.649 -0.000  0.124
      -0.570 -0.000  0.000  0.822  0.000
      -0.000  0.300 -0.168  0.000 -0.939
       0.822  0.000  0.000  0.570  0.000
     occupation matrix ns (before diag.):
       0.991 -0.004 -0.000 -0.002  0.000
      -0.004  0.989 -0.000 -0.002  0.000
      -0.000 -0.000  0.991 -0.000  0.006
      -0.002 -0.002 -0.000  0.994 -0.000
       0.000  0.000  0.006 -0.000  0.987
     SPIN  2
     eigenvalues:
       0.115  0.115  0.991  0.992  0.992
     eigenvectors (columns):
      -0.533  0.000 -0.813 -0.000 -0.235
      -0.801  0.000  0.574 -0.000 -0.168
      -0.000 -0.576  0.000  0.817 -0.000
      -0.271  0.000 -0.099  0.000  0.957
       0.000  0.817  0.000  0.576 -0.000
     occupation matrix ns (before diag.):
       0.742 -0.374  0.000 -0.127  0.000
      -0.374  0.429 -0.000 -0.190  0.000
       0.000 -0.000  0.701 -0.000  0.413
      -0.127 -0.190 -0.000  0.928 -0.000
       0.000  0.000  0.413 -0.000  0.407
     ------------------------ ATOM    2 ------------------------
     Tr[ns(  2)] (up, down, total) =   2.26751  4.95526  7.22277
     Atomic magnetic moment for atom   2 =  -2.68775
     SPIN  1
     eigenvalues:
       0.037  0.124  0.129  0.988  0.990
     eigenvectors (columns):
      -0.324  0.573  0.000  0.753  0.000
      -0.102  0.770  0.000 -0.630 -0.000
       0.000  0.000 -0.634 -0.000  0.773
       0.941  0.281  0.000  0.191  0.000
       0.000 -0.000  0.773 -0.000  0.634
     occupation matrix ns (before diag.):
       0.605 -0.413  0.000  0.151  0.000
      -0.413  0.466 -0.000 -0.096  0.000
       0.000 -0.000  0.643 -0.000  0.422
       0.151 -0.096 -0.000  0.078 -0.000
       0.000  0.000  0.422 -0.000  0.475
     SPIN  2
     eigenvalues:
       0.983  0.983  0.995  0.996  0.997
     eigenvectors (columns):
      -0.615  0.000 -0.735  0.000 -0.286
      -0.730  0.000  0.668 -0.000 -0.146
      -0.000 -0.622  0.000  0.783 -0.000
      -0.298  0.000 -0.119  0.000  0.947
       0.000  0.783  0.000  0.622 -0.000
     occupation matrix ns (before diag.):
       0.991 -0.005 -0.000 -0.003  0.000
      -0.005  0.989 -0.000 -0.003  0.000
      -0.000 -0.000  0.991 -0.000  0.006
      -0.003 -0.003 -0.000  0.996 -0.000
       0.000  0.000  0.006 -0.000  0.988

     Number of occupied Hubbard levels =   15.3820

     HUBBARD ENERGY =    0.2045  (Ry)

     total cpu time spent up to now is       69.4 secs

     total energy              =   -1207.97581857 Ry
     estimated scf accuracy    <       0.03564015 Ry

     total magnetization       =    -1.00 Bohr mag/cell
     absolute magnetization    =     4.83 Bohr mag/cell

     iteration #  6     ecut=   120.00 Ry     beta= 0.70
     Davidson diagonalization with overlap

---- Real-time Memory Report at c_bands before calling an iterative solver
           262 MiB given to the printing process from OS
           225 MiB allocation reported by mallinfo(arena+hblkhd)
        659322 MiB available memory on the node where the printing process lives
------------------
     ethr =  3.21E-05,  avg # of iterations =  6.0

     =================== HUBBARD OCCUPATIONS ===================
     ------------------------ ATOM    1 ------------------------
     Tr[ns(  1)] (up, down, total) =   4.95951  3.21388  8.17338
     Atomic magnetic moment for atom   1 =   1.74563
     SPIN  1
     eigenvalues:
       0.985  0.987  0.996  0.996  0.996
     eigenvectors (columns):
      -0.000  0.587 -0.741 -0.000  0.326
      -0.000  0.753  0.647 -0.000  0.116
      -0.574 -0.000  0.000  0.819  0.000
      -0.000  0.297 -0.177  0.000 -0.938
       0.819  0.000  0.000  0.574  0.000
     occupation matrix ns (before diag.):
       0.992 -0.004 -0.000 -0.002  0.000
      -0.004  0.990 -0.000 -0.002  0.000
      -0.000 -0.000  0.992 -0.000  0.005
      -0.002 -0.002 -0.000  0.995 -0.000
       0.000  0.000  0.005 -0.000  0.989
     SPIN  2
     eigenvalues:
       0.117  0.117  0.992  0.993  0.994
     eigenvectors (columns):
      -0.000 -0.533 -0.815 -0.000 -0.229
      -0.000 -0.802  0.573 -0.000 -0.172
      -0.575  0.000  0.000  0.818 -0.000
      -0.000 -0.271 -0.092  0.000  0.958
       0.818 -0.000  0.000  0.575 -0.000
     occupation matrix ns (before diag.):
       0.744 -0.374  0.000 -0.127  0.000
      -0.374  0.430 -0.000 -0.190  0.000
       0.000 -0.000  0.703 -0.000  0.412
      -0.127 -0.190 -0.000  0.929 -0.000
       0.000  0.000  0.412 -0.000  0.407
     ------------------------ ATOM    2 ------------------------
     Tr[ns(  2)] (up, down, total) =   2.26106  4.95505  7.21612
     Atomic magnetic moment for atom   2 =  -2.69399
     SPIN  1
     eigenvalues:
       0.037  0.120  0.126  0.989  0.990
     eigenvectors (columns):
      -0.323  0.588  0.000  0.742  0.000
      -0.102  0.758  0.000 -0.645 -0.000
       0.000  0.000 -0.656 -0.000  0.755
       0.941  0.284  0.000  0.185  0.000
       0.000 -0.000  0.755 -0.000  0.656
     occupation matrix ns (before diag.):
       0.589 -0.418  0.000  0.145  0.000
      -0.418  0.480 -0.000 -0.096  0.000
       0.000 -0.000  0.618 -0.000  0.428
       0.145 -0.096 -0.000  0.076 -0.000
       0.000  0.000  0.428 -0.000  0.497
     SPIN  2
     eigenvalues:
       0.983  0.983  0.995  0.996  0.997
     eigenvectors (columns):
      -0.611  0.000 -0.737  0.000 -0.289
      -0.734  0.000  0.664 -0.000 -0.141
      -0.000 -0.619  0.000  0.786 -0.000
      -0.296  0.000 -0.126  0.000  0.947
       0.000  0.786  0.000  0.619 -0.000
     occupation matrix ns (before diag.):
       0.991 -0.005 -0.000 -0.003  0.000
      -0.005  0.989 -0.000 -0.003  0.000
      -0.000 -0.000  0.991 -0.000  0.006
      -0.003 -0.003 -0.000  0.996 -0.000
       0.000  0.000  0.006 -0.000  0.988

     Number of occupied Hubbard levels =   15.3895

     HUBBARD ENERGY =    0.1625  (Ry)

     total cpu time spent up to now is       84.2 secs

     total energy              =   -1207.97725048 Ry
     estimated scf accuracy    <       0.01503702 Ry

     total magnetization       =    -1.00 Bohr mag/cell
     absolute magnetization    =     4.83 Bohr mag/cell

     iteration #  7     ecut=   120.00 Ry     beta= 0.70
     Davidson diagonalization with overlap

---- Real-time Memory Report at c_bands before calling an iterative solver
           262 MiB given to the printing process from OS
           225 MiB allocation reported by mallinfo(arena+hblkhd)
        664422 MiB available memory on the node where the printing process lives
------------------
     ethr =  1.35E-05,  avg # of iterations =  3.4

     =================== HUBBARD OCCUPATIONS ===================
     ------------------------ ATOM    1 ------------------------
     Tr[ns(  1)] (up, down, total) =   4.96509  3.21798  8.18307
     Atomic magnetic moment for atom   1 =   1.74711
     SPIN  1
     eigenvalues:
       0.987  0.988  0.996  0.997  0.997
     eigenvectors (columns):
      -0.000  0.585 -0.738 -0.000  0.337
      -0.000  0.756  0.647 -0.000  0.104
      -0.579 -0.000  0.000  0.816  0.000
      -0.000  0.295 -0.194  0.000 -0.936
       0.816  0.000  0.000  0.579  0.000
     occupation matrix ns (before diag.):
       0.994 -0.003 -0.000 -0.002  0.000
      -0.003  0.992 -0.000 -0.002  0.000
      -0.000 -0.000  0.993 -0.000  0.004
      -0.002 -0.002 -0.000  0.996 -0.000
       0.000  0.000  0.004 -0.000  0.990
     SPIN  2
     eigenvalues:
       0.118  0.118  0.993  0.994  0.994
     eigenvectors (columns):
      -0.000  0.532 -0.813 -0.000  0.238
      -0.000  0.802  0.574 -0.000  0.166
      -0.574 -0.000  0.000  0.819  0.000
      -0.000  0.271 -0.103  0.000 -0.957
       0.819  0.000  0.000  0.574  0.000
     occupation matrix ns (before diag.):
       0.746 -0.374  0.000 -0.127  0.000
      -0.374  0.430 -0.000 -0.191  0.000
       0.000 -0.000  0.706 -0.000  0.412
      -0.127 -0.191 -0.000  0.930 -0.000
       0.000  0.000  0.412 -0.000  0.406
     ------------------------ ATOM    2 ------------------------
     Tr[ns(  2)] (up, down, total) =   2.24975  4.95324  7.20299
     Atomic magnetic moment for atom   2 =  -2.70349
     SPIN  1
     eigenvalues:
       0.035  0.116  0.120  0.989  0.990
     eigenvectors (columns):
      -0.323  0.604  0.000  0.728  0.000
      -0.101  0.743  0.000 -0.662 -0.000
      -0.000  0.000 -0.681 -0.000  0.732
       0.941  0.287  0.000  0.179  0.000
       0.000 -0.000  0.732 -0.000  0.681
     occupation matrix ns (before diag.):
       0.570 -0.423  0.000  0.139  0.000
      -0.423  0.497 -0.000 -0.096  0.000
       0.000 -0.000  0.586 -0.000  0.434
       0.139 -0.096 -0.000  0.072 -0.000
       0.000  0.000  0.434 -0.000  0.524
     SPIN  2
     eigenvalues:
       0.983  0.983  0.995  0.996  0.997
     eigenvectors (columns):
      -0.605  0.000 -0.743  0.000 -0.287
      -0.740  0.000  0.657 -0.000 -0.142
      -0.000 -0.608  0.000  0.794 -0.000
      -0.294  0.000 -0.126  0.000  0.947
       0.000  0.794  0.000  0.608 -0.000
     occupation matrix ns (before diag.):
       0.991 -0.005 -0.000 -0.003  0.000
      -0.005  0.988 -0.000 -0.003  0.000
      -0.000 -0.000  0.991 -0.000  0.006
      -0.003 -0.003 -0.000  0.996 -0.000
       0.000  0.000  0.006 -0.000  0.988

     Number of occupied Hubbard levels =   15.3861

     HUBBARD ENERGY =    0.1643  (Ry)

     total cpu time spent up to now is       97.7 secs

     total energy              =   -1207.97924429 Ry
     estimated scf accuracy    <       0.00280491 Ry

     total magnetization       =    -1.00 Bohr mag/cell
     absolute magnetization    =     4.83 Bohr mag/cell

     iteration #  8     ecut=   120.00 Ry     beta= 0.70
     Davidson diagonalization with overlap

---- Real-time Memory Report at c_bands before calling an iterative solver
           263 MiB given to the printing process from OS
           226 MiB allocation reported by mallinfo(arena+hblkhd)
        655894 MiB available memory on the node where the printing process lives
------------------
     ethr =  2.53E-06,  avg # of iterations =  4.5

     =================== HUBBARD OCCUPATIONS ===================
     ------------------------ ATOM    1 ------------------------
     Tr[ns(  1)] (up, down, total) =   4.96594  3.22550  8.19144
     Atomic magnetic moment for atom   1 =   1.74044
     SPIN  1
     eigenvalues:
       0.988  0.989  0.996  0.997  0.997
     eigenvectors (columns):
      -0.000  0.584 -0.740 -0.000  0.334
      -0.000  0.756  0.645 -0.000  0.107
      -0.579 -0.000  0.000  0.815  0.000
      -0.000  0.294 -0.190  0.000 -0.937
       0.815  0.000  0.000  0.579  0.000
     occupation matrix ns (before diag.):
       0.994 -0.003 -0.000 -0.001  0.000
      -0.003  0.992 -0.000 -0.002  0.000
      -0.000 -0.000  0.994 -0.000  0.004
      -0.001 -0.002 -0.000  0.996 -0.000
       0.000  0.000  0.004 -0.000  0.991
     SPIN  2
     eigenvalues:
       0.121  0.121  0.994  0.994  0.995
     eigenvectors (columns):
      -0.000 -0.532 -0.816 -0.000 -0.227
      -0.000 -0.802  0.571 -0.000 -0.173
      -0.573  0.000  0.000  0.819 -0.000
      -0.000 -0.271 -0.090  0.000  0.958
       0.819 -0.000  0.000  0.573 -0.000
     occupation matrix ns (before diag.):
       0.747 -0.372  0.000 -0.126  0.000
      -0.372  0.432 -0.000 -0.190  0.000
       0.000 -0.000  0.708 -0.000  0.410
      -0.126 -0.190 -0.000  0.930 -0.000
       0.000  0.000  0.410 -0.000  0.408
     ------------------------ ATOM    2 ------------------------
     Tr[ns(  2)] (up, down, total) =   2.24589  4.95138  7.19727
     Atomic magnetic moment for atom   2 =  -2.70549
     SPIN  1
     eigenvalues:
       0.035  0.114  0.118  0.989  0.990
     eigenvectors (columns):
      -0.325  0.611  0.000  0.722  0.000
      -0.100  0.737  0.000 -0.669 -0.000
       0.000  0.000 -0.693 -0.000  0.721
       0.941  0.289  0.000  0.178  0.000
       0.000 -0.000  0.721 -0.000  0.693
     occupation matrix ns (before diag.):
       0.562 -0.425  0.000  0.137  0.000
      -0.425  0.504 -0.000 -0.097  0.000
       0.000 -0.000  0.571 -0.000  0.435
       0.137 -0.097 -0.000  0.072 -0.000
       0.000  0.000  0.435 -0.000  0.536
     SPIN  2
     eigenvalues:
       0.982  0.982  0.995  0.995  0.997
     eigenvectors (columns):
      -0.599  0.000 -0.747  0.000 -0.288
      -0.746  0.000  0.651 -0.000 -0.140
      -0.000 -0.598  0.000  0.801 -0.000
      -0.292  0.000 -0.131  0.000  0.947
       0.000  0.801  0.000  0.598 -0.000
     occupation matrix ns (before diag.):
       0.990 -0.006 -0.000 -0.003  0.000
      -0.006  0.988 -0.000 -0.003  0.000
      -0.000 -0.000  0.991 -0.000  0.006
      -0.003 -0.003 -0.000  0.996 -0.000
       0.000  0.000  0.006 -0.000  0.987

     Number of occupied Hubbard levels =   15.3887

     HUBBARD ENERGY =    0.1830  (Ry)

     total cpu time spent up to now is      112.1 secs

     total energy              =   -1207.97954513 Ry
     estimated scf accuracy    <       0.00070901 Ry

     total magnetization       =    -1.00 Bohr mag/cell
     absolute magnetization    =     4.83 Bohr mag/cell

     iteration #  9     ecut=   120.00 Ry     beta= 0.70
     Davidson diagonalization with overlap

---- Real-time Memory Report at c_bands before calling an iterative solver
           263 MiB given to the printing process from OS
           227 MiB allocation reported by mallinfo(arena+hblkhd)
        655868 MiB available memory on the node where the printing process lives
------------------
     ethr =  6.39E-07,  avg # of iterations =  2.3

     =================== HUBBARD OCCUPATIONS ===================
     ------------------------ ATOM    1 ------------------------
     Tr[ns(  1)] (up, down, total) =   4.96595  3.23495  8.20090
     Atomic magnetic moment for atom   1 =   1.73100
     SPIN  1
     eigenvalues:
       0.988  0.988  0.996  0.997  0.997
     eigenvectors (columns):
      -0.000  0.583 -0.742 -0.000  0.329
      -0.000  0.757  0.644 -0.000  0.110
      -0.579 -0.000  0.000  0.815  0.000
      -0.000  0.294 -0.185  0.000 -0.938
       0.815  0.000  0.000  0.579  0.000
     occupation matrix ns (before diag.):
       0.994 -0.003 -0.000 -0.001  0.000
      -0.003  0.992 -0.000 -0.002  0.000
      -0.000 -0.000  0.994 -0.000  0.004
      -0.001 -0.002 -0.000  0.996 -0.000
       0.000  0.000  0.004 -0.000  0.991
     SPIN  2
     eigenvalues:
       0.126  0.126  0.994  0.994  0.995
     eigenvectors (columns):
      -0.532  0.000 -0.816 -0.000 -0.225
      -0.802  0.000  0.571 -0.000 -0.175
      -0.000 -0.572  0.000  0.820 -0.000
      -0.271  0.000 -0.087  0.000  0.959
       0.000  0.820  0.000  0.572 -0.000
     occupation matrix ns (before diag.):
       0.748 -0.370  0.000 -0.125  0.000
      -0.370  0.435 -0.000 -0.189  0.000
       0.000 -0.000  0.710 -0.000  0.408
      -0.125 -0.189 -0.000  0.931 -0.000
       0.000  0.000  0.408 -0.000  0.411
     ------------------------ ATOM    2 ------------------------
     Tr[ns(  2)] (up, down, total) =   2.24403  4.95049  7.19452
     Atomic magnetic moment for atom   2 =  -2.70646
     SPIN  1
     eigenvalues:
       0.035  0.114  0.117  0.988  0.989
     eigenvectors (columns):
      -0.327  0.618  0.000  0.715  0.000
      -0.098  0.731  0.000 -0.676 -0.000
      -0.000  0.000 -0.705 -0.000  0.709
       0.940  0.291  0.000  0.179  0.000
       0.000 -0.000  0.709 -0.000  0.705
     occupation matrix ns (before diag.):
       0.553 -0.425  0.000  0.136  0.000
      -0.425  0.513 -0.000 -0.098  0.000
       0.000 -0.000  0.556 -0.000  0.436
       0.136 -0.098 -0.000  0.072 -0.000
       0.000  0.000  0.436 -0.000  0.551
     SPIN  2
     eigenvalues:
       0.982  0.982  0.995  0.995  0.997
     eigenvectors (columns):
      -0.592  0.000 -0.753  0.000 -0.289
      -0.752  0.000  0.645 -0.000 -0.139
      -0.000 -0.587  0.000  0.809 -0.000
      -0.291  0.000 -0.135  0.000  0.947
       0.000  0.809  0.000  0.587 -0.000
     occupation matrix ns (before diag.):
       0.990 -0.006 -0.000 -0.003  0.000
      -0.006  0.987 -0.000 -0.003  0.000
      -0.000 -0.000  0.991 -0.000  0.006
      -0.003 -0.003 -0.000  0.996 -0.000
       0.000  0.000  0.006 -0.000  0.986

     Number of occupied Hubbard levels =   15.3954

     HUBBARD ENERGY =    0.1746  (Ry)

     total cpu time spent up to now is      125.5 secs

     total energy              =   -1207.97994681 Ry
     estimated scf accuracy    <       0.00016365 Ry

     total magnetization       =    -1.00 Bohr mag/cell
     absolute magnetization    =     4.82 Bohr mag/cell

     iteration # 10     ecut=   120.00 Ry     beta= 0.70
     Davidson diagonalization with overlap

---- Real-time Memory Report at c_bands before calling an iterative solver
           264 MiB given to the printing process from OS
           227 MiB allocation reported by mallinfo(arena+hblkhd)
        659046 MiB available memory on the node where the printing process lives
------------------
     ethr =  1.47E-07,  avg # of iterations =  3.1

     =================== HUBBARD OCCUPATIONS ===================
     ------------------------ ATOM    1 ------------------------
     Tr[ns(  1)] (up, down, total) =   4.96640  3.23441  8.20081
     Atomic magnetic moment for atom   1 =   1.73199
     SPIN  1
     eigenvalues:
       0.988  0.989  0.996  0.997  0.997
     eigenvectors (columns):
      -0.000  0.583 -0.744 -0.000  0.325
      -0.000  0.757  0.643 -0.000  0.114
      -0.580 -0.000  0.000  0.815  0.000
      -0.000  0.294 -0.180  0.000 -0.939
       0.815  0.000  0.000  0.580  0.000
     occupation matrix ns (before diag.):
       0.994 -0.003 -0.000 -0.001  0.000
      -0.003  0.992 -0.000 -0.002  0.000
      -0.000 -0.000  0.994 -0.000  0.004
      -0.001 -0.002 -0.000  0.996 -0.000
       0.000  0.000  0.004 -0.000  0.991
     SPIN  2
     eigenvalues:
       0.125  0.126  0.994  0.995  0.995
     eigenvectors (columns):
      -0.532  0.000 -0.817 -0.000 -0.223
      -0.802  0.000  0.571 -0.000 -0.176
      -0.000 -0.572  0.000  0.820 -0.000
      -0.271  0.000 -0.085  0.000  0.959
       0.000  0.820  0.000  0.572 -0.000
     occupation matrix ns (before diag.):
       0.748 -0.370  0.000 -0.126  0.000
      -0.370  0.435 -0.000 -0.189  0.000
       0.000 -0.000  0.710 -0.000  0.408
      -0.126 -0.189 -0.000  0.931 -0.000
       0.000  0.000  0.408 -0.000  0.410
     ------------------------ ATOM    2 ------------------------
     Tr[ns(  2)] (up, down, total) =   2.24070  4.94997  7.19067
     Atomic magnetic moment for atom   2 =  -2.70928
     SPIN  1
     eigenvalues:
       0.034  0.113  0.116  0.988  0.989
     eigenvectors (columns):
      -0.329  0.623  0.000  0.710  0.000
      -0.095  0.726  0.000 -0.681 -0.000
       0.000  0.000 -0.714 -0.000  0.700
       0.939  0.292  0.000  0.180  0.000
       0.000 -0.000  0.700 -0.000  0.714
     occupation matrix ns (before diag.):
       0.545 -0.426  0.000  0.136  0.000
      -0.426  0.519 -0.000 -0.100  0.000
       0.000 -0.000  0.543 -0.000  0.437
       0.136 -0.100 -0.000  0.072 -0.000
       0.000  0.000  0.437 -0.000  0.562
     SPIN  2
     eigenvalues:
       0.982  0.982  0.995  0.995  0.997
     eigenvectors (columns):
      -0.000 -0.588 -0.755  0.000 -0.291
      -0.000 -0.755  0.641 -0.000 -0.138
      -0.581  0.000  0.000  0.814 -0.000
      -0.000 -0.291 -0.139  0.000  0.947
       0.814 -0.000  0.000  0.581 -0.000
     occupation matrix ns (before diag.):
       0.990 -0.006 -0.000 -0.003  0.000
      -0.006  0.987 -0.000 -0.003  0.000
      -0.000 -0.000  0.991 -0.000  0.006
      -0.003 -0.003 -0.000  0.996 -0.000
       0.000  0.000  0.006 -0.000  0.986

     Number of occupied Hubbard levels =   15.3915

     HUBBARD ENERGY =    0.1740  (Ry)

     total cpu time spent up to now is      140.3 secs

     total energy              =   -1207.98012146 Ry
     estimated scf accuracy    <       0.00004346 Ry

     total magnetization       =    -1.00 Bohr mag/cell
     absolute magnetization    =     4.83 Bohr mag/cell

     iteration # 11     ecut=   120.00 Ry     beta= 0.70
     Davidson diagonalization with overlap

---- Real-time Memory Report at c_bands before calling an iterative solver
           264 MiB given to the printing process from OS
           228 MiB allocation reported by mallinfo(arena+hblkhd)
        655720 MiB available memory on the node where the printing process lives
------------------
     ethr =  3.92E-08,  avg # of iterations =  2.5

     =================== HUBBARD OCCUPATIONS ===================
     ------------------------ ATOM    1 ------------------------
     Tr[ns(  1)] (up, down, total) =   4.96633  3.23281  8.19914
     Atomic magnetic moment for atom   1 =   1.73352
     SPIN  1
     eigenvalues:
       0.988  0.989  0.996  0.997  0.997
     eigenvectors (columns):
      -0.000  0.583 -0.745 -0.000  0.325
      -0.000  0.757  0.643 -0.000  0.114
      -0.580 -0.000  0.000  0.815  0.000
      -0.000  0.294 -0.179  0.000 -0.939
       0.815  0.000  0.000  0.580  0.000
     occupation matrix ns (before diag.):
       0.994 -0.003 -0.000 -0.001  0.000
      -0.003  0.992 -0.000 -0.002  0.000
      -0.000 -0.000  0.994 -0.000  0.004
      -0.001 -0.002 -0.000  0.996 -0.000
       0.000  0.000  0.004 -0.000  0.991
     SPIN  2
     eigenvalues:
       0.125  0.125  0.994  0.994  0.995
     eigenvectors (columns):
      -0.532  0.000 -0.817 -0.000 -0.222
      -0.802  0.000  0.570 -0.000 -0.177
      -0.000 -0.572  0.000  0.820 -0.000
      -0.271  0.000 -0.084  0.000  0.959
       0.000  0.820  0.000  0.572 -0.000
     occupation matrix ns (before diag.):
       0.748 -0.371  0.000 -0.126  0.000
      -0.371  0.435 -0.000 -0.189  0.000
       0.000 -0.000  0.710 -0.000  0.408
      -0.126 -0.189 -0.000  0.931 -0.000
       0.000  0.000  0.408 -0.000  0.409
     ------------------------ ATOM    2 ------------------------
     Tr[ns(  2)] (up, down, total) =   2.24089  4.95021  7.19110
     Atomic magnetic moment for atom   2 =  -2.70932
     SPIN  1
     eigenvalues:
       0.034  0.113  0.116  0.988  0.989
     eigenvectors (columns):
      -0.332  0.624  0.000  0.708  0.000
      -0.093  0.725  0.000 -0.683 -0.000
      -0.000  0.000 -0.718 -0.000  0.696
       0.939  0.292  0.000  0.183  0.000
       0.000 -0.000  0.696 -0.000  0.718
     occupation matrix ns (before diag.):
       0.543 -0.425  0.000  0.138  0.000
      -0.425  0.521 -0.000 -0.102  0.000
       0.000 -0.000  0.539 -0.000  0.437
       0.138 -0.102 -0.000  0.073 -0.000
       0.000  0.000  0.437 -0.000  0.566
     SPIN  2
     eigenvalues:
       0.982  0.982  0.995  0.995  0.997
     eigenvectors (columns):
      -0.000 -0.587 -0.755  0.000 -0.294
      -0.000 -0.756  0.640 -0.000 -0.135
      -0.579  0.000  0.000  0.816 -0.000
      -0.000 -0.290 -0.143  0.000  0.946
       0.816 -0.000  0.000  0.579 -0.000
     occupation matrix ns (before diag.):
       0.990 -0.006 -0.000 -0.003  0.000
      -0.006  0.987 -0.000 -0.003  0.000
      -0.000 -0.000  0.991 -0.000  0.006
      -0.003 -0.003 -0.000  0.996 -0.000
       0.000  0.000  0.006 -0.000  0.986

     Number of occupied Hubbard levels =   15.3902

     HUBBARD ENERGY =    0.1734  (Ry)

     total cpu time spent up to now is      153.2 secs

     total energy              =   -1207.98014155 Ry
     estimated scf accuracy    <       0.00001766 Ry

     total magnetization       =    -1.00 Bohr mag/cell
     absolute magnetization    =     4.83 Bohr mag/cell

     iteration # 12     ecut=   120.00 Ry     beta= 0.70
     Davidson diagonalization with overlap

---- Real-time Memory Report at c_bands before calling an iterative solver
           264 MiB given to the printing process from OS
           228 MiB allocation reported by mallinfo(arena+hblkhd)
        659038 MiB available memory on the node where the printing process lives
------------------
     ethr =  1.59E-08,  avg # of iterations =  3.0

     =================== HUBBARD OCCUPATIONS ===================
     ------------------------ ATOM    1 ------------------------
     Tr[ns(  1)] (up, down, total) =   4.96633  3.23264  8.19897
     Atomic magnetic moment for atom   1 =   1.73369
     SPIN  1
     eigenvalues:
       0.988  0.989  0.996  0.997  0.997
     eigenvectors (columns):
      -0.000  0.583 -0.745 -0.000  0.324
      -0.000  0.757  0.643 -0.000  0.115
      -0.580 -0.000  0.000  0.815  0.000
      -0.000  0.294 -0.178  0.000 -0.939
       0.815  0.000  0.000  0.580  0.000
     occupation matrix ns (before diag.):
       0.994 -0.003 -0.000 -0.001  0.000
      -0.003  0.992 -0.000 -0.002  0.000
      -0.000 -0.000  0.994 -0.000  0.004
      -0.001 -0.002 -0.000  0.996 -0.000
       0.000  0.000  0.004 -0.000  0.991
     SPIN  2
     eigenvalues:
       0.125  0.125  0.994  0.994  0.995
     eigenvectors (columns):
      -0.532  0.000 -0.817 -0.000 -0.221
      -0.802  0.000  0.570 -0.000 -0.178
      -0.000 -0.571  0.000  0.821 -0.000
      -0.271  0.000 -0.083  0.000  0.959
       0.000  0.821  0.000  0.571 -0.000
     occupation matrix ns (before diag.):
       0.748 -0.371  0.000 -0.126  0.000
      -0.371  0.435 -0.000 -0.189  0.000
       0.000 -0.000  0.711 -0.000  0.408
      -0.126 -0.189 -0.000  0.931 -0.000
       0.000  0.000  0.408 -0.000  0.409
     ------------------------ ATOM    2 ------------------------
     Tr[ns(  2)] (up, down, total) =   2.24049  4.95019  7.19068
     Atomic magnetic moment for atom   2 =  -2.70970
     SPIN  1
     eigenvalues:
       0.034  0.113  0.115  0.988  0.989
     eigenvectors (columns):
      -0.335  0.626  0.000  0.704  0.000
      -0.090  0.723  0.000 -0.685 -0.000
      -0.000  0.000 -0.723 -0.000  0.691
       0.938  0.293  0.000  0.186  0.000
       0.000 -0.000  0.691 -0.000  0.723
     occupation matrix ns (before diag.):
       0.539 -0.425  0.000  0.139  0.000
      -0.425  0.523 -0.000 -0.105  0.000
       0.000 -0.000  0.533 -0.000  0.437
       0.139 -0.105 -0.000  0.074 -0.000
       0.000  0.000  0.437 -0.000  0.572
     SPIN  2
     eigenvalues:
       0.982  0.982  0.995  0.995  0.997
     eigenvectors (columns):
      -0.000 -0.585 -0.755  0.000 -0.297
      -0.000 -0.758  0.639 -0.000 -0.133
      -0.575  0.000  0.000  0.818 -0.000
      -0.000 -0.290 -0.148  0.000  0.945
       0.818 -0.000  0.000  0.575 -0.000
     occupation matrix ns (before diag.):
       0.990 -0.006 -0.000 -0.003  0.000
      -0.006  0.987 -0.000 -0.003  0.000
      -0.000 -0.000  0.991 -0.000  0.006
      -0.003 -0.003 -0.000  0.996 -0.000
       0.000  0.000  0.006 -0.000  0.986

     Number of occupied Hubbard levels =   15.3897

     HUBBARD ENERGY =    0.1726  (Ry)

     total cpu time spent up to now is      167.3 secs

     total energy              =   -1207.98017504 Ry
     estimated scf accuracy    <       0.00000846 Ry

     total magnetization       =    -1.00 Bohr mag/cell
     absolute magnetization    =     4.83 Bohr mag/cell

     iteration # 13     ecut=   120.00 Ry     beta= 0.70
     Davidson diagonalization with overlap

---- Real-time Memory Report at c_bands before calling an iterative solver
           264 MiB given to the printing process from OS
           228 MiB allocation reported by mallinfo(arena+hblkhd)
        655689 MiB available memory on the node where the printing process lives
------------------
     ethr =  7.62E-09,  avg # of iterations =  3.0

     =================== HUBBARD OCCUPATIONS ===================
     ------------------------ ATOM    1 ------------------------
     Tr[ns(  1)] (up, down, total) =   4.96636  3.23241  8.19877
     Atomic magnetic moment for atom   1 =   1.73394
     SPIN  1
     eigenvalues:
       0.988  0.989  0.996  0.997  0.997
     eigenvectors (columns):
      -0.000  0.583 -0.745 -0.000  0.323
      -0.000  0.757  0.643 -0.000  0.115
      -0.580 -0.000  0.000  0.814  0.000
      -0.000  0.294 -0.178  0.000 -0.939
       0.814  0.000  0.000  0.580  0.000
     occupation matrix ns (before diag.):
       0.994 -0.003 -0.000 -0.001  0.000
      -0.003  0.992 -0.000 -0.002  0.000
      -0.000 -0.000  0.994 -0.000  0.004
      -0.001 -0.002 -0.000  0.996 -0.000
       0.000  0.000  0.004 -0.000  0.991
     SPIN  2
     eigenvalues:
       0.125  0.125  0.994  0.994  0.995
     eigenvectors (columns):
      -0.532  0.000 -0.817 -0.000 -0.221
      -0.802  0.000  0.570 -0.000 -0.178
      -0.000 -0.571  0.000  0.821 -0.000
      -0.271  0.000 -0.083  0.000  0.959
       0.000  0.821  0.000  0.571 -0.000
     occupation matrix ns (before diag.):
       0.748 -0.371  0.000 -0.126  0.000
      -0.371  0.435 -0.000 -0.189  0.000
       0.000 -0.000  0.711 -0.000  0.408
      -0.126 -0.189 -0.000  0.931 -0.000
       0.000  0.000  0.408 -0.000  0.408
     ------------------------ ATOM    2 ------------------------
     Tr[ns(  2)] (up, down, total) =   2.24047  4.95027  7.19074
     Atomic magnetic moment for atom   2 =  -2.70979
     SPIN  1
     eigenvalues:
       0.034  0.114  0.115  0.989  0.989
     eigenvectors (columns):
      -0.339  0.626  0.000  0.702  0.000
      -0.087  0.722  0.000 -0.686 -0.000
      -0.000  0.000 -0.726 -0.000  0.688
       0.937  0.294  0.000  0.191  0.000
       0.000 -0.000  0.688 -0.000  0.726
     occupation matrix ns (before diag.):
       0.535 -0.424  0.000  0.142  0.000
      -0.424  0.525 -0.000 -0.108  0.000
       0.000 -0.000  0.528 -0.000  0.436
       0.142 -0.108 -0.000  0.076 -0.000
       0.000  0.000  0.436 -0.000  0.576
     SPIN  2
     eigenvalues:
       0.982  0.982  0.995  0.995  0.997
     eigenvectors (columns):
      -0.000 -0.584 -0.754  0.000 -0.302
      -0.000 -0.758  0.639 -0.000 -0.129
      -0.573  0.000  0.000  0.820 -0.000
      -0.000 -0.290 -0.153  0.000  0.945
       0.820 -0.000  0.000  0.573 -0.000
     occupation matrix ns (before diag.):
       0.990 -0.006 -0.000 -0.003  0.000
      -0.006  0.987 -0.000 -0.003  0.000
      -0.000 -0.000  0.991 -0.000  0.006
      -0.003 -0.003 -0.000  0.996 -0.000
       0.000  0.000  0.006 -0.000  0.986

     Number of occupied Hubbard levels =   15.3895

     HUBBARD ENERGY =    0.1726  (Ry)

     total cpu time spent up to now is      181.2 secs

     total energy              =   -1207.98020572 Ry
     estimated scf accuracy    <       0.00000469 Ry

     total magnetization       =    -1.00 Bohr mag/cell
     absolute magnetization    =     4.83 Bohr mag/cell

     iteration # 14     ecut=   120.00 Ry     beta= 0.70
     Davidson diagonalization with overlap

---- Real-time Memory Report at c_bands before calling an iterative solver
           264 MiB given to the printing process from OS
           228 MiB allocation reported by mallinfo(arena+hblkhd)
        662366 MiB available memory on the node where the printing process lives
------------------
     ethr =  4.23E-09,  avg # of iterations =  2.0

     =================== HUBBARD OCCUPATIONS ===================
     ------------------------ ATOM    1 ------------------------
     Tr[ns(  1)] (up, down, total) =   4.96634  3.23242  8.19877
     Atomic magnetic moment for atom   1 =   1.73392
     SPIN  1
     eigenvalues:
       0.988  0.989  0.996  0.997  0.997
     eigenvectors (columns):
      -0.000  0.583 -0.745 -0.000  0.323
      -0.000  0.757  0.643 -0.000  0.116
      -0.580 -0.000  0.000  0.814  0.000
      -0.000  0.294 -0.177  0.000 -0.939
       0.814  0.000  0.000  0.580  0.000
     occupation matrix ns (before diag.):
       0.994 -0.003 -0.000 -0.001  0.000
      -0.003  0.992 -0.000 -0.002  0.000
      -0.000 -0.000  0.994 -0.000  0.004
      -0.001 -0.002 -0.000  0.996 -0.000
       0.000  0.000  0.004 -0.000  0.991
     SPIN  2
     eigenvalues:
       0.125  0.125  0.994  0.994  0.995
     eigenvectors (columns):
      -0.532  0.000 -0.817 -0.000 -0.221
      -0.802  0.000  0.570 -0.000 -0.178
      -0.000 -0.571  0.000  0.821 -0.000
      -0.271  0.000 -0.083  0.000  0.959
       0.000  0.821  0.000  0.571 -0.000
     occupation matrix ns (before diag.):
       0.748 -0.371  0.000 -0.126  0.000
      -0.371  0.435 -0.000 -0.189  0.000
       0.000 -0.000  0.711 -0.000  0.408
      -0.126 -0.189 -0.000  0.931 -0.000
       0.000  0.000  0.408 -0.000  0.408
     ------------------------ ATOM    2 ------------------------
     Tr[ns(  2)] (up, down, total) =   2.24054  4.95029  7.19083
     Atomic magnetic moment for atom   2 =  -2.70975
     SPIN  1
     eigenvalues:
       0.034  0.114  0.115  0.989  0.989
     eigenvectors (columns):
      -0.342  0.626  0.000  0.700  0.000
      -0.084  0.722  0.000 -0.687 -0.000
       0.000  0.000 -0.727 -0.000  0.687
       0.936  0.294  0.000  0.194  0.000
       0.000 -0.000  0.687 -0.000  0.727
     occupation matrix ns (before diag.):
       0.534 -0.423  0.000  0.145  0.000
      -0.423  0.526 -0.000 -0.111  0.000
       0.000 -0.000  0.528 -0.000  0.436
       0.145 -0.111 -0.000  0.077 -0.000
       0.000  0.000  0.436 -0.000  0.577
     SPIN  2
     eigenvalues:
       0.982  0.982  0.995  0.995  0.997
     eigenvectors (columns):
      -0.000 -0.584 -0.752 -0.000 -0.305
      -0.000 -0.758  0.640 -0.000 -0.127
      -0.573  0.000  0.000  0.820 -0.000
      -0.000 -0.290 -0.157  0.000  0.944
       0.820 -0.000  0.000  0.573 -0.000
     occupation matrix ns (before diag.):
       0.990 -0.006 -0.000 -0.003  0.000
      -0.006  0.987 -0.000 -0.003  0.000
      -0.000 -0.000  0.991 -0.000  0.006
      -0.003 -0.003 -0.000  0.996 -0.000
       0.000  0.000  0.006 -0.000  0.986

     Number of occupied Hubbard levels =   15.3896

     HUBBARD ENERGY =    0.1724  (Ry)

     total cpu time spent up to now is      193.8 secs

     total energy              =   -1207.98018275 Ry
     estimated scf accuracy    <       0.00000357 Ry

     total magnetization       =    -1.00 Bohr mag/cell
     absolute magnetization    =     4.83 Bohr mag/cell

     iteration # 15     ecut=   120.00 Ry     beta= 0.70
     Davidson diagonalization with overlap

---- Real-time Memory Report at c_bands before calling an iterative solver
           264 MiB given to the printing process from OS
           228 MiB allocation reported by mallinfo(arena+hblkhd)
        657242 MiB available memory on the node where the printing process lives
------------------
     ethr =  3.21E-09,  avg # of iterations =  3.2

     =================== HUBBARD OCCUPATIONS ===================
     ------------------------ ATOM    1 ------------------------
     Tr[ns(  1)] (up, down, total) =   4.96634  3.23242  8.19877
     Atomic magnetic moment for atom   1 =   1.73392
     SPIN  1
     eigenvalues:
       0.988  0.989  0.996  0.997  0.997
     eigenvectors (columns):
      -0.000  0.583 -0.746 -0.000  0.322
      -0.000  0.757  0.642 -0.000  0.117
      -0.580 -0.000  0.000  0.814  0.000
      -0.000  0.294 -0.176  0.000 -0.939
       0.814  0.000  0.000  0.580  0.000
     occupation matrix ns (before diag.):
       0.994 -0.003 -0.000 -0.001  0.000
      -0.003  0.992 -0.000 -0.002  0.000
      -0.000 -0.000  0.994 -0.000  0.004
      -0.001 -0.002 -0.000  0.996 -0.000
       0.000  0.000  0.004 -0.000  0.991
     SPIN  2
     eigenvalues:
       0.125  0.125  0.994  0.994  0.995
     eigenvectors (columns):
      -0.533  0.000 -0.817 -0.000 -0.221
      -0.802  0.000  0.571 -0.000 -0.178
      -0.000 -0.571  0.000  0.821 -0.000
      -0.271  0.000 -0.083  0.000  0.959
       0.000  0.821  0.000  0.571 -0.000
     occupation matrix ns (before diag.):
       0.747 -0.371  0.000 -0.126  0.000
      -0.371  0.435 -0.000 -0.189  0.000
       0.000 -0.000  0.711 -0.000  0.408
      -0.126 -0.189 -0.000  0.931 -0.000
       0.000  0.000  0.408 -0.000  0.408
     ------------------------ ATOM    2 ------------------------
     Tr[ns(  2)] (up, down, total) =   2.24035  4.95026  7.19061
     Atomic magnetic moment for atom   2 =  -2.70991
     SPIN  1
     eigenvalues:
       0.034  0.114  0.115  0.989  0.989
     eigenvectors (columns):
      -0.350  0.626  0.000  0.697  0.000
      -0.078  0.722  0.000 -0.688 -0.000
       0.000  0.000 -0.728 -0.000  0.686
       0.934  0.295  0.000  0.203  0.000
       0.000 -0.000  0.686 -0.000  0.728
     occupation matrix ns (before diag.):
       0.529 -0.421  0.000  0.150  0.000
      -0.421  0.527 -0.000 -0.116  0.000
       0.000 -0.000  0.526 -0.000  0.436
       0.150 -0.116 -0.000  0.080 -0.000
       0.000  0.000  0.436 -0.000  0.578
     SPIN  2
     eigenvalues:
       0.982  0.982  0.995  0.995  0.997
     eigenvectors (columns):
      -0.000 -0.584 -0.749  0.000 -0.313
      -0.000 -0.758  0.641 -0.000 -0.121
      -0.572  0.000  0.000  0.820 -0.000
      -0.000 -0.291 -0.166  0.000  0.942
       0.820 -0.000  0.000  0.572 -0.000
     occupation matrix ns (before diag.):
       0.991 -0.006 -0.000 -0.003  0.000
      -0.006  0.987 -0.000 -0.003  0.000
      -0.000 -0.000  0.991 -0.000  0.006
      -0.003 -0.003 -0.000  0.996 -0.000
       0.000  0.000  0.006 -0.000  0.986

     Number of occupied Hubbard levels =   15.3894

     HUBBARD ENERGY =    0.1725  (Ry)

     total cpu time spent up to now is      208.3 secs

     total energy              =   -1207.98020681 Ry
     estimated scf accuracy    <       0.00000234 Ry

     total magnetization       =    -1.00 Bohr mag/cell
     absolute magnetization    =     4.83 Bohr mag/cell

     iteration # 16     ecut=   120.00 Ry     beta= 0.70
     Davidson diagonalization with overlap

---- Real-time Memory Report at c_bands before calling an iterative solver
           264 MiB given to the printing process from OS
           228 MiB allocation reported by mallinfo(arena+hblkhd)
        662362 MiB available memory on the node where the printing process lives
------------------
     ethr =  2.11E-09,  avg # of iterations =  3.4

     =================== HUBBARD OCCUPATIONS ===================
     ------------------------ ATOM    1 ------------------------
     Tr[ns(  1)] (up, down, total) =   4.96635  3.23246  8.19880
     Atomic magnetic moment for atom   1 =   1.73389
     SPIN  1
     eigenvalues:
       0.988  0.989  0.996  0.997  0.997
     eigenvectors (columns):
      -0.000  0.583 -0.746 -0.000  0.321
      -0.000  0.758  0.642 -0.000  0.118
      -0.581 -0.000  0.000  0.814  0.000
      -0.000  0.294 -0.175  0.000 -0.940
       0.814  0.000  0.000  0.581  0.000
     occupation matrix ns (before diag.):
       0.994 -0.003 -0.000 -0.001  0.000
      -0.003  0.992 -0.000 -0.002  0.000
      -0.000 -0.000  0.994 -0.000  0.004
      -0.001 -0.002 -0.000  0.996 -0.000
       0.000  0.000  0.004 -0.000  0.991
     SPIN  2
     eigenvalues:
       0.125  0.125  0.994  0.994  0.995
     eigenvectors (columns):
      -0.533  0.000 -0.817 -0.000 -0.221
      -0.802  0.000  0.571 -0.000 -0.178
      -0.000 -0.571  0.000  0.821 -0.000
      -0.271  0.000 -0.082  0.000  0.959
       0.000  0.821  0.000  0.571 -0.000
     occupation matrix ns (before diag.):
       0.747 -0.371  0.000 -0.126  0.000
      -0.371  0.435 -0.000 -0.189  0.000
       0.000 -0.000  0.711 -0.000  0.408
      -0.126 -0.189 -0.000  0.931 -0.000
       0.000  0.000  0.408 -0.000  0.408
     ------------------------ ATOM    2 ------------------------
     Tr[ns(  2)] (up, down, total) =   2.24030  4.95026  7.19056
     Atomic magnetic moment for atom   2 =  -2.70997
     SPIN  1
     eigenvalues:
       0.034  0.114  0.115  0.989  0.989
     eigenvectors (columns):
      -0.356  0.626  0.000  0.694  0.000
      -0.073  0.722  0.000 -0.689 -0.000
      -0.000  0.000 -0.728 -0.000  0.686
       0.932  0.296  0.000  0.211  0.000
       0.000 -0.000  0.686 -0.000  0.728
     occupation matrix ns (before diag.):
       0.525 -0.420  0.000  0.155  0.000
      -0.420  0.528 -0.000 -0.122  0.000
       0.000 -0.000  0.526 -0.000  0.437
       0.155 -0.122 -0.000  0.084 -0.000
       0.000  0.000  0.437 -0.000  0.578
     SPIN  2
     eigenvalues:
       0.981  0.982  0.995  0.995  0.997
     eigenvectors (columns):
      -0.000 -0.585 -0.746 -0.000 -0.320
      -0.000 -0.757  0.643 -0.000 -0.115
      -0.572  0.000  0.000  0.820 -0.000
      -0.000 -0.291 -0.175  0.000  0.941
       0.820 -0.000  0.000  0.572 -0.000
     occupation matrix ns (before diag.):
       0.991 -0.006 -0.000 -0.003  0.000
      -0.006  0.987 -0.000 -0.003  0.000
      -0.000 -0.000  0.991 -0.000  0.006
      -0.003 -0.003 -0.000  0.996 -0.000
       0.000  0.000  0.006 -0.000  0.986

     Number of occupied Hubbard levels =   15.3894

     HUBBARD ENERGY =    0.1725  (Ry)

     total cpu time spent up to now is      222.9 secs

     total energy              =   -1207.98021244 Ry
     estimated scf accuracy    <       0.00000160 Ry

     total magnetization       =    -1.00 Bohr mag/cell
     absolute magnetization    =     4.83 Bohr mag/cell

     iteration # 17     ecut=   120.00 Ry     beta= 0.70
     Davidson diagonalization with overlap

---- Real-time Memory Report at c_bands before calling an iterative solver
           264 MiB given to the printing process from OS
           228 MiB allocation reported by mallinfo(arena+hblkhd)
        657101 MiB available memory on the node where the printing process lives
------------------
     ethr =  1.44E-09,  avg # of iterations =  3.8

     =================== HUBBARD OCCUPATIONS ===================
     ------------------------ ATOM    1 ------------------------
     Tr[ns(  1)] (up, down, total) =   4.96635  3.23244  8.19879
     Atomic magnetic moment for atom   1 =   1.73391
     SPIN  1
     eigenvalues:
       0.988  0.989  0.996  0.997  0.997
     eigenvectors (columns):
      -0.000  0.583 -0.747 -0.000  0.320
      -0.000  0.758  0.642 -0.000  0.119
      -0.581 -0.000  0.000  0.814  0.000
      -0.000  0.294 -0.173  0.000 -0.940
       0.814  0.000  0.000  0.581  0.000
     occupation matrix ns (before diag.):
       0.994 -0.003 -0.000 -0.001  0.000
      -0.003  0.992 -0.000 -0.002  0.000
      -0.000 -0.000  0.994 -0.000  0.004
      -0.001 -0.002 -0.000  0.996 -0.000
       0.000  0.000  0.004 -0.000  0.991
     SPIN  2
     eigenvalues:
       0.125  0.125  0.994  0.994  0.995
     eigenvectors (columns):
      -0.533  0.000 -0.817 -0.000 -0.221
      -0.802  0.000  0.571 -0.000 -0.178
      -0.000 -0.571  0.000  0.821 -0.000
      -0.271  0.000 -0.082  0.000  0.959
       0.000  0.821  0.000  0.571 -0.000
     occupation matrix ns (before diag.):
       0.747 -0.371  0.000 -0.126  0.000
      -0.371  0.435 -0.000 -0.189  0.000
       0.000 -0.000  0.711 -0.000  0.408
      -0.126 -0.189 -0.000  0.931 -0.000
       0.000  0.000  0.408 -0.000  0.408
     ------------------------ ATOM    2 ------------------------
     Tr[ns(  2)] (up, down, total) =   2.24029  4.95027  7.19056
     Atomic magnetic moment for atom   2 =  -2.70999
     SPIN  1
     eigenvalues:
       0.034  0.114  0.115  0.989  0.989
     eigenvectors (columns):
      -0.363  0.626  0.000  0.690  0.000
      -0.067  0.721  0.000 -0.690 -0.000
      -0.000  0.000 -0.727 -0.000  0.686
       0.929  0.297  0.000  0.220  0.000
       0.000 -0.000  0.686 -0.000  0.727
     occupation matrix ns (before diag.):
       0.520 -0.418  0.000  0.159  0.000
      -0.418  0.530 -0.000 -0.128  0.000
       0.000 -0.000  0.526 -0.000  0.437
       0.159 -0.128 -0.000  0.087 -0.000
       0.000  0.000  0.437 -0.000  0.577
     SPIN  2
     eigenvalues:
       0.981  0.982  0.995  0.995  0.997
     eigenvectors (columns):
      -0.000 -0.585 -0.742 -0.000 -0.327
      -0.000 -0.757  0.644 -0.000 -0.109
      -0.572  0.000  0.000  0.820 -0.000
      -0.000 -0.292 -0.183  0.000  0.939
       0.820 -0.000  0.000  0.572 -0.000
     occupation matrix ns (before diag.):
       0.991 -0.006 -0.000 -0.003  0.000
      -0.006  0.987 -0.000 -0.003  0.000
      -0.000 -0.000  0.991 -0.000  0.006
      -0.003 -0.003 -0.000  0.996 -0.000
       0.000  0.000  0.006 -0.000  0.986

     Number of occupied Hubbard levels =   15.3894

     HUBBARD ENERGY =    0.1725  (Ry)

     total cpu time spent up to now is      238.3 secs

     total energy              =   -1207.98022741 Ry
     estimated scf accuracy    <       0.00000110 Ry

     total magnetization       =    -1.00 Bohr mag/cell
     absolute magnetization    =     4.83 Bohr mag/cell

     iteration # 18     ecut=   120.00 Ry     beta= 0.70
     Davidson diagonalization with overlap

---- Real-time Memory Report at c_bands before calling an iterative solver
           264 MiB given to the printing process from OS
           228 MiB allocation reported by mallinfo(arena+hblkhd)
        657100 MiB available memory on the node where the printing process lives
------------------
     ethr =  9.95E-10,  avg # of iterations =  3.9

     =================== HUBBARD OCCUPATIONS ===================
     ------------------------ ATOM    1 ------------------------
     Tr[ns(  1)] (up, down, total) =   4.96635  3.23244  8.19879
     Atomic magnetic moment for atom   1 =   1.73392
     SPIN  1
     eigenvalues:
       0.988  0.989  0.996  0.997  0.997
     eigenvectors (columns):
      -0.000  0.583 -0.748 -0.000  0.319
      -0.000  0.758  0.642 -0.000  0.120
      -0.580 -0.000  0.000  0.814  0.000
      -0.000  0.294 -0.172  0.000 -0.940
       0.814  0.000  0.000  0.580  0.000
     occupation matrix ns (before diag.):
       0.994 -0.003 -0.000 -0.001  0.000
      -0.003  0.992 -0.000 -0.002  0.000
      -0.000 -0.000  0.994 -0.000  0.004
      -0.001 -0.002 -0.000  0.996 -0.000
       0.000  0.000  0.004 -0.000  0.991
     SPIN  2
     eigenvalues:
       0.125  0.125  0.994  0.994  0.995
     eigenvectors (columns):
      -0.533  0.000 -0.817 -0.000 -0.220
      -0.802  0.000  0.571 -0.000 -0.178
      -0.000 -0.571  0.000  0.821 -0.000
      -0.271  0.000 -0.082  0.000  0.959
       0.000  0.821  0.000  0.571 -0.000
     occupation matrix ns (before diag.):
       0.747 -0.371  0.000 -0.126  0.000
      -0.371  0.435 -0.000 -0.189  0.000
       0.000 -0.000  0.711 -0.000  0.408
      -0.126 -0.189 -0.000  0.931 -0.000
       0.000  0.000  0.408 -0.000  0.408
     ------------------------ ATOM    2 ------------------------
     Tr[ns(  2)] (up, down, total) =   2.24030  4.95027  7.19057
     Atomic magnetic moment for atom   2 =  -2.70998
     SPIN  1
     eigenvalues:
       0.034  0.114  0.114  0.989  0.989
     eigenvectors (columns):
      -0.370  0.627  0.000  0.685  0.000
      -0.062  0.719  0.000 -0.692 -0.000
       0.000  0.000 -0.726 -0.000  0.687
       0.927  0.298  0.000  0.227  0.000
       0.000 -0.000  0.687 -0.000  0.726
     occupation matrix ns (before diag.):
       0.514 -0.417  0.000  0.164  0.000
      -0.417  0.532 -0.000 -0.133  0.000
       0.000 -0.000  0.528 -0.000  0.437
       0.164 -0.133 -0.000  0.090 -0.000
       0.000  0.000  0.437 -0.000  0.576
     SPIN  2
     eigenvalues:
       0.981  0.982  0.995  0.995  0.997
     eigenvectors (columns):
      -0.000 -0.585 -0.740 -0.000 -0.333
      -0.000 -0.757  0.645 -0.000 -0.104
      -0.573  0.000  0.000  0.820 -0.000
      -0.000 -0.292 -0.191  0.000  0.937
       0.820 -0.000  0.000  0.573 -0.000
     occupation matrix ns (before diag.):
       0.991 -0.006 -0.000 -0.003  0.000
      -0.006  0.987 -0.000 -0.003  0.000
      -0.000 -0.000  0.991 -0.000  0.006
      -0.003 -0.003 -0.000  0.996 -0.000
       0.000  0.000  0.006 -0.000  0.986

     Number of occupied Hubbard levels =   15.3894

     HUBBARD ENERGY =    0.1724  (Ry)

     total cpu time spent up to now is      254.2 secs

     total energy              =   -1207.98020343 Ry
     estimated scf accuracy    <       0.00000073 Ry

     total magnetization       =    -1.00 Bohr mag/cell
     absolute magnetization    =     4.83 Bohr mag/cell

     iteration # 19     ecut=   120.00 Ry     beta= 0.70
     Davidson diagonalization with overlap

---- Real-time Memory Report at c_bands before calling an iterative solver
           264 MiB given to the printing process from OS
           228 MiB allocation reported by mallinfo(arena+hblkhd)
        657100 MiB available memory on the node where the printing process lives
------------------
     ethr =  6.60E-10,  avg # of iterations =  4.5

     =================== HUBBARD OCCUPATIONS ===================
     ------------------------ ATOM    1 ------------------------
     Tr[ns(  1)] (up, down, total) =   4.96635  3.23241  8.19876
     Atomic magnetic moment for atom   1 =   1.73394
     SPIN  1
     eigenvalues:
       0.988  0.989  0.996  0.997  0.997
     eigenvectors (columns):
      -0.000  0.583 -0.748 -0.000  0.317
      -0.000  0.758  0.641 -0.000  0.121
      -0.580 -0.000  0.000  0.814  0.000
      -0.000  0.294 -0.170  0.000 -0.941
       0.814  0.000  0.000  0.580  0.000
     occupation matrix ns (before diag.):
       0.994 -0.003 -0.000 -0.001  0.000
      -0.003  0.992 -0.000 -0.002  0.000
      -0.000 -0.000  0.994 -0.000  0.004
      -0.001 -0.002 -0.000  0.996 -0.000
       0.000  0.000  0.004 -0.000  0.991
     SPIN  2
     eigenvalues:
       0.125  0.125  0.994  0.994  0.995
     eigenvectors (columns):
      -0.533  0.000 -0.817 -0.000 -0.220
      -0.802  0.000  0.571 -0.000 -0.178
      -0.000 -0.571  0.000  0.821 -0.000
      -0.271  0.000 -0.082  0.000  0.959
       0.000  0.821  0.000  0.571 -0.000
     occupation matrix ns (before diag.):
       0.747 -0.371  0.000 -0.126  0.000
      -0.371  0.435 -0.000 -0.189  0.000
       0.000 -0.000  0.711 -0.000  0.408
      -0.126 -0.189 -0.000  0.931 -0.000
       0.000  0.000  0.408 -0.000  0.408
     ------------------------ ATOM    2 ------------------------
     Tr[ns(  2)] (up, down, total) =   2.24028  4.95027  7.19055
     Atomic magnetic moment for atom   2 =  -2.70999
     SPIN  1
     eigenvalues:
       0.034  0.114  0.114  0.989  0.989
     eigenvectors (columns):
      -0.378  0.629  0.000  0.679  0.000
      -0.055  0.717  0.000 -0.695 -0.000
       0.000  0.000 -0.725 -0.000  0.689
       0.924  0.300  0.000  0.236  0.000
       0.000 -0.000  0.689 -0.000  0.725
     occupation matrix ns (before diag.):
       0.506 -0.414  0.000  0.168  0.000
      -0.414  0.536 -0.000 -0.139  0.000
       0.000 -0.000  0.530 -0.000  0.437
       0.168 -0.139 -0.000  0.094 -0.000
       0.000  0.000  0.437 -0.000  0.574
     SPIN  2
     eigenvalues:
       0.981  0.982  0.995  0.995  0.997
     eigenvectors (columns):
      -0.000 -0.584 -0.736 -0.000 -0.341
      -0.000 -0.757  0.646 -0.000 -0.097
      -0.573  0.000  0.000  0.819 -0.000
      -0.000 -0.292 -0.201  0.000  0.935
       0.819 -0.000  0.000  0.573 -0.000
     occupation matrix ns (before diag.):
       0.991 -0.006 -0.000 -0.003  0.000
      -0.006  0.987 -0.000 -0.003  0.000
      -0.000 -0.000  0.991 -0.000  0.006
      -0.003 -0.003 -0.000  0.996 -0.000
       0.000  0.000  0.006 -0.000  0.986

     Number of occupied Hubbard levels =   15.3893

     HUBBARD ENERGY =    0.1724  (Ry)

     total cpu time spent up to now is      271.8 secs

     total energy              =   -1207.98023432 Ry
     estimated scf accuracy    <       0.00000033 Ry

     total magnetization       =    -1.00 Bohr mag/cell
     absolute magnetization    =     4.83 Bohr mag/cell

     iteration # 20     ecut=   120.00 Ry     beta= 0.70
     Davidson diagonalization with overlap

---- Real-time Memory Report at c_bands before calling an iterative solver
           264 MiB given to the printing process from OS
           228 MiB allocation reported by mallinfo(arena+hblkhd)
        657110 MiB available memory on the node where the printing process lives
------------------
     ethr =  3.01E-10,  avg # of iterations =  5.1

     =================== HUBBARD OCCUPATIONS ===================
     ------------------------ ATOM    1 ------------------------
     Tr[ns(  1)] (up, down, total) =   4.96635  3.23242  8.19877
     Atomic magnetic moment for atom   1 =   1.73394
     SPIN  1
     eigenvalues:
       0.988  0.989  0.996  0.997  0.997
     eigenvectors (columns):
      -0.000  0.583 -0.749 -0.000  0.316
      -0.000  0.758  0.641 -0.000  0.122
      -0.580 -0.000  0.000  0.814  0.000
      -0.000  0.294 -0.169  0.000 -0.941
       0.814  0.000  0.000  0.580  0.000
     occupation matrix ns (before diag.):
       0.994 -0.003 -0.000 -0.001  0.000
      -0.003  0.992 -0.000 -0.002  0.000
      -0.000 -0.000  0.994 -0.000  0.004
      -0.001 -0.002 -0.000  0.996 -0.000
       0.000  0.000  0.004 -0.000  0.991
     SPIN  2
     eigenvalues:
       0.125  0.125  0.994  0.994  0.995
     eigenvectors (columns):
      -0.533  0.000 -0.817 -0.000 -0.220
      -0.802  0.000  0.571 -0.000 -0.178
      -0.000 -0.571  0.000  0.821 -0.000
      -0.271  0.000 -0.082  0.000  0.959
       0.000  0.821  0.000  0.571 -0.000
     occupation matrix ns (before diag.):
       0.747 -0.371  0.000 -0.126  0.000
      -0.371  0.435 -0.000 -0.189  0.000
       0.000 -0.000  0.711 -0.000  0.408
      -0.126 -0.189 -0.000  0.931 -0.000
       0.000  0.000  0.408 -0.000  0.408
     ------------------------ ATOM    2 ------------------------
     Tr[ns(  2)] (up, down, total) =   2.24028  4.95028  7.19056
     Atomic magnetic moment for atom   2 =  -2.71000
     SPIN  1
     eigenvalues:
       0.034  0.114  0.114  0.989  0.989
     eigenvectors (columns):
      -0.385  0.631  0.000  0.674  0.000
      -0.050  0.714  0.000 -0.698 -0.000
      -0.000  0.000 -0.723 -0.000  0.690
       0.922  0.302  0.000  0.243  0.000
       0.000 -0.000  0.690 -0.000  0.723
     occupation matrix ns (before diag.):
       0.499 -0.413  0.000  0.172  0.000
      -0.413  0.540 -0.000 -0.145  0.000
       0.000 -0.000  0.531 -0.000  0.437
       0.172 -0.145 -0.000  0.098 -0.000
       0.000  0.000  0.437 -0.000  0.572
     SPIN  2
     eigenvalues:
       0.981  0.982  0.995  0.995  0.997
     eigenvectors (columns):
      -0.000 -0.583 -0.734 -0.000 -0.347
      -0.000 -0.758  0.646 -0.000 -0.092
      -0.574  0.000  0.000  0.819 -0.000
      -0.000 -0.292 -0.209  0.000  0.933
       0.819 -0.000  0.000  0.574 -0.000
     occupation matrix ns (before diag.):
       0.991 -0.006 -0.000 -0.003  0.000
      -0.006  0.987 -0.000 -0.003  0.000
      -0.000 -0.000  0.991 -0.000  0.007
      -0.003 -0.003 -0.000  0.996 -0.000
       0.000  0.000  0.007 -0.000  0.986

     Number of occupied Hubbard levels =   15.3893

     HUBBARD ENERGY =    0.1724  (Ry)

     total cpu time spent up to now is      290.9 secs

     total energy              =   -1207.98027028 Ry
     estimated scf accuracy    <       0.00000006 Ry

     total magnetization       =    -1.00 Bohr mag/cell
     absolute magnetization    =     4.83 Bohr mag/cell

     iteration # 21     ecut=   120.00 Ry     beta= 0.70
     Davidson diagonalization with overlap

---- Real-time Memory Report at c_bands before calling an iterative solver
           264 MiB given to the printing process from OS
           228 MiB allocation reported by mallinfo(arena+hblkhd)
        657912 MiB available memory on the node where the printing process lives
------------------
     ethr =  5.83E-11,  avg # of iterations =  5.9

     =================== HUBBARD OCCUPATIONS ===================
     ------------------------ ATOM    1 ------------------------
     Tr[ns(  1)] (up, down, total) =   4.96635  3.23243  8.19878
     Atomic magnetic moment for atom   1 =   1.73392
     SPIN  1
     eigenvalues:
       0.988  0.989  0.996  0.997  0.997
     eigenvectors (columns):
      -0.000  0.583 -0.749 -0.000  0.316
      -0.000  0.758  0.641 -0.000  0.122
      -0.580 -0.000  0.000  0.814  0.000
      -0.000  0.294 -0.168  0.000 -0.941
       0.814  0.000  0.000  0.580  0.000
     occupation matrix ns (before diag.):
       0.994 -0.003 -0.000 -0.001  0.000
      -0.003  0.992 -0.000 -0.002  0.000
      -0.000 -0.000  0.994 -0.000  0.004
      -0.001 -0.002 -0.000  0.996 -0.000
       0.000  0.000  0.004 -0.000  0.991
     SPIN  2
     eigenvalues:
       0.125  0.125  0.994  0.994  0.995
     eigenvectors (columns):
      -0.533  0.000 -0.817 -0.000 -0.220
      -0.802  0.000  0.571 -0.000 -0.178
      -0.000 -0.571  0.000  0.821 -0.000
      -0.271  0.000 -0.082  0.000  0.959
       0.000  0.821  0.000  0.571 -0.000
     occupation matrix ns (before diag.):
       0.747 -0.371  0.000 -0.126  0.000
      -0.371  0.435 -0.000 -0.189  0.000
       0.000 -0.000  0.711 -0.000  0.408
      -0.126 -0.189 -0.000  0.931 -0.000
       0.000  0.000  0.408 -0.000  0.408
     ------------------------ ATOM    2 ------------------------
     Tr[ns(  2)] (up, down, total) =   2.24024  4.95028  7.19052
     Atomic magnetic moment for atom   2 =  -2.71004
     SPIN  1
     eigenvalues:
       0.034  0.114  0.114  0.989  0.989
     eigenvectors (columns):
      -0.388  0.632  0.000  0.671  0.000
      -0.047  0.713  0.000 -0.699 -0.000
       0.000  0.000 -0.723 -0.000  0.691
       0.920  0.303  0.000  0.247  0.000
       0.000 -0.000  0.691 -0.000  0.723
     occupation matrix ns (before diag.):
       0.495 -0.412  0.000  0.174  0.000
      -0.412  0.542 -0.000 -0.148  0.000
       0.000 -0.000  0.532 -0.000  0.437
       0.174 -0.148 -0.000  0.100 -0.000
       0.000  0.000  0.437 -0.000  0.571
     SPIN  2
     eigenvalues:
       0.981  0.982  0.995  0.995  0.997
     eigenvectors (columns):
      -0.000 -0.583 -0.733 -0.000 -0.351
      -0.000 -0.758  0.646 -0.000 -0.089
      -0.574  0.000  0.000  0.819 -0.000
      -0.000 -0.292 -0.214  0.000  0.932
       0.819 -0.000  0.000  0.574 -0.000
     occupation matrix ns (before diag.):
       0.991 -0.006 -0.000 -0.003  0.000
      -0.006  0.987 -0.000 -0.003  0.000
      -0.000 -0.000  0.991 -0.000  0.007
      -0.003 -0.003 -0.000  0.996 -0.000
       0.000  0.000  0.007 -0.000  0.986

     Number of occupied Hubbard levels =   15.3893

     HUBBARD ENERGY =    0.1725  (Ry)

     total cpu time spent up to now is      311.4 secs

     total energy              =   -1207.98028728 Ry
     estimated scf accuracy    <       0.00000002 Ry

     total magnetization       =    -1.00 Bohr mag/cell
     absolute magnetization    =     4.83 Bohr mag/cell

     iteration # 22     ecut=   120.00 Ry     beta= 0.70
     Davidson diagonalization with overlap

---- Real-time Memory Report at c_bands before calling an iterative solver
           264 MiB given to the printing process from OS
           228 MiB allocation reported by mallinfo(arena+hblkhd)
        657111 MiB available memory on the node where the printing process lives
------------------
     ethr =  1.58E-11,  avg # of iterations =  2.1

     =================== HUBBARD OCCUPATIONS ===================
     ------------------------ ATOM    1 ------------------------
     Tr[ns(  1)] (up, down, total) =   4.96635  3.23243  8.19879
     Atomic magnetic moment for atom   1 =   1.73392
     SPIN  1
     eigenvalues:
       0.988  0.989  0.996  0.997  0.997
     eigenvectors (columns):
      -0.000  0.583 -0.749 -0.000  0.316
      -0.000  0.758  0.641 -0.000  0.122
      -0.580 -0.000  0.000  0.814  0.000
      -0.000  0.294 -0.168  0.000 -0.941
       0.814  0.000  0.000  0.580  0.000
     occupation matrix ns (before diag.):
       0.994 -0.003 -0.000 -0.001  0.000
      -0.003  0.992 -0.000 -0.002  0.000
      -0.000 -0.000  0.994 -0.000  0.004
      -0.001 -0.002 -0.000  0.996 -0.000
       0.000  0.000  0.004 -0.000  0.991
     SPIN  2
     eigenvalues:
       0.125  0.125  0.994  0.994  0.995
     eigenvectors (columns):
      -0.533  0.000 -0.817 -0.000 -0.220
      -0.802  0.000  0.571 -0.000 -0.178
      -0.000 -0.571  0.000  0.821 -0.000
      -0.271  0.000 -0.082  0.000  0.959
       0.000  0.821  0.000  0.571 -0.000
     occupation matrix ns (before diag.):
       0.747 -0.371  0.000 -0.126  0.000
      -0.371  0.435 -0.000 -0.189  0.000
       0.000 -0.000  0.711 -0.000  0.408
      -0.126 -0.189 -0.000  0.931 -0.000
       0.000  0.000  0.408 -0.000  0.408
     ------------------------ ATOM    2 ------------------------
     Tr[ns(  2)] (up, down, total) =   2.24025  4.95028  7.19053
     Atomic magnetic moment for atom   2 =  -2.71003
     SPIN  1
     eigenvalues:
       0.034  0.114  0.114  0.989  0.989
     eigenvectors (columns):
      -0.388  0.632  0.000  0.671  0.000
      -0.047  0.713  0.000 -0.700 -0.000
      -0.000  0.000 -0.723 -0.000  0.691
       0.920  0.303  0.000  0.247  0.000
       0.000 -0.000  0.691 -0.000  0.723
     occupation matrix ns (before diag.):
       0.495 -0.412  0.000  0.174  0.000
      -0.412  0.542 -0.000 -0.148  0.000
       0.000 -0.000  0.532 -0.000  0.437
       0.174 -0.148 -0.000  0.100 -0.000
       0.000  0.000  0.437 -0.000  0.571
     SPIN  2
     eigenvalues:
       0.981  0.982  0.995  0.995  0.997
     eigenvectors (columns):
      -0.000 -0.583 -0.733 -0.000 -0.351
      -0.000 -0.758  0.646 -0.000 -0.089
      -0.574  0.000  0.000  0.819 -0.000
      -0.000 -0.292 -0.214  0.000  0.932
       0.819 -0.000  0.000  0.574 -0.000
     occupation matrix ns (before diag.):
       0.991 -0.006 -0.000 -0.003  0.000
      -0.006  0.987 -0.000 -0.003  0.000
      -0.000 -0.000  0.991 -0.000  0.007
      -0.003 -0.003 -0.000  0.996 -0.000
       0.000  0.000  0.007 -0.000  0.986

     Number of occupied Hubbard levels =   15.3893

     HUBBARD ENERGY =    0.1725  (Ry)

     total cpu time spent up to now is      323.5 secs

     total energy              =   -1207.98028728 Ry
     estimated scf accuracy    <          2.3E-09 Ry

     total magnetization       =    -1.00 Bohr mag/cell
     absolute magnetization    =     4.83 Bohr mag/cell

     iteration # 23     ecut=   120.00 Ry     beta= 0.70
     Davidson diagonalization with overlap

---- Real-time Memory Report at c_bands before calling an iterative solver
           264 MiB given to the printing process from OS
           228 MiB allocation reported by mallinfo(arena+hblkhd)
        662229 MiB available memory on the node where the printing process lives
------------------
     ethr =  2.10E-12,  avg # of iterations =  4.4

     =================== HUBBARD OCCUPATIONS ===================
     ------------------------ ATOM    1 ------------------------
     Tr[ns(  1)] (up, down, total) =   4.96635  3.23243  8.19878
     Atomic magnetic moment for atom   1 =   1.73392
     SPIN  1
     eigenvalues:
       0.988  0.989  0.996  0.997  0.997
     eigenvectors (columns):
      -0.000  0.583 -0.749 -0.000  0.316
      -0.000  0.758  0.641 -0.000  0.122
      -0.580 -0.000  0.000  0.814  0.000
      -0.000  0.294 -0.168  0.000 -0.941
       0.814  0.000  0.000  0.580  0.000
     occupation matrix ns (before diag.):
       0.994 -0.003 -0.000 -0.001  0.000
      -0.003  0.992 -0.000 -0.002  0.000
      -0.000 -0.000  0.994 -0.000  0.004
      -0.001 -0.002 -0.000  0.996 -0.000
       0.000  0.000  0.004 -0.000  0.991
     SPIN  2
     eigenvalues:
       0.125  0.125  0.994  0.994  0.995
     eigenvectors (columns):
      -0.533  0.000 -0.817 -0.000 -0.220
      -0.802  0.000  0.571 -0.000 -0.178
      -0.000 -0.571  0.000  0.821 -0.000
      -0.271  0.000 -0.082  0.000  0.959
       0.000  0.821  0.000  0.571 -0.000
     occupation matrix ns (before diag.):
       0.747 -0.371  0.000 -0.126  0.000
      -0.371  0.435 -0.000 -0.189  0.000
       0.000 -0.000  0.711 -0.000  0.408
      -0.126 -0.189 -0.000  0.931 -0.000
       0.000  0.000  0.408 -0.000  0.408
     ------------------------ ATOM    2 ------------------------
     Tr[ns(  2)] (up, down, total) =   2.24025  4.95028  7.19053
     Atomic magnetic moment for atom   2 =  -2.71003
     SPIN  1
     eigenvalues:
       0.034  0.114  0.114  0.989  0.989
     eigenvectors (columns):
      -0.389  0.632  0.000  0.670  0.000
      -0.047  0.713  0.000 -0.700 -0.000
      -0.000  0.000 -0.723 -0.000  0.691
       0.920  0.303  0.000  0.247  0.000
       0.000 -0.000  0.691 -0.000  0.723
     occupation matrix ns (before diag.):
       0.495 -0.412  0.000  0.174  0.000
      -0.412  0.542 -0.000 -0.148  0.000
       0.000 -0.000  0.532 -0.000  0.437
       0.174 -0.148 -0.000  0.100 -0.000
       0.000  0.000  0.437 -0.000  0.571
     SPIN  2
     eigenvalues:
       0.981  0.982  0.995  0.995  0.997
     eigenvectors (columns):
      -0.000 -0.583 -0.733 -0.000 -0.351
      -0.000 -0.758  0.646 -0.000 -0.089
      -0.574  0.000  0.000  0.819 -0.000
      -0.000 -0.292 -0.214  0.000  0.932
       0.819 -0.000  0.000  0.574 -0.000
     occupation matrix ns (before diag.):
       0.991 -0.006 -0.000 -0.003  0.000
      -0.006  0.987 -0.000 -0.003  0.000
      -0.000 -0.000  0.991 -0.000  0.007
      -0.003 -0.003 -0.000  0.996 -0.000
       0.000  0.000  0.007 -0.000  0.986

     Number of occupied Hubbard levels =   15.3893

     HUBBARD ENERGY =    0.1724  (Ry)
 
     Magnetic moment per site  (integrated on atomic sphere of radius R)
     atom   1 (R=0.183)  charge= 15.3413  magn=  1.7019
     atom   2 (R=0.183)  charge= 14.2456  magn= -2.5511
     atom   3 (R=0.170)  charge=  7.8938  magn= -0.0038
     atom   4 (R=0.170)  charge=  7.8940  magn= -0.0085
     atom   5 (R=0.170)  charge=  5.1299  magn=  0.0068
     atom   6 (R=0.170)  charge=  5.1299  magn=  0.0068
     atom   7 (R=0.170)  charge=  5.1292  magn=  0.0013
     atom   8 (R=0.170)  charge=  5.1292  magn=  0.0013
     atom   9 (R=0.170)  charge=  5.1261  magn= -0.0060
     atom  10 (R=0.170)  charge=  5.1261  magn= -0.0060
     atom  11 (R=0.170)  charge=  5.1204  magn=  0.0076
     atom  12 (R=0.170)  charge=  5.1204  magn=  0.0076

     total cpu time spent up to now is      339.2 secs

     End of self-consistent calculation

 ------ SPIN UP ------------


          k = 0.0832 0.0667 0.0756 ( 18052 PWs)   bands (ev):

   -92.1038 -80.9031 -63.4563 -63.4401 -52.7348 -52.7038 -52.6766 -44.4996
   -44.2074 -44.0754 -27.8732 -27.7943 -27.7117 -27.6709 -27.6556 -27.6415
    -7.7597  -6.4555  -6.2220  -6.0545  -5.9367  -5.8725  -5.5990  -5.3877
     3.4592   3.5713   4.1161   4.3832   4.6145   4.7646   5.3583   5.8303
     5.8746   6.0183   6.3694   6.8030   7.0028   7.1770   7.5378   7.6803
     7.8979   8.1483   8.2420   8.4806   8.6110   8.9079   9.0689   9.2777
     9.5868   9.8321  10.0003  10.2565  10.4645  10.5347  10.7873  13.9765
    14.2344  14.3460  14.6485  14.9366  15.1717  16.8188  17.4253  17.7772
    18.2299  18.8538  19.2919

     occupation numbers 
     1.0000   1.0000   1.0000   1.0000   1.0000   1.0000   1.0000   1.0000
     1.0000   1.0000   1.0000   1.0000   1.0000   1.0000   1.0000   1.0000
     1.0000   1.0000   1.0000   1.0000   1.0000   1.0000   1.0000   1.0000
     1.0000   1.0000   1.0000   1.0000   1.0000   1.0000   1.0000   1.0000
     1.0000   1.0000   1.0000   1.0000   1.0000   1.0000   1.0000   1.0000
     1.0000   1.0000   1.0000   1.0000   1.0000   1.0000   1.0000   1.0000
     1.0000   1.0000   1.0000   1.0000   1.0000   1.0000   1.0000   0.0000
     0.0000   0.0000   0.0000   0.0000   0.0000   0.0000   0.0000   0.0000
     0.0000   0.0000   0.0000

          k = 0.0831 0.0667 0.2264 ( 18041 PWs)   bands (ev):

   -92.1038 -80.9031 -63.4551 -63.4413 -52.7347 -52.7038 -52.6766 -44.4996
   -44.2074 -44.0754 -27.8699 -27.8104 -27.7061 -27.6781 -27.6479 -27.6358
    -7.5516  -6.4675  -6.3038  -6.1826  -5.9182  -5.8587  -5.6322  -5.4256
     3.4395   3.5819   4.2091   4.3759   4.6789   4.7540   5.4149   5.6845
     5.8589   6.2234   6.4886   6.7147   7.0688   7.2889   7.5110   7.6959
     7.7704   8.1458   8.2487   8.3249   8.5510   8.8363   9.0883   9.2069
     9.4760   9.7321  10.1080  10.3210  10.4251  10.6377  10.7003  14.1148
    14.2356  14.3597  14.5494  14.8009  15.0781  16.8261  17.3167  17.7614
    18.7370  18.9500  19.2312

     occupation numbers 
     1.0000   1.0000   1.0000   1.0000   1.0000   1.0000   1.0000   1.0000
     1.0000   1.0000   1.0000   1.0000   1.0000   1.0000   1.0000   1.0000
     1.0000   1.0000   1.0000   1.0000   1.0000   1.0000   1.0000   1.0000
     1.0000   1.0000   1.0000   1.0000   1.0000   1.0000   1.0000   1.0000
     1.0000   1.0000   1.0000   1.0000   1.0000   1.0000   1.0000   1.0000
     1.0000   1.0000   1.0000   1.0000   1.0000   1.0000   1.0000   1.0000
     1.0000   1.0000   1.0000   1.0000   1.0000   1.0000   1.0000   0.0000
     0.0000   0.0000   0.0000   0.0000   0.0000   0.0000   0.0000   0.0000
     0.0000   0.0000   0.0000

          k = 0.0829 0.0667 0.3773 ( 18039 PWs)   bands (ev):

   -92.1038 -80.9031 -63.4536 -63.4428 -52.7347 -52.7038 -52.6766 -44.4996
   -44.2074 -44.0753 -27.8618 -27.8306 -27.6968 -27.6864 -27.6446 -27.6291
    -7.1783  -6.6945  -6.4446  -6.3454  -5.8611  -5.7253  -5.6218  -5.5072
     3.4422   3.5748   4.1116   4.2635   4.7184   5.0427   5.5233   5.7578
     6.0059   6.2872   6.4675   6.6472   6.9515   7.1742   7.3284   7.5620
     7.7694   7.9369   8.1820   8.4457   8.7316   8.9406   9.0712   9.1717
     9.5206   9.7195  10.1534  10.2745  10.4575  10.6110  10.7343  14.0273
    14.2318  14.4936  14.5473  14.7124  14.9741  16.8462  17.2535  17.6290
    18.7754  18.9749  19.6025

     occupation numbers 
     1.0000   1.0000   1.0000   1.0000   1.0000   1.0000   1.0000   1.0000
     1.0000   1.0000   1.0000   1.0000   1.0000   1.0000   1.0000   1.0000
     1.0000   1.0000   1.0000   1.0000   1.0000   1.0000   1.0000   1.0000
     1.0000   1.0000   1.0000   1.0000   1.0000   1.0000   1.0000   1.0000
     1.0000   1.0000   1.0000   1.0000   1.0000   1.0000   1.0000   1.0000
     1.0000   1.0000   1.0000   1.0000   1.0000   1.0000   1.0000   1.0000
     1.0000   1.0000   1.0000   1.0000   1.0000   1.0000   1.0000   0.0000
     0.0000   0.0000   0.0000   0.0000   0.0000   0.0000   0.0000   0.0000
     0.0000   0.0000   0.0000

          k = 0.0838 0.0667-0.3768 ( 18042 PWs)   bands (ev):

   -92.1038 -80.9031 -63.4536 -63.4428 -52.7347 -52.7038 -52.6766 -44.4996
   -44.2074 -44.0753 -27.8617 -27.8306 -27.6969 -27.6862 -27.6447 -27.6291
    -7.1579  -6.7462  -6.4599  -6.3580  -5.8045  -5.7014  -5.6009  -5.5379
     3.4652   3.5668   4.0937   4.2498   4.7470   5.0042   5.5557   5.7082
     6.0668   6.1415   6.3865   6.5482   6.9677   7.1509   7.4478   7.5814
     7.7796   8.0442   8.2410   8.4829   8.7513   8.8817   8.9365   9.2940
     9.5239   9.8687  10.0903  10.3062  10.3979  10.6129  10.7353  14.0711
    14.2398  14.3911  14.5495  14.8138  15.0028  16.8501  17.2753  17.5376
    18.6526  18.9216  19.6956

     occupation numbers 
     1.0000   1.0000   1.0000   1.0000   1.0000   1.0000   1.0000   1.0000
     1.0000   1.0000   1.0000   1.0000   1.0000   1.0000   1.0000   1.0000
     1.0000   1.0000   1.0000   1.0000   1.0000   1.0000   1.0000   1.0000
     1.0000   1.0000   1.0000   1.0000   1.0000   1.0000   1.0000   1.0000
     1.0000   1.0000   1.0000   1.0000   1.0000   1.0000   1.0000   1.0000
     1.0000   1.0000   1.0000   1.0000   1.0000   1.0000   1.0000   1.0000
     1.0000   1.0000   1.0000   1.0000   1.0000   1.0000   1.0000   0.0000
     0.0000   0.0000   0.0000   0.0000   0.0000   0.0000   0.0000   0.0000
     0.0000   0.0000   0.0000

          k = 0.0836 0.0667-0.2260 ( 18046 PWs)   bands (ev):

   -92.1038 -80.9031 -63.4551 -63.4414 -52.7347 -52.7038 -52.6766 -44.4996
   -44.2074 -44.0754 -27.8699 -27.8104 -27.7062 -27.6779 -27.6481 -27.6357
    -7.5430  -6.5242  -6.3854  -6.2153  -5.8210  -5.7554  -5.6033  -5.4694
     3.4792   3.5868   4.2077   4.3320   4.6375   4.7079   5.3517   5.7641
     5.9366   6.0805   6.3339   6.5962   6.9504   7.2473   7.5493   7.8320
     7.9985   8.0978   8.2251   8.4636   8.5625   8.8043   9.1357   9.3302
     9.5924   9.8422  10.0510  10.2749  10.3888  10.5835  10.7212  14.1576
    14.2176  14.2870  14.5996  14.9200  15.1170  16.8384  17.3716  17.5628
    18.5786  18.8328  19.0121

     occupation numbers 
     1.0000   1.0000   1.0000   1.0000   1.0000   1.0000   1.0000   1.0000
     1.0000   1.0000   1.0000   1.0000   1.0000   1.0000   1.0000   1.0000
     1.0000   1.0000   1.0000   1.0000   1.0000   1.0000   1.0000   1.0000
     1.0000   1.0000   1.0000   1.0000   1.0000   1.0000   1.0000   1.0000
     1.0000   1.0000   1.0000   1.0000   1.0000   1.0000   1.0000   1.0000
     1.0000   1.0000   1.0000   1.0000   1.0000   1.0000   1.0000   1.0000
     1.0000   1.0000   1.0000   1.0000   1.0000   1.0000   1.0000   0.0000
     0.0000   0.0000   0.0000   0.0000   0.0000   0.0000   0.0000   0.0000
     0.0000   0.0000   0.0000

          k = 0.0834 0.0667-0.0752 ( 18054 PWs)   bands (ev):

   -92.1038 -80.9031 -63.4563 -63.4401 -52.7348 -52.7038 -52.6766 -44.4996
   -44.2074 -44.0754 -27.8732 -27.7943 -27.7117 -27.6707 -27.6558 -27.6414
    -7.7573  -6.4762  -6.2893  -6.0751  -5.8786  -5.8131  -5.5759  -5.4106
     3.4765   3.5859   4.1236   4.3686   4.5649   4.6849   5.5246   5.6926
     5.8961   5.9313   6.4748   6.6737   6.9845   7.2447   7.3903   7.6667
     7.8782   8.1525   8.4125   8.5467   8.6861   8.7682   9.1730   9.3550
     9.7315   9.8595  10.0129  10.0805  10.4255  10.5561  10.7873  13.9767
    14.1740  14.4006  14.6705  14.9933  15.1820  16.8264  17.4698  17.6571
    18.2020  18.6590  19.2201

     occupation numbers 
     1.0000   1.0000   1.0000   1.0000   1.0000   1.0000   1.0000   1.0000
     1.0000   1.0000   1.0000   1.0000   1.0000   1.0000   1.0000   1.0000
     1.0000   1.0000   1.0000   1.0000   1.0000   1.0000   1.0000   1.0000
     1.0000   1.0000   1.0000   1.0000   1.0000   1.0000   1.0000   1.0000
     1.0000   1.0000   1.0000   1.0000   1.0000   1.0000   1.0000   1.0000
     1.0000   1.0000   1.0000   1.0000   1.0000   1.0000   1.0000   1.0000
     1.0000   1.0000   1.0000   1.0000   1.0000   1.0000   1.0000   0.0000
     0.0000   0.0000   0.0000   0.0000   0.0000   0.0000   0.0000   0.0000
     0.0000   0.0000   0.0000

          k = 0.0832 0.2002 0.0756 ( 18038 PWs)   bands (ev):

   -92.1038 -80.9031 -63.4563 -63.4401 -52.7348 -52.7038 -52.6766 -44.4996
   -44.2074 -44.0754 -27.8727 -27.7930 -27.7115 -27.6723 -27.6562 -27.6419
    -7.6226  -6.5327  -6.3816  -6.0561  -6.0073  -5.8069  -5.5550  -5.3644
     3.5511   3.6423   4.2283   4.5210   4.5826   4.9772   5.3379   5.6671
     5.7686   6.0300   6.2832   6.7442   6.8718   7.2297   7.4102   7.5162
     7.7489   7.9943   8.4592   8.5443   8.7182   8.8969   9.0288   9.2911
     9.7005   9.7763  10.0749  10.2060  10.3687  10.5159  10.8134  13.9332
    14.2314  14.4221  14.7721  14.8692  15.1870  16.8099  17.4759  17.8114
    18.7295  18.8473  18.9590

     occupation numbers 
     1.0000   1.0000   1.0000   1.0000   1.0000   1.0000   1.0000   1.0000
     1.0000   1.0000   1.0000   1.0000   1.0000   1.0000   1.0000   1.0000
     1.0000   1.0000   1.0000   1.0000   1.0000   1.0000   1.0000   1.0000
     1.0000   1.0000   1.0000   1.0000   1.0000   1.0000   1.0000   1.0000
     1.0000   1.0000   1.0000   1.0000   1.0000   1.0000   1.0000   1.0000
     1.0000   1.0000   1.0000   1.0000   1.0000   1.0000   1.0000   1.0000
     1.0000   1.0000   1.0000   1.0000   1.0000   1.0000   1.0000   0.0000
     0.0000   0.0000   0.0000   0.0000   0.0000   0.0000   0.0000   0.0000
     0.0000   0.0000   0.0000

          k = 0.0831 0.2002 0.2264 ( 18034 PWs)   bands (ev):

   -92.1038 -80.9031 -63.4551 -63.4413 -52.7347 -52.7038 -52.6766 -44.4996
   -44.2074 -44.0754 -27.8703 -27.8103 -27.7059 -27.6784 -27.6483 -27.6352
    -7.4258  -6.5356  -6.3867  -6.1050  -6.0462  -5.8561  -5.6319  -5.3956
     3.5331   3.6456   4.2857   4.4884   4.7251   4.9849   5.3323   5.6601
     5.8394   6.1688   6.3235   6.6661   6.8694   7.2279   7.3311   7.5372
     7.8035   8.0345   8.3064   8.5113   8.7191   8.8352   9.0700   9.2523
     9.5275   9.5917  10.1197  10.1974  10.4295  10.6724  10.7021  14.0748
    14.2803  14.3641  14.6870  14.7763  15.0763  16.8097  17.3930  17.7594
    18.8025  19.0605  19.2292

     occupation numbers 
     1.0000   1.0000   1.0000   1.0000   1.0000   1.0000   1.0000   1.0000
     1.0000   1.0000   1.0000   1.0000   1.0000   1.0000   1.0000   1.0000
     1.0000   1.0000   1.0000   1.0000   1.0000   1.0000   1.0000   1.0000
     1.0000   1.0000   1.0000   1.0000   1.0000   1.0000   1.0000   1.0000
     1.0000   1.0000   1.0000   1.0000   1.0000   1.0000   1.0000   1.0000
     1.0000   1.0000   1.0000   1.0000   1.0000   1.0000   1.0000   1.0000
     1.0000   1.0000   1.0000   1.0000   1.0000   1.0000   1.0000   0.0000
     0.0000   0.0000   0.0000   0.0000   0.0000   0.0000   0.0000   0.0000
     0.0000   0.0000   0.0000

          k = 0.0829 0.2002 0.3773 ( 18049 PWs)   bands (ev):

   -92.1038 -80.9031 -63.4536 -63.4428 -52.7347 -52.7038 -52.6766 -44.4996
   -44.2074 -44.0753 -27.8630 -27.8317 -27.6965 -27.6861 -27.6440 -27.6280
    -7.0822  -6.7041  -6.4316  -6.2878  -6.0084  -5.7548  -5.6920  -5.4654
     3.5178   3.6289   4.2618   4.4869   4.8028   5.0565   5.4256   5.5980
     6.0177   6.0865   6.4537   6.7251   6.8203   7.1688   7.3046   7.5299
     7.8371   8.0264   8.1791   8.2947   8.6441   8.8603   8.9465   9.2231
     9.4652   9.7655  10.1933  10.2289  10.4053  10.6586  10.7618  14.0512
    14.2215  14.5721  14.6355  14.7613  14.9250  16.8100  17.3490  17.6126
    18.7909  19.0194  19.4443

     occupation numbers 
     1.0000   1.0000   1.0000   1.0000   1.0000   1.0000   1.0000   1.0000
     1.0000   1.0000   1.0000   1.0000   1.0000   1.0000   1.0000   1.0000
     1.0000   1.0000   1.0000   1.0000   1.0000   1.0000   1.0000   1.0000
     1.0000   1.0000   1.0000   1.0000   1.0000   1.0000   1.0000   1.0000
     1.0000   1.0000   1.0000   1.0000   1.0000   1.0000   1.0000   1.0000
     1.0000   1.0000   1.0000   1.0000   1.0000   1.0000   1.0000   1.0000
     1.0000   1.0000   1.0000   1.0000   1.0000   1.0000   1.0000   0.0000
     0.0000   0.0000   0.0000   0.0000   0.0000   0.0000   0.0000   0.0000
     0.0000   0.0000   0.0000

          k = 0.0838 0.2002-0.3768 ( 18059 PWs)   bands (ev):

   -92.1038 -80.9031 -63.4536 -63.4428 -52.7347 -52.7038 -52.6766 -44.4996
   -44.2074 -44.0753 -27.8630 -27.8317 -27.6966 -27.6859 -27.6441 -27.6280
    -7.0783  -6.7240  -6.4787  -6.2910  -5.8887  -5.8388  -5.6067  -5.5099
     3.5199   3.6191   4.2852   4.4701   4.7991   5.0331   5.4236   5.5687
     5.9272   6.1048   6.4331   6.6003   6.9933   7.0812   7.3985   7.6090
     7.7761   8.0272   8.1797   8.3444   8.6544   8.8181   8.9723   9.2003
     9.4605   9.9677  10.1482  10.2427  10.3301  10.6133  10.7986  14.1167
    14.2099  14.4924  14.6791  14.8082  14.9817  16.8014  17.3782  17.5230
    18.7683  18.8761  19.4438

     occupation numbers 
     1.0000   1.0000   1.0000   1.0000   1.0000   1.0000   1.0000   1.0000
     1.0000   1.0000   1.0000   1.0000   1.0000   1.0000   1.0000   1.0000
     1.0000   1.0000   1.0000   1.0000   1.0000   1.0000   1.0000   1.0000
     1.0000   1.0000   1.0000   1.0000   1.0000   1.0000   1.0000   1.0000
     1.0000   1.0000   1.0000   1.0000   1.0000   1.0000   1.0000   1.0000
     1.0000   1.0000   1.0000   1.0000   1.0000   1.0000   1.0000   1.0000
     1.0000   1.0000   1.0000   1.0000   1.0000   1.0000   1.0000   0.0000
     0.0000   0.0000   0.0000   0.0000   0.0000   0.0000   0.0000   0.0000
     0.0000   0.0000   0.0000

          k = 0.0836 0.2002-0.2260 ( 18037 PWs)   bands (ev):

   -92.1038 -80.9031 -63.4551 -63.4413 -52.7347 -52.7038 -52.6766 -44.4996
   -44.2074 -44.0754 -27.8703 -27.8103 -27.7060 -27.6781 -27.6486 -27.6351
    -7.4252  -6.5964  -6.4520  -6.1270  -5.9008  -5.7915  -5.6437  -5.4256
     3.5298   3.6493   4.3198   4.4679   4.6825   4.9299   5.3218   5.6048
     5.8851   6.0233   6.2612   6.6699   6.8435   7.2417   7.3696   7.5978
     7.8519   8.1295   8.3373   8.5051   8.6233   8.8382   9.0467   9.3096
     9.6036   9.9044  10.0474  10.1663  10.3048  10.5868  10.7980  14.0979
    14.3037  14.3671  14.6938  14.8982  15.1264  16.8023  17.4602  17.5662
    18.6171  18.9800  19.0523

     occupation numbers 
     1.0000   1.0000   1.0000   1.0000   1.0000   1.0000   1.0000   1.0000
     1.0000   1.0000   1.0000   1.0000   1.0000   1.0000   1.0000   1.0000
     1.0000   1.0000   1.0000   1.0000   1.0000   1.0000   1.0000   1.0000
     1.0000   1.0000   1.0000   1.0000   1.0000   1.0000   1.0000   1.0000
     1.0000   1.0000   1.0000   1.0000   1.0000   1.0000   1.0000   1.0000
     1.0000   1.0000   1.0000   1.0000   1.0000   1.0000   1.0000   1.0000
     1.0000   1.0000   1.0000   1.0000   1.0000   1.0000   1.0000   0.0000
     0.0000   0.0000   0.0000   0.0000   0.0000   0.0000   0.0000   0.0000
     0.0000   0.0000   0.0000

          k = 0.0834 0.2002-0.0752 ( 18038 PWs)   bands (ev):

   -92.1038 -80.9031 -63.4563 -63.4401 -52.7348 -52.7038 -52.6766 -44.4996
   -44.2074 -44.0754 -27.8727 -27.7930 -27.7115 -27.6721 -27.6564 -27.6419
    -7.6226  -6.5611  -6.4236  -6.0443  -5.9382  -5.7974  -5.5491  -5.3803
     3.5413   3.6636   4.2461   4.4761   4.5743   4.9125   5.4352   5.5602
     5.8061   6.0454   6.2590   6.5804   6.9552   7.2028   7.3937   7.5160
     7.7892   8.1343   8.4214   8.5469   8.7344   8.8330   9.1033   9.3164
     9.6665   9.9631  10.0511  10.1636  10.3143  10.4928  10.8348  13.9380
    14.2009  14.4771  14.7664  14.9406  15.2016  16.8100  17.5147  17.7079
    18.5867  18.7056  19.0728

     occupation numbers 
     1.0000   1.0000   1.0000   1.0000   1.0000   1.0000   1.0000   1.0000
     1.0000   1.0000   1.0000   1.0000   1.0000   1.0000   1.0000   1.0000
     1.0000   1.0000   1.0000   1.0000   1.0000   1.0000   1.0000   1.0000
     1.0000   1.0000   1.0000   1.0000   1.0000   1.0000   1.0000   1.0000
     1.0000   1.0000   1.0000   1.0000   1.0000   1.0000   1.0000   1.0000
     1.0000   1.0000   1.0000   1.0000   1.0000   1.0000   1.0000   1.0000
     1.0000   1.0000   1.0000   1.0000   1.0000   1.0000   1.0000   0.0000
     0.0000   0.0000   0.0000   0.0000   0.0000   0.0000   0.0000   0.0000
     0.0000   0.0000   0.0000

          k = 0.0832 0.3337 0.0756 ( 18022 PWs)   bands (ev):

   -92.1038 -80.9031 -63.4564 -63.4401 -52.7348 -52.7038 -52.6766 -44.4996
   -44.2074 -44.0754 -27.8721 -27.7917 -27.7113 -27.6737 -27.6567 -27.6424
    -7.4036  -6.8377  -6.3446  -6.0661  -6.0559  -5.7807  -5.5439  -5.3328
     3.6583   3.7098   4.4000   4.5448   4.7211   5.1049   5.2872   5.5505
     5.6696   5.9382   6.2403   6.5765   6.8678   7.2160   7.3141   7.5273
     7.7408   7.8718   8.2348   8.6962   8.7392   8.9879   9.1001   9.1479
     9.5777   9.9228  10.1237  10.1668  10.3106  10.5546  10.8606  13.8533
    14.3123  14.5351  14.7475  14.8607  15.2047  16.7973  17.5607  17.8477
    18.5711  18.8582  19.3794

     occupation numbers 
     1.0000   1.0000   1.0000   1.0000   1.0000   1.0000   1.0000   1.0000
     1.0000   1.0000   1.0000   1.0000   1.0000   1.0000   1.0000   1.0000
     1.0000   1.0000   1.0000   1.0000   1.0000   1.0000   1.0000   1.0000
     1.0000   1.0000   1.0000   1.0000   1.0000   1.0000   1.0000   1.0000
     1.0000   1.0000   1.0000   1.0000   1.0000   1.0000   1.0000   1.0000
     1.0000   1.0000   1.0000   1.0000   1.0000   1.0000   1.0000   1.0000
     1.0000   1.0000   1.0000   1.0000   1.0000   1.0000   1.0000   0.0000
     0.0000   0.0000   0.0000   0.0000   0.0000   0.0000   0.0000   0.0000
     0.0000   0.0000   0.0000

          k = 0.0831 0.3337 0.2264 ( 18018 PWs)   bands (ev):

   -92.1038 -80.9031 -63.4551 -63.4413 -52.7347 -52.7038 -52.6766 -44.4996
   -44.2074 -44.0754 -27.8707 -27.8103 -27.7057 -27.6786 -27.6487 -27.6346
    -7.2271  -6.7527  -6.3664  -6.1672  -6.0185  -5.8684  -5.6536  -5.3709
     3.6395   3.6997   4.4409   4.5919   4.7772   5.0483   5.4007   5.5893
     5.9091   6.0275   6.2333   6.6271   6.7349   6.9763   7.2494   7.4405
     7.7526   7.9215   8.3762   8.6866   8.7320   8.9113   9.1096   9.1966
     9.4959   9.6379  10.0630  10.1321  10.3587  10.6518  10.8263  14.0210
    14.3647  14.4619  14.5908  14.8134  15.1261  16.7878  17.5082  17.7587
    18.4845  19.0431  19.6262

     occupation numbers 
     1.0000   1.0000   1.0000   1.0000   1.0000   1.0000   1.0000   1.0000
     1.0000   1.0000   1.0000   1.0000   1.0000   1.0000   1.0000   1.0000
     1.0000   1.0000   1.0000   1.0000   1.0000   1.0000   1.0000   1.0000
     1.0000   1.0000   1.0000   1.0000   1.0000   1.0000   1.0000   1.0000
     1.0000   1.0000   1.0000   1.0000   1.0000   1.0000   1.0000   1.0000
     1.0000   1.0000   1.0000   1.0000   1.0000   1.0000   1.0000   1.0000
     1.0000   1.0000   1.0000   1.0000   1.0000   1.0000   1.0000   0.0000
     0.0000   0.0000   0.0000   0.0000   0.0000   0.0000   0.0000   0.0000
     0.0000   0.0000   0.0000

          k = 0.0829 0.3337 0.3773 ( 18060 PWs)   bands (ev):

   -92.1038 -80.9031 -63.4536 -63.4428 -52.7347 -52.7038 -52.6766 -44.4996
   -44.2074 -44.0753 -27.8642 -27.8328 -27.6962 -27.6859 -27.6434 -27.6269
    -6.9527  -6.7294  -6.3983  -6.2245  -6.1305  -5.9300  -5.6641  -5.4444
     3.6192   3.6620   4.5003   4.6956   4.8629   5.0054   5.4607   5.4893
     5.8401   5.8938   6.5751   6.7444   6.8935   7.0853   7.1768   7.4867
     7.7133   7.8906   8.1872   8.3809   8.5792   8.7811   8.9512   9.1435
     9.5821   9.8024  10.1216  10.1800  10.3298  10.7649  10.7893  14.1378
    14.2018  14.5893  14.6446  14.7694  14.9880  16.7700  17.4948  17.5945
    18.5224  19.1132  19.5709

     occupation numbers 
     1.0000   1.0000   1.0000   1.0000   1.0000   1.0000   1.0000   1.0000
     1.0000   1.0000   1.0000   1.0000   1.0000   1.0000   1.0000   1.0000
     1.0000   1.0000   1.0000   1.0000   1.0000   1.0000   1.0000   1.0000
     1.0000   1.0000   1.0000   1.0000   1.0000   1.0000   1.0000   1.0000
     1.0000   1.0000   1.0000   1.0000   1.0000   1.0000   1.0000   1.0000
     1.0000   1.0000   1.0000   1.0000   1.0000   1.0000   1.0000   1.0000
     1.0000   1.0000   1.0000   1.0000   1.0000   1.0000   1.0000   0.0000
     0.0000   0.0000   0.0000   0.0000   0.0000   0.0000   0.0000   0.0000
     0.0000   0.0000   0.0000

          k = 0.0838 0.3337-0.3768 ( 18055 PWs)   bands (ev):

   -92.1038 -80.9031 -63.4536 -63.4428 -52.7347 -52.7038 -52.6766 -44.4996
   -44.2074 -44.0753 -27.8642 -27.8328 -27.6963 -27.6857 -27.6435 -27.6269
    -6.9544  -6.7949  -6.3482  -6.2012  -6.0800  -6.0054  -5.5857  -5.4949
     3.6131   3.6517   4.5121   4.6772   4.8158   5.1019   5.2848   5.4864
     5.8267   6.0102   6.5563   6.7700   6.8701   7.0266   7.3336   7.4513
     7.6158   7.8802   8.2326   8.3309   8.6642   8.7995   8.8968   9.2033
     9.5257   9.9324  10.0688  10.2085  10.3429  10.6661  10.8328  14.1511
    14.2822  14.5569  14.6664  14.8359  14.9886  16.7545  17.4926  17.5450
    18.6443  18.9366  19.3823

     occupation numbers 
     1.0000   1.0000   1.0000   1.0000   1.0000   1.0000   1.0000   1.0000
     1.0000   1.0000   1.0000   1.0000   1.0000   1.0000   1.0000   1.0000
     1.0000   1.0000   1.0000   1.0000   1.0000   1.0000   1.0000   1.0000
     1.0000   1.0000   1.0000   1.0000   1.0000   1.0000   1.0000   1.0000
     1.0000   1.0000   1.0000   1.0000   1.0000   1.0000   1.0000   1.0000
     1.0000   1.0000   1.0000   1.0000   1.0000   1.0000   1.0000   1.0000
     1.0000   1.0000   1.0000   1.0000   1.0000   1.0000   1.0000   0.0000
     0.0000   0.0000   0.0000   0.0000   0.0000   0.0000   0.0000   0.0000
     0.0000   0.0000   0.0000

          k = 0.0836 0.3337-0.2260 ( 18025 PWs)   bands (ev):

   -92.1038 -80.9031 -63.4551 -63.4413 -52.7347 -52.7038 -52.6766 -44.4996
   -44.2074 -44.0754 -27.8707 -27.8103 -27.7058 -27.6783 -27.6489 -27.6346
    -7.2354  -6.8308  -6.3629  -6.0785  -5.9822  -5.8711  -5.6487  -5.3969
     3.6225   3.6892   4.4540   4.5407   4.7450   5.1426   5.3365   5.4690
     5.8664   6.0102   6.2926   6.5882   6.8900   6.9512   7.3145   7.4453
     7.6369   7.8884   8.4200   8.6069   8.7100   8.9076   9.1777   9.3116
     9.5238   9.8324   9.9949  10.1567  10.3474  10.5416  10.8346  14.0439
    14.3946  14.5231  14.6874  14.9073  15.1034  16.7644  17.5186  17.6463
    18.6718  18.8426  19.1659

     occupation numbers 
     1.0000   1.0000   1.0000   1.0000   1.0000   1.0000   1.0000   1.0000
     1.0000   1.0000   1.0000   1.0000   1.0000   1.0000   1.0000   1.0000
     1.0000   1.0000   1.0000   1.0000   1.0000   1.0000   1.0000   1.0000
     1.0000   1.0000   1.0000   1.0000   1.0000   1.0000   1.0000   1.0000
     1.0000   1.0000   1.0000   1.0000   1.0000   1.0000   1.0000   1.0000
     1.0000   1.0000   1.0000   1.0000   1.0000   1.0000   1.0000   1.0000
     1.0000   1.0000   1.0000   1.0000   1.0000   1.0000   1.0000   0.0000
     0.0000   0.0000   0.0000   0.0000   0.0000   0.0000   0.0000   0.0000
     0.0000   0.0000   0.0000

          k = 0.0834 0.3337-0.0752 ( 18034 PWs)   bands (ev):

   -92.1038 -80.9031 -63.4563 -63.4401 -52.7348 -52.7038 -52.6766 -44.4996
   -44.2074 -44.0754 -27.8722 -27.7917 -27.7113 -27.6735 -27.6569 -27.6423
    -7.4067  -6.8651  -6.3710  -6.0419  -5.9764  -5.8099  -5.5412  -5.3440
     3.6406   3.7213   4.3874   4.5297   4.7066   5.1340   5.2901   5.4509
     5.6750   6.0433   6.1750   6.5514   6.8731   7.2093   7.3611   7.4991
     7.6444   8.0273   8.2117   8.6145   8.7499   8.9571   9.1406   9.2424
     9.6017  10.0467  10.0739  10.1787  10.2740  10.4940  10.8675  13.8654
    14.2920  14.5842  14.8363  14.8722  15.1962  16.7894  17.5761  17.7846
    18.6252  18.8210  19.1861

     occupation numbers 
     1.0000   1.0000   1.0000   1.0000   1.0000   1.0000   1.0000   1.0000
     1.0000   1.0000   1.0000   1.0000   1.0000   1.0000   1.0000   1.0000
     1.0000   1.0000   1.0000   1.0000   1.0000   1.0000   1.0000   1.0000
     1.0000   1.0000   1.0000   1.0000   1.0000   1.0000   1.0000   1.0000
     1.0000   1.0000   1.0000   1.0000   1.0000   1.0000   1.0000   1.0000
     1.0000   1.0000   1.0000   1.0000   1.0000   1.0000   1.0000   1.0000
     1.0000   1.0000   1.0000   1.0000   1.0000   1.0000   1.0000   0.0000
     0.0000   0.0000   0.0000   0.0000   0.0000   0.0000   0.0000   0.0000
     0.0000   0.0000   0.0000

          k = 0.2499 0.0667 0.0761 ( 18028 PWs)   bands (ev):

   -92.1038 -80.9031 -63.4564 -63.4400 -52.7348 -52.7038 -52.6766 -44.4996
   -44.2074 -44.0754 -27.8730 -27.7941 -27.7136 -27.6711 -27.6564 -27.6418
    -7.5623  -6.4794  -6.2986  -6.0823  -5.9869  -5.8134  -5.5960  -5.5442
     3.4852   3.6422   4.3004   4.5434   4.6557   4.8792   5.1250   5.6340
     5.9501   6.1330   6.3962   6.7017   6.8412   7.0766   7.2487   7.5287
     7.8488   8.1522   8.3429   8.6943   8.9591   9.0094   9.2101   9.2719
     9.5092   9.8386   9.9078  10.1653  10.4515  10.5285  10.7845  14.0314
    14.2095  14.2916  14.6233  14.8123  15.2762  16.7171  17.5014  17.8121
    18.8552  18.9469  19.3665

     occupation numbers 
     1.0000   1.0000   1.0000   1.0000   1.0000   1.0000   1.0000   1.0000
     1.0000   1.0000   1.0000   1.0000   1.0000   1.0000   1.0000   1.0000
     1.0000   1.0000   1.0000   1.0000   1.0000   1.0000   1.0000   1.0000
     1.0000   1.0000   1.0000   1.0000   1.0000   1.0000   1.0000   1.0000
     1.0000   1.0000   1.0000   1.0000   1.0000   1.0000   1.0000   1.0000
     1.0000   1.0000   1.0000   1.0000   1.0000   1.0000   1.0000   1.0000
     1.0000   1.0000   1.0000   1.0000   1.0000   1.0000   1.0000   0.0000
     0.0000   0.0000   0.0000   0.0000   0.0000   0.0000   0.0000   0.0000
     0.0000   0.0000   0.0000

          k = 0.2497 0.0667 0.2269 ( 18036 PWs)   bands (ev):

   -92.1038 -80.9031 -63.4552 -63.4412 -52.7347 -52.7038 -52.6766 -44.4996
   -44.2074 -44.0754 -27.8697 -27.8103 -27.7078 -27.6790 -27.6485 -27.6358
    -7.3746  -6.4659  -6.2636  -6.1146  -6.0467  -6.0020  -5.6265  -5.5105
     3.4831   3.6474   4.3732   4.5004   4.7010   4.8592   5.2618   5.5124
     6.0474   6.2512   6.3900   6.6628   6.7738   6.9785   7.2337   7.6143
     7.9372   8.1214   8.3337   8.5847   8.7809   8.9140   9.1893   9.4082
     9.5787   9.7651   9.9106  10.2304  10.3057  10.6550  10.7716  14.0329
    14.2231  14.3941  14.5720  14.7079  15.1580  16.7316  17.4521  17.8585
    18.9739  19.0894  19.3226

     occupation numbers 
     1.0000   1.0000   1.0000   1.0000   1.0000   1.0000   1.0000   1.0000
     1.0000   1.0000   1.0000   1.0000   1.0000   1.0000   1.0000   1.0000
     1.0000   1.0000   1.0000   1.0000   1.0000   1.0000   1.0000   1.0000
     1.0000   1.0000   1.0000   1.0000   1.0000   1.0000   1.0000   1.0000
     1.0000   1.0000   1.0000   1.0000   1.0000   1.0000   1.0000   1.0000
     1.0000   1.0000   1.0000   1.0000   1.0000   1.0000   1.0000   1.0000
     1.0000   1.0000   1.0000   1.0000   1.0000   1.0000   1.0000   0.0000
     0.0000   0.0000   0.0000   0.0000   0.0000   0.0000   0.0000   0.0000
     0.0000   0.0000   0.0000

          k = 0.2495 0.0667 0.3777 ( 18033 PWs)   bands (ev):

   -92.1038 -80.9031 -63.4537 -63.4427 -52.7347 -52.7038 -52.6766 -44.4996
   -44.2074 -44.0753 -27.8615 -27.8305 -27.6982 -27.6877 -27.6449 -27.6290
    -7.0407  -6.5578  -6.4604  -6.3329  -6.0277  -5.8821  -5.5964  -5.5226
     3.5227   3.6570   4.2813   4.4356   4.6969   4.9505   5.3289   5.4496
     6.0127   6.2900   6.4648   6.6377   6.8177   6.9171   7.3547   7.4716
     7.7849   7.9996   8.2327   8.5054   8.9430   9.0632   9.1598   9.5060
     9.5910   9.7525  10.0650  10.1719  10.4265  10.6284  10.7636  14.0230
    14.2294  14.4117  14.5194  14.8179  15.0490  16.7633  17.4336  17.7560
    18.6663  18.8529  19.4751

     occupation numbers 
     1.0000   1.0000   1.0000   1.0000   1.0000   1.0000   1.0000   1.0000
     1.0000   1.0000   1.0000   1.0000   1.0000   1.0000   1.0000   1.0000
     1.0000   1.0000   1.0000   1.0000   1.0000   1.0000   1.0000   1.0000
     1.0000   1.0000   1.0000   1.0000   1.0000   1.0000   1.0000   1.0000
     1.0000   1.0000   1.0000   1.0000   1.0000   1.0000   1.0000   1.0000
     1.0000   1.0000   1.0000   1.0000   1.0000   1.0000   1.0000   1.0000
     1.0000   1.0000   1.0000   1.0000   1.0000   1.0000   1.0000   0.0000
     0.0000   0.0000   0.0000   0.0000   0.0000   0.0000   0.0000   0.0000
     0.0000   0.0000   0.0000

          k = 0.2505 0.0667-0.3764 ( 18029 PWs)   bands (ev):

   -92.1038 -80.9031 -63.4537 -63.4428 -52.7347 -52.7038 -52.6766 -44.4996
   -44.2074 -44.0753 -27.8614 -27.8306 -27.6984 -27.6873 -27.6451 -27.6290
    -6.9904  -6.6842  -6.4956  -6.3530  -5.9832  -5.7694  -5.6070  -5.5146
     3.5633   3.6433   4.2314   4.4564   4.7444   4.9038   5.2938   5.4885
     5.8268   6.0156   6.3904   6.5614   6.7004   7.2988   7.4342   7.5977
     7.7669   8.0334   8.3236   8.5533   8.7838   9.1454   9.1932   9.4602
     9.7029   9.8804  10.0437  10.1966  10.3935  10.5174  10.8411  14.0928
    14.1962  14.3457  14.5648  14.9543  15.0611  16.7746  17.4583  17.5870
    18.4197  18.6838  19.5994

     occupation numbers 
     1.0000   1.0000   1.0000   1.0000   1.0000   1.0000   1.0000   1.0000
     1.0000   1.0000   1.0000   1.0000   1.0000   1.0000   1.0000   1.0000
     1.0000   1.0000   1.0000   1.0000   1.0000   1.0000   1.0000   1.0000
     1.0000   1.0000   1.0000   1.0000   1.0000   1.0000   1.0000   1.0000
     1.0000   1.0000   1.0000   1.0000   1.0000   1.0000   1.0000   1.0000
     1.0000   1.0000   1.0000   1.0000   1.0000   1.0000   1.0000   1.0000
     1.0000   1.0000   1.0000   1.0000   1.0000   1.0000   1.0000   0.0000
     0.0000   0.0000   0.0000   0.0000   0.0000   0.0000   0.0000   0.0000
     0.0000   0.0000   0.0000

          k = 0.2503 0.0667-0.2256 ( 18038 PWs)   bands (ev):

   -92.1038 -80.9031 -63.4551 -63.4414 -52.7347 -52.7038 -52.6766 -44.4996
   -44.2074 -44.0754 -27.8696 -27.8103 -27.7080 -27.6785 -27.6490 -27.6356
    -7.3518  -6.5707  -6.4451  -6.2216  -5.8616  -5.7690  -5.6221  -5.5162
     3.5580   3.6488   4.2950   4.4847   4.6810   4.8532   5.2923   5.4846
     5.6692   6.0185   6.2723   6.3795   6.6724   7.1905   7.4725   7.9518
     8.0249   8.2425   8.3363   8.5662   8.8055   9.0253   9.2272   9.5438
     9.6583   9.8300  10.0014  10.1481  10.2876  10.4869  10.8795  14.0479
    14.2333  14.3174  14.6248  14.9480  15.2364  16.7539  17.4694  17.5878
    18.3431  18.8105  19.2941

     occupation numbers 
     1.0000   1.0000   1.0000   1.0000   1.0000   1.0000   1.0000   1.0000
     1.0000   1.0000   1.0000   1.0000   1.0000   1.0000   1.0000   1.0000
     1.0000   1.0000   1.0000   1.0000   1.0000   1.0000   1.0000   1.0000
     1.0000   1.0000   1.0000   1.0000   1.0000   1.0000   1.0000   1.0000
     1.0000   1.0000   1.0000   1.0000   1.0000   1.0000   1.0000   1.0000
     1.0000   1.0000   1.0000   1.0000   1.0000   1.0000   1.0000   1.0000
     1.0000   1.0000   1.0000   1.0000   1.0000   1.0000   1.0000   0.0000
     0.0000   0.0000   0.0000   0.0000   0.0000   0.0000   0.0000   0.0000
     0.0000   0.0000   0.0000

          k = 0.2501 0.0667-0.0747 ( 18030 PWs)   bands (ev):

   -92.1038 -80.9031 -63.4563 -63.4401 -52.7348 -52.7038 -52.6766 -44.4996
   -44.2074 -44.0754 -27.8730 -27.7941 -27.7136 -27.6707 -27.6568 -27.6417
    -7.5556  -6.5158  -6.4051  -6.1195  -5.8455  -5.7260  -5.6419  -5.5308
     3.5212   3.6620   4.2660   4.4797   4.6374   4.8757   5.1637   5.6006
     5.8004   6.1140   6.3539   6.5164   6.8096   6.9435   7.3242   7.7724
     7.9832   8.1682   8.4248   8.6930   8.8418   9.1705   9.2912   9.4150
     9.5522   9.7701   9.9537  10.1048  10.3521  10.5253  10.8353  14.0242
    14.1359  14.3556  14.6620  14.9034  15.3233  16.7288  17.5100  17.6978
    18.5035  18.8753  19.1347

     occupation numbers 
     1.0000   1.0000   1.0000   1.0000   1.0000   1.0000   1.0000   1.0000
     1.0000   1.0000   1.0000   1.0000   1.0000   1.0000   1.0000   1.0000
     1.0000   1.0000   1.0000   1.0000   1.0000   1.0000   1.0000   1.0000
     1.0000   1.0000   1.0000   1.0000   1.0000   1.0000   1.0000   1.0000
     1.0000   1.0000   1.0000   1.0000   1.0000   1.0000   1.0000   1.0000
     1.0000   1.0000   1.0000   1.0000   1.0000   1.0000   1.0000   1.0000
     1.0000   1.0000   1.0000   1.0000   1.0000   1.0000   1.0000   0.0000
     0.0000   0.0000   0.0000   0.0000   0.0000   0.0000   0.0000   0.0000
     0.0000   0.0000   0.0000

          k = 0.2499 0.2002 0.0761 ( 18027 PWs)   bands (ev):

   -92.1038 -80.9031 -63.4564 -63.4401 -52.7348 -52.7038 -52.6766 -44.4996
   -44.2074 -44.0754 -27.8725 -27.7928 -27.7133 -27.6725 -27.6570 -27.6422
    -7.4475  -6.5754  -6.3889  -6.1016  -6.0342  -5.7891  -5.5627  -5.4776
     3.4580   3.6739   4.3672   4.5718   4.6663   4.8774   5.2933   5.4904
     5.8959   6.2224   6.4439   6.6192   6.8751   7.0879   7.2905   7.6236
     7.8201   8.1729   8.3454   8.5734   8.8648   8.9193   9.1611   9.2897
     9.3771   9.7244   9.9956  10.2320  10.3677  10.5463  10.7083  13.9557
    14.2873  14.3644  14.6552  14.8455  15.2752  16.7395  17.4487  17.8489
    18.8295  19.1198  19.3027

     occupation numbers 
     1.0000   1.0000   1.0000   1.0000   1.0000   1.0000   1.0000   1.0000
     1.0000   1.0000   1.0000   1.0000   1.0000   1.0000   1.0000   1.0000
     1.0000   1.0000   1.0000   1.0000   1.0000   1.0000   1.0000   1.0000
     1.0000   1.0000   1.0000   1.0000   1.0000   1.0000   1.0000   1.0000
     1.0000   1.0000   1.0000   1.0000   1.0000   1.0000   1.0000   1.0000
     1.0000   1.0000   1.0000   1.0000   1.0000   1.0000   1.0000   1.0000
     1.0000   1.0000   1.0000   1.0000   1.0000   1.0000   1.0000   0.0000
     0.0000   0.0000   0.0000   0.0000   0.0000   0.0000   0.0000   0.0000
     0.0000   0.0000   0.0000

          k = 0.2497 0.2002 0.2269 ( 18035 PWs)   bands (ev):

   -92.1038 -80.9031 -63.4552 -63.4412 -52.7347 -52.7038 -52.6766 -44.4996
   -44.2074 -44.0754 -27.8700 -27.8102 -27.7075 -27.6793 -27.6489 -27.6351
    -7.2677  -6.5567  -6.3296  -6.1598  -6.1040  -5.9145  -5.6228  -5.4622
     3.4601   3.6893   4.3876   4.5543   4.7105   4.9425   5.2991   5.4878
     5.9861   6.2591   6.3799   6.5216   6.7748   7.0512   7.3878   7.7050
     7.9250   8.1678   8.3939   8.5091   8.7110   8.8783   9.0894   9.3109
     9.4556   9.7203   9.8513  10.1864  10.3218  10.6786  10.7449  13.9712
    14.2591  14.4139  14.6196  14.7644  15.1274  16.7474  17.4416  17.8700
    18.8393  18.9885  19.6402

     occupation numbers 
     1.0000   1.0000   1.0000   1.0000   1.0000   1.0000   1.0000   1.0000
     1.0000   1.0000   1.0000   1.0000   1.0000   1.0000   1.0000   1.0000
     1.0000   1.0000   1.0000   1.0000   1.0000   1.0000   1.0000   1.0000
     1.0000   1.0000   1.0000   1.0000   1.0000   1.0000   1.0000   1.0000
     1.0000   1.0000   1.0000   1.0000   1.0000   1.0000   1.0000   1.0000
     1.0000   1.0000   1.0000   1.0000   1.0000   1.0000   1.0000   1.0000
     1.0000   1.0000   1.0000   1.0000   1.0000   1.0000   1.0000   0.0000
     0.0000   0.0000   0.0000   0.0000   0.0000   0.0000   0.0000   0.0000
     0.0000   0.0000   0.0000

          k = 0.2495 0.2002 0.3777 ( 18026 PWs)   bands (ev):

   -92.1038 -80.9031 -63.4537 -63.4428 -52.7347 -52.7038 -52.6766 -44.4996
   -44.2074 -44.0753 -27.8627 -27.8315 -27.6979 -27.6875 -27.6443 -27.6279
    -6.9592  -6.6117  -6.5330  -6.2379  -6.0705  -5.8576  -5.6813  -5.4849
     3.4745   3.6828   4.3337   4.5970   4.7133   4.9976   5.1958   5.5195
     5.8655   6.2229   6.3751   6.7059   6.9406   7.0240   7.4795   7.6093
     7.7734   8.0438   8.2753   8.5060   8.7568   8.9641   9.0583   9.2806
     9.4839   9.7908   9.9573  10.2000  10.3185  10.6201  10.8565  14.0016
    14.2108  14.5015  14.5737  14.8554  14.9798  16.7494  17.4635  17.7468
    18.6430  18.9220  19.3508

     occupation numbers 
     1.0000   1.0000   1.0000   1.0000   1.0000   1.0000   1.0000   1.0000
     1.0000   1.0000   1.0000   1.0000   1.0000   1.0000   1.0000   1.0000
     1.0000   1.0000   1.0000   1.0000   1.0000   1.0000   1.0000   1.0000
     1.0000   1.0000   1.0000   1.0000   1.0000   1.0000   1.0000   1.0000
     1.0000   1.0000   1.0000   1.0000   1.0000   1.0000   1.0000   1.0000
     1.0000   1.0000   1.0000   1.0000   1.0000   1.0000   1.0000   1.0000
     1.0000   1.0000   1.0000   1.0000   1.0000   1.0000   1.0000   0.0000
     0.0000   0.0000   0.0000   0.0000   0.0000   0.0000   0.0000   0.0000
     0.0000   0.0000   0.0000

          k = 0.2505 0.2002-0.3764 ( 18032 PWs)   bands (ev):

   -92.1038 -80.9031 -63.4537 -63.4428 -52.7347 -52.7038 -52.6766 -44.4996
   -44.2074 -44.0753 -27.8627 -27.8316 -27.6981 -27.6871 -27.6445 -27.6279
    -6.9539  -6.6583  -6.5847  -6.2618  -5.9894  -5.7980  -5.6230  -5.5462
     3.4961   3.6467   4.3117   4.6216   4.7116   4.9336   5.2324   5.4831
     5.7615   6.1149   6.3969   6.6187   6.8971   7.2308   7.4177   7.6381
     7.8157   8.1684   8.2923   8.5032   8.6137   8.9330   9.2341   9.3047
     9.5812   9.7743   9.9896  10.1990  10.3238  10.5523  10.8771  14.1169
    14.2427  14.3657  14.6433  14.9156  15.0793  16.7357  17.5063  17.5751
    18.5201  18.8042  19.2078

     occupation numbers 
     1.0000   1.0000   1.0000   1.0000   1.0000   1.0000   1.0000   1.0000
     1.0000   1.0000   1.0000   1.0000   1.0000   1.0000   1.0000   1.0000
     1.0000   1.0000   1.0000   1.0000   1.0000   1.0000   1.0000   1.0000
     1.0000   1.0000   1.0000   1.0000   1.0000   1.0000   1.0000   1.0000
     1.0000   1.0000   1.0000   1.0000   1.0000   1.0000   1.0000   1.0000
     1.0000   1.0000   1.0000   1.0000   1.0000   1.0000   1.0000   1.0000
     1.0000   1.0000   1.0000   1.0000   1.0000   1.0000   1.0000   0.0000
     0.0000   0.0000   0.0000   0.0000   0.0000   0.0000   0.0000   0.0000
     0.0000   0.0000   0.0000

          k = 0.2503 0.2002-0.2256 ( 18047 PWs)   bands (ev):

   -92.1038 -80.9031 -63.4551 -63.4414 -52.7347 -52.7038 -52.6766 -44.4996
   -44.2074 -44.0754 -27.8700 -27.8102 -27.7077 -27.6787 -27.6494 -27.6350
    -7.2661  -6.6642  -6.4841  -6.1553  -5.8707  -5.7693  -5.6529  -5.5135
     3.4941   3.6611   4.3022   4.5411   4.6695   4.9936   5.3190   5.4740
     5.7005   6.0459   6.2601   6.4710   6.9938   7.1114   7.3773   7.8841
     7.9381   8.1207   8.3333   8.5536   8.7925   8.9998   9.1690   9.4280
     9.5176   9.7839   9.9686  10.0898  10.3243  10.5329  10.8082  14.0612
    14.2812  14.4069  14.6497  14.9593  15.2525  16.7314  17.4500  17.6403
    18.4842  18.8489  19.0737

     occupation numbers 
     1.0000   1.0000   1.0000   1.0000   1.0000   1.0000   1.0000   1.0000
     1.0000   1.0000   1.0000   1.0000   1.0000   1.0000   1.0000   1.0000
     1.0000   1.0000   1.0000   1.0000   1.0000   1.0000   1.0000   1.0000
     1.0000   1.0000   1.0000   1.0000   1.0000   1.0000   1.0000   1.0000
     1.0000   1.0000   1.0000   1.0000   1.0000   1.0000   1.0000   1.0000
     1.0000   1.0000   1.0000   1.0000   1.0000   1.0000   1.0000   1.0000
     1.0000   1.0000   1.0000   1.0000   1.0000   1.0000   1.0000   0.0000
     0.0000   0.0000   0.0000   0.0000   0.0000   0.0000   0.0000   0.0000
     0.0000   0.0000   0.0000

          k = 0.2501 0.2002-0.0747 ( 18023 PWs)   bands (ev):

   -92.1038 -80.9031 -63.4563 -63.4401 -52.7348 -52.7038 -52.6766 -44.4996
   -44.2074 -44.0754 -27.8725 -27.7928 -27.7134 -27.6720 -27.6574 -27.6422
    -7.4471  -6.6193  -6.4798  -6.0815  -5.8928  -5.7453  -5.6032  -5.4874
     3.4713   3.6841   4.3079   4.5513   4.6161   4.9372   5.2240   5.5601
     5.8392   6.1800   6.3082   6.6322   6.7230   7.0821   7.3394   7.7828
     7.9204   8.2522   8.2734   8.6269   8.7067   9.0292   9.1748   9.3687
     9.5052   9.7920   9.9800  10.1385  10.3647  10.5293  10.7189  13.9731
    14.2422  14.4133  14.7159  14.9246  15.3310  16.7366  17.4526  17.7542
    18.6126  18.9441  19.1433

     occupation numbers 
     1.0000   1.0000   1.0000   1.0000   1.0000   1.0000   1.0000   1.0000
     1.0000   1.0000   1.0000   1.0000   1.0000   1.0000   1.0000   1.0000
     1.0000   1.0000   1.0000   1.0000   1.0000   1.0000   1.0000   1.0000
     1.0000   1.0000   1.0000   1.0000   1.0000   1.0000   1.0000   1.0000
     1.0000   1.0000   1.0000   1.0000   1.0000   1.0000   1.0000   1.0000
     1.0000   1.0000   1.0000   1.0000   1.0000   1.0000   1.0000   1.0000
     1.0000   1.0000   1.0000   1.0000   1.0000   1.0000   1.0000   0.0000
     0.0000   0.0000   0.0000   0.0000   0.0000   0.0000   0.0000   0.0000
     0.0000   0.0000   0.0000

          k = 0.2499 0.3337 0.0761 ( 18020 PWs)   bands (ev):

   -92.1038 -80.9031 -63.4564 -63.4401 -52.7348 -52.7038 -52.6766 -44.4996
   -44.2074 -44.0754 -27.8719 -27.7914 -27.7130 -27.6739 -27.6575 -27.6427
    -7.2688  -6.7992  -6.3743  -6.1373  -6.0977  -5.7563  -5.5204  -5.4364
     3.5050   3.6421   4.3943   4.4410   4.8207   4.9218   5.3731   5.5483
     5.9333   6.1195   6.3663   6.6443   6.9538   7.1238   7.4844   7.5715
     7.8076   7.9663   8.3271   8.5551   8.7329   8.8818   9.1360   9.2253
     9.4334   9.6761   9.9691  10.1698  10.3097  10.5958  10.6757  13.9173
    14.3613  14.4473  14.5891  14.9954  15.1980  16.7630  17.4349  17.8723
    18.8418  18.9952  19.2102

     occupation numbers 
     1.0000   1.0000   1.0000   1.0000   1.0000   1.0000   1.0000   1.0000
     1.0000   1.0000   1.0000   1.0000   1.0000   1.0000   1.0000   1.0000
     1.0000   1.0000   1.0000   1.0000   1.0000   1.0000   1.0000   1.0000
     1.0000   1.0000   1.0000   1.0000   1.0000   1.0000   1.0000   1.0000
     1.0000   1.0000   1.0000   1.0000   1.0000   1.0000   1.0000   1.0000
     1.0000   1.0000   1.0000   1.0000   1.0000   1.0000   1.0000   1.0000
     1.0000   1.0000   1.0000   1.0000   1.0000   1.0000   1.0000   0.0000
     0.0000   0.0000   0.0000   0.0000   0.0000   0.0000   0.0000   0.0000
     0.0000   0.0000   0.0000

          k = 0.2497 0.3337 0.2269 ( 18047 PWs)   bands (ev):

   -92.1038 -80.9031 -63.4552 -63.4413 -52.7347 -52.7038 -52.6766 -44.4996
   -44.2074 -44.0754 -27.8703 -27.8101 -27.7073 -27.6796 -27.6492 -27.6346
    -7.1048  -6.7062  -6.3671  -6.2683  -6.0993  -5.8414  -5.6042  -5.4389
     3.5032   3.6657   4.3789   4.5266   4.8352   4.9677   5.2577   5.6767
     5.9193   6.1230   6.4005   6.4934   6.9246   7.2072   7.3517   7.5993
     7.9113   8.0534   8.4363   8.5161   8.7097   8.8539   9.0633   9.2931
     9.4537   9.6377   9.6949  10.1187  10.3358  10.6020  10.8006  13.9776
    14.2470  14.4653  14.5584  14.8706  15.1063  16.7619  17.4597  17.8649
    18.5836  18.9655  19.7395

     occupation numbers 
     1.0000   1.0000   1.0000   1.0000   1.0000   1.0000   1.0000   1.0000
     1.0000   1.0000   1.0000   1.0000   1.0000   1.0000   1.0000   1.0000
     1.0000   1.0000   1.0000   1.0000   1.0000   1.0000   1.0000   1.0000
     1.0000   1.0000   1.0000   1.0000   1.0000   1.0000   1.0000   1.0000
     1.0000   1.0000   1.0000   1.0000   1.0000   1.0000   1.0000   1.0000
     1.0000   1.0000   1.0000   1.0000   1.0000   1.0000   1.0000   1.0000
     1.0000   1.0000   1.0000   1.0000   1.0000   1.0000   1.0000   0.0000
     0.0000   0.0000   0.0000   0.0000   0.0000   0.0000   0.0000   0.0000
     0.0000   0.0000   0.0000

          k = 0.2495 0.3337 0.3777 ( 18057 PWs)   bands (ev):

   -92.1038 -80.9031 -63.4537 -63.4428 -52.7347 -52.7038 -52.6766 -44.4996
   -44.2074 -44.0753 -27.8639 -27.8325 -27.6977 -27.6873 -27.6437 -27.6268
    -6.8703  -6.5908  -6.5775  -6.3653  -5.9734  -5.8295  -5.7720  -5.4728
     3.5026   3.6487   4.3701   4.6137   4.8188   5.0085   5.1596   5.5150
     5.8484   6.2786   6.3754   6.7104   7.0379   7.1192   7.3471   7.6654
     7.8524   8.0980   8.2637   8.4070   8.7256   8.8976   9.0420   9.1204
     9.4314   9.6704   9.8758  10.1934  10.3212  10.5520  10.8946  14.0200
    14.1990  14.5524  14.5939  14.8353  15.0078  16.7317  17.5226  17.7451
    18.3420  18.9619  19.7005

     occupation numbers 
     1.0000   1.0000   1.0000   1.0000   1.0000   1.0000   1.0000   1.0000
     1.0000   1.0000   1.0000   1.0000   1.0000   1.0000   1.0000   1.0000
     1.0000   1.0000   1.0000   1.0000   1.0000   1.0000   1.0000   1.0000
     1.0000   1.0000   1.0000   1.0000   1.0000   1.0000   1.0000   1.0000
     1.0000   1.0000   1.0000   1.0000   1.0000   1.0000   1.0000   1.0000
     1.0000   1.0000   1.0000   1.0000   1.0000   1.0000   1.0000   1.0000
     1.0000   1.0000   1.0000   1.0000   1.0000   1.0000   1.0000   0.0000
     0.0000   0.0000   0.0000   0.0000   0.0000   0.0000   0.0000   0.0000
     0.0000   0.0000   0.0000

          k = 0.2505 0.3337-0.3764 ( 18066 PWs)   bands (ev):

   -92.1038 -80.9031 -63.4537 -63.4429 -52.7347 -52.7038 -52.6766 -44.4996
   -44.2074 -44.0753 -27.8639 -27.8325 -27.6978 -27.6869 -27.6438 -27.6268
    -6.8837  -6.7819  -6.4529  -6.2897  -5.9612  -5.8653  -5.6303  -5.5679
     3.5050   3.6217   4.3173   4.5807   4.7669   4.9744   5.2652   5.5466
     5.7887   6.2720   6.4885   6.7119   6.8962   7.0530   7.3940   7.5330
     7.9792   8.1745   8.2862   8.4853   8.6122   8.8796   9.0087   9.1800
     9.4806   9.7004   9.9465  10.2031  10.3337  10.5135  10.8709  14.1157
    14.2958  14.4756  14.6735  14.8495  15.1074  16.7012  17.5602  17.5982
    18.2670  18.9660  19.3227

     occupation numbers 
     1.0000   1.0000   1.0000   1.0000   1.0000   1.0000   1.0000   1.0000
     1.0000   1.0000   1.0000   1.0000   1.0000   1.0000   1.0000   1.0000
     1.0000   1.0000   1.0000   1.0000   1.0000   1.0000   1.0000   1.0000
     1.0000   1.0000   1.0000   1.0000   1.0000   1.0000   1.0000   1.0000
     1.0000   1.0000   1.0000   1.0000   1.0000   1.0000   1.0000   1.0000
     1.0000   1.0000   1.0000   1.0000   1.0000   1.0000   1.0000   1.0000
     1.0000   1.0000   1.0000   1.0000   1.0000   1.0000   1.0000   0.0000
     0.0000   0.0000   0.0000   0.0000   0.0000   0.0000   0.0000   0.0000
     0.0000   0.0000   0.0000

          k = 0.2503 0.3337-0.2256 ( 18051 PWs)   bands (ev):

   -92.1038 -80.9031 -63.4551 -63.4414 -52.7347 -52.7038 -52.6766 -44.4996
   -44.2074 -44.0754 -27.8704 -27.8101 -27.7074 -27.6789 -27.6497 -27.6345
    -7.1262  -6.8498  -6.4274  -6.1455  -5.9105  -5.7508  -5.6746  -5.5090
     3.5089   3.6273   4.2563   4.4954   4.7046   5.0979   5.3495   5.5413
     5.8372   6.1239   6.4659   6.5295   6.9370   7.1190   7.4056   7.5297
     7.8483   8.0883   8.2621   8.5546   8.8659   8.8846   9.1867   9.3487
     9.5610   9.6388   9.8853  10.0575  10.3696  10.5186  10.7408  14.0498
    14.3261  14.5527  14.6859  14.9714  15.2195  16.7134  17.4570  17.7000
    18.3473  18.9701  19.1360

     occupation numbers 
     1.0000   1.0000   1.0000   1.0000   1.0000   1.0000   1.0000   1.0000
     1.0000   1.0000   1.0000   1.0000   1.0000   1.0000   1.0000   1.0000
     1.0000   1.0000   1.0000   1.0000   1.0000   1.0000   1.0000   1.0000
     1.0000   1.0000   1.0000   1.0000   1.0000   1.0000   1.0000   1.0000
     1.0000   1.0000   1.0000   1.0000   1.0000   1.0000   1.0000   1.0000
     1.0000   1.0000   1.0000   1.0000   1.0000   1.0000   1.0000   1.0000
     1.0000   1.0000   1.0000   1.0000   1.0000   1.0000   1.0000   0.0000
     0.0000   0.0000   0.0000   0.0000   0.0000   0.0000   0.0000   0.0000
     0.0000   0.0000   0.0000

          k = 0.2501 0.3337-0.0747 ( 18015 PWs)   bands (ev):

   -92.1038 -80.9031 -63.4563 -63.4401 -52.7348 -52.7038 -52.6766 -44.4996
   -44.2074 -44.0754 -27.8719 -27.7914 -27.7131 -27.6733 -27.6580 -27.6426
    -7.2765  -6.8498  -6.4477  -6.0879  -5.9311  -5.7731  -5.5345  -5.4717
     3.5075   3.6345   4.2985   4.4705   4.7292   5.0050   5.3159   5.5593
     5.9273   6.1567   6.4230   6.6460   6.7602   7.1399   7.4372   7.5667
     7.8794   8.1302   8.2448   8.4986   8.7249   8.8619   9.0655   9.4148
     9.5632   9.7947   9.9418  10.1174  10.3287  10.5585  10.6265  13.9377
    14.3079  14.5215  14.7289  15.0413  15.2438  16.7454  17.4396  17.8060
    18.6214  18.9533  19.1708

     occupation numbers 
     1.0000   1.0000   1.0000   1.0000   1.0000   1.0000   1.0000   1.0000
     1.0000   1.0000   1.0000   1.0000   1.0000   1.0000   1.0000   1.0000
     1.0000   1.0000   1.0000   1.0000   1.0000   1.0000   1.0000   1.0000
     1.0000   1.0000   1.0000   1.0000   1.0000   1.0000   1.0000   1.0000
     1.0000   1.0000   1.0000   1.0000   1.0000   1.0000   1.0000   1.0000
     1.0000   1.0000   1.0000   1.0000   1.0000   1.0000   1.0000   1.0000
     1.0000   1.0000   1.0000   1.0000   1.0000   1.0000   1.0000   0.0000
     0.0000   0.0000   0.0000   0.0000   0.0000   0.0000   0.0000   0.0000
     0.0000   0.0000   0.0000

          k = 0.4166 0.0667 0.0765 ( 17998 PWs)   bands (ev):

   -92.1038 -80.9031 -63.4564 -63.4400 -52.7347 -52.7038 -52.6766 -44.4996
   -44.2074 -44.0754 -27.8729 -27.7939 -27.7155 -27.6712 -27.6573 -27.6421
    -7.2613  -6.5607  -6.4886  -6.1369  -5.9906  -5.7565  -5.6995  -5.5299
     3.6168   3.6887   4.4097   4.5162   4.7436   4.9305   5.2266   5.3258
     5.7528   6.3730   6.3988   6.5528   6.8030   6.9750   7.2198   7.4886
     7.8249   8.2125   8.3412   8.6144   8.8595   9.1529   9.2239   9.3412
     9.5293   9.7871  10.0579  10.3316  10.5008  10.5813  10.6953  14.0408
    14.1805  14.2931  14.6520  14.7193  15.3356  16.6140  17.6663  17.7390
    18.7826  19.1828  19.4620

     occupation numbers 
     1.0000   1.0000   1.0000   1.0000   1.0000   1.0000   1.0000   1.0000
     1.0000   1.0000   1.0000   1.0000   1.0000   1.0000   1.0000   1.0000
     1.0000   1.0000   1.0000   1.0000   1.0000   1.0000   1.0000   1.0000
     1.0000   1.0000   1.0000   1.0000   1.0000   1.0000   1.0000   1.0000
     1.0000   1.0000   1.0000   1.0000   1.0000   1.0000   1.0000   1.0000
     1.0000   1.0000   1.0000   1.0000   1.0000   1.0000   1.0000   1.0000
     1.0000   1.0000   1.0000   1.0000   1.0000   1.0000   1.0000   0.0000
     0.0000   0.0000   0.0000   0.0000   0.0000   0.0000   0.0000   0.0000
     0.0000   0.0000   0.0000

          k = 0.4164 0.0667 0.2273 ( 18030 PWs)   bands (ev):

   -92.1038 -80.9031 -63.4552 -63.4412 -52.7347 -52.7038 -52.6766 -44.4996
   -44.2074 -44.0754 -27.8694 -27.8102 -27.7095 -27.6796 -27.6493 -27.6356
    -7.0966  -6.5457  -6.3789  -6.1934  -6.1321  -5.9279  -5.6336  -5.5355
     3.6142   3.7110   4.4487   4.5824   4.7015   4.9303   5.2633   5.4069
     5.7265   6.0244   6.2857   6.6492   6.7087   6.9640   7.1379   7.6262
     7.8015   8.3107   8.4977   8.7769   8.9223   9.0237   9.1446   9.3875
     9.6542   9.8926  10.0011  10.2131  10.3978  10.5556  10.7379  13.9859
    14.2376  14.4207  14.5165  14.7916  15.2533  16.6385  17.6790  17.7737
    18.7137  19.0462  19.4013

     occupation numbers 
     1.0000   1.0000   1.0000   1.0000   1.0000   1.0000   1.0000   1.0000
     1.0000   1.0000   1.0000   1.0000   1.0000   1.0000   1.0000   1.0000
     1.0000   1.0000   1.0000   1.0000   1.0000   1.0000   1.0000   1.0000
     1.0000   1.0000   1.0000   1.0000   1.0000   1.0000   1.0000   1.0000
     1.0000   1.0000   1.0000   1.0000   1.0000   1.0000   1.0000   1.0000
     1.0000   1.0000   1.0000   1.0000   1.0000   1.0000   1.0000   1.0000
     1.0000   1.0000   1.0000   1.0000   1.0000   1.0000   1.0000   0.0000
     0.0000   0.0000   0.0000   0.0000   0.0000   0.0000   0.0000   0.0000
     0.0000   0.0000   0.0000

          k = 0.4162 0.0667 0.3781 ( 18037 PWs)   bands (ev):

   -92.1038 -80.9031 -63.4538 -63.4427 -52.7347 -52.7038 -52.6766 -44.4996
   -44.2074 -44.0753 -27.8612 -27.8305 -27.6997 -27.6888 -27.6453 -27.6289
    -6.8051  -6.5192  -6.4440  -6.3115  -6.1531  -6.1129  -5.5891  -5.5156
     3.6312   3.7754   4.5091   4.5663   4.7050   4.8816   5.0858   5.2632
     5.6009   6.2399   6.3326   6.4905   6.7031   7.0410   7.3978   7.5799
     7.9275   8.0917   8.2291   8.6222   8.7534   9.2959   9.3468   9.5061
     9.8154   9.9342  10.0819  10.2320  10.3117  10.5201  10.7408  14.0331
    14.2537  14.3781  14.4789  14.9601  15.1380  16.6744  17.6880  17.7741
    18.5144  18.6097  19.5108

     occupation numbers 
     1.0000   1.0000   1.0000   1.0000   1.0000   1.0000   1.0000   1.0000
     1.0000   1.0000   1.0000   1.0000   1.0000   1.0000   1.0000   1.0000
     1.0000   1.0000   1.0000   1.0000   1.0000   1.0000   1.0000   1.0000
     1.0000   1.0000   1.0000   1.0000   1.0000   1.0000   1.0000   1.0000
     1.0000   1.0000   1.0000   1.0000   1.0000   1.0000   1.0000   1.0000
     1.0000   1.0000   1.0000   1.0000   1.0000   1.0000   1.0000   1.0000
     1.0000   1.0000   1.0000   1.0000   1.0000   1.0000   1.0000   0.0000
     0.0000   0.0000   0.0000   0.0000   0.0000   0.0000   0.0000   0.0000
     0.0000   0.0000   0.0000

          k = 0.4171 0.0667-0.3759 ( 18041 PWs)   bands (ev):

   -92.1038 -80.9031 -63.4538 -63.4427 -52.7347 -52.7038 -52.6766 -44.4997
   -44.2074 -44.0753 -27.8612 -27.8305 -27.6999 -27.6887 -27.6454 -27.6289
    -6.7694  -6.5610  -6.4796  -6.3118  -6.2708  -5.9487  -5.6014  -5.4962
     3.6327   3.7878   4.4534   4.6270   4.8036   4.9092   5.0015   5.1310
     5.5518   6.0598   6.3526   6.5385   6.6459   7.2317   7.4680   7.6897
     7.7543   8.0045   8.3237   8.6683   8.7672   9.2759   9.3954   9.6384
     9.7884   9.9147   9.9670  10.2579  10.3451  10.5147  10.7623  14.0502
    14.2445  14.3925  14.4912  15.0167  15.1313  16.6817  17.6428  17.7539
    18.3713  18.5326  19.4714

     occupation numbers 
     1.0000   1.0000   1.0000   1.0000   1.0000   1.0000   1.0000   1.0000
     1.0000   1.0000   1.0000   1.0000   1.0000   1.0000   1.0000   1.0000
     1.0000   1.0000   1.0000   1.0000   1.0000   1.0000   1.0000   1.0000
     1.0000   1.0000   1.0000   1.0000   1.0000   1.0000   1.0000   1.0000
     1.0000   1.0000   1.0000   1.0000   1.0000   1.0000   1.0000   1.0000
     1.0000   1.0000   1.0000   1.0000   1.0000   1.0000   1.0000   1.0000
     1.0000   1.0000   1.0000   1.0000   1.0000   1.0000   1.0000   0.0000
     0.0000   0.0000   0.0000   0.0000   0.0000   0.0000   0.0000   0.0000
     0.0000   0.0000   0.0000

          k = 0.4169 0.0667-0.2251 ( 18021 PWs)   bands (ev):

   -92.1038 -80.9031 -63.4552 -63.4413 -52.7347 -52.7038 -52.6766 -44.4996
   -44.2074 -44.0754 -27.8694 -27.8102 -27.7096 -27.6794 -27.6495 -27.6355
    -7.0740  -6.5999  -6.4702  -6.2024  -6.1151  -5.8028  -5.6538  -5.5023
     3.6349   3.7258   4.3991   4.5637   4.8105   4.9939   5.1757   5.3322
     5.5573   5.8249   6.2255   6.5257   6.6590   7.0659   7.3338   7.7398
     7.9369   8.3519   8.5234   8.7170   8.9837   9.0252   9.2905   9.4082
     9.6440   9.8155   9.9008  10.3059  10.3698  10.5718  10.7908  13.9978
    14.2651  14.3647  14.5448  14.9059  15.2873  16.6515  17.5772  17.7791
    18.3890  18.8348  19.4236

     occupation numbers 
     1.0000   1.0000   1.0000   1.0000   1.0000   1.0000   1.0000   1.0000
     1.0000   1.0000   1.0000   1.0000   1.0000   1.0000   1.0000   1.0000
     1.0000   1.0000   1.0000   1.0000   1.0000   1.0000   1.0000   1.0000
     1.0000   1.0000   1.0000   1.0000   1.0000   1.0000   1.0000   1.0000
     1.0000   1.0000   1.0000   1.0000   1.0000   1.0000   1.0000   1.0000
     1.0000   1.0000   1.0000   1.0000   1.0000   1.0000   1.0000   1.0000
     1.0000   1.0000   1.0000   1.0000   1.0000   1.0000   1.0000   0.0000
     0.0000   0.0000   0.0000   0.0000   0.0000   0.0000   0.0000   0.0000
     0.0000   0.0000   0.0000

          k = 0.4168 0.0667-0.0743 ( 18009 PWs)   bands (ev):

   -92.1038 -80.9031 -63.4563 -63.4401 -52.7347 -52.7038 -52.6766 -44.4996
   -44.2074 -44.0754 -27.8729 -27.7939 -27.7155 -27.6710 -27.6575 -27.6420
    -7.2538  -6.5869  -6.5202  -6.1526  -5.9183  -5.7981  -5.6675  -5.5150
     3.6375   3.6946   4.3639   4.4951   4.7987   5.0081   5.1262   5.2679
     5.8684   6.1035   6.3411   6.4790   6.8117   6.9945   7.1764   7.7097
     7.9002   8.2427   8.5481   8.6239   8.8155   9.0119   9.2447   9.3667
     9.5664   9.6949  10.0944  10.3580  10.4345  10.5842  10.7677  14.0263
    14.2027  14.2749  14.6333  14.7998  15.3612  16.6201  17.6053  17.7623
    18.5904  19.0911  19.5045

     occupation numbers 
     1.0000   1.0000   1.0000   1.0000   1.0000   1.0000   1.0000   1.0000
     1.0000   1.0000   1.0000   1.0000   1.0000   1.0000   1.0000   1.0000
     1.0000   1.0000   1.0000   1.0000   1.0000   1.0000   1.0000   1.0000
     1.0000   1.0000   1.0000   1.0000   1.0000   1.0000   1.0000   1.0000
     1.0000   1.0000   1.0000   1.0000   1.0000   1.0000   1.0000   1.0000
     1.0000   1.0000   1.0000   1.0000   1.0000   1.0000   1.0000   1.0000
     1.0000   1.0000   1.0000   1.0000   1.0000   1.0000   1.0000   0.0000
     0.0000   0.0000   0.0000   0.0000   0.0000   0.0000   0.0000   0.0000
     0.0000   0.0000   0.0000

          k = 0.4166 0.2002 0.0765 ( 18028 PWs)   bands (ev):

   -92.1038 -80.9031 -63.4563 -63.4401 -52.7348 -52.7038 -52.6766 -44.4996
   -44.2074 -44.0754 -27.8723 -27.7925 -27.7151 -27.6725 -27.6580 -27.6425
    -7.1920  -6.6897  -6.4622  -6.1391  -6.0012  -5.8037  -5.6553  -5.4716
     3.4853   3.6407   4.2653   4.4737   4.7402   5.0391   5.2602   5.5423
     5.8586   6.4588   6.5270   6.6060   6.9394   7.0295   7.2153   7.4934
     7.8285   8.1546   8.3418   8.5700   8.7548   8.9745   9.1073   9.3647
     9.5307   9.7524   9.9265  10.2166  10.4151  10.5575  10.6286  13.9817
    14.2394  14.3926  14.5999  14.7966  15.3886  16.6657  17.5483  17.7524
    18.7622  19.0767  19.4073

     occupation numbers 
     1.0000   1.0000   1.0000   1.0000   1.0000   1.0000   1.0000   1.0000
     1.0000   1.0000   1.0000   1.0000   1.0000   1.0000   1.0000   1.0000
     1.0000   1.0000   1.0000   1.0000   1.0000   1.0000   1.0000   1.0000
     1.0000   1.0000   1.0000   1.0000   1.0000   1.0000   1.0000   1.0000
     1.0000   1.0000   1.0000   1.0000   1.0000   1.0000   1.0000   1.0000
     1.0000   1.0000   1.0000   1.0000   1.0000   1.0000   1.0000   1.0000
     1.0000   1.0000   1.0000   1.0000   1.0000   1.0000   1.0000   0.0000
     0.0000   0.0000   0.0000   0.0000   0.0000   0.0000   0.0000   0.0000
     0.0000   0.0000   0.0000

          k = 0.4164 0.2002 0.2273 ( 18023 PWs)   bands (ev):

   -92.1038 -80.9031 -63.4552 -63.4413 -52.7347 -52.7038 -52.6766 -44.4996
   -44.2074 -44.0754 -27.8698 -27.8100 -27.7093 -27.6799 -27.6497 -27.6350
    -7.0378  -6.6810  -6.3126  -6.2776  -6.1018  -5.8863  -5.6185  -5.5150
     3.4985   3.6496   4.3218   4.5157   4.7724   5.0165   5.2470   5.4976
     5.7182   6.2250   6.3760   6.6425   6.8100   7.1042   7.3222   7.7349
     7.8592   8.2403   8.5011   8.5695   8.8334   8.9734   9.1449   9.2619
     9.5557   9.8118   9.9281  10.0529  10.2934  10.5815  10.6915  13.9347
    14.2475  14.4706  14.6144  14.7499  15.2603  16.6748  17.5762  17.7890
    18.6056  18.9497  19.5003

     occupation numbers 
     1.0000   1.0000   1.0000   1.0000   1.0000   1.0000   1.0000   1.0000
     1.0000   1.0000   1.0000   1.0000   1.0000   1.0000   1.0000   1.0000
     1.0000   1.0000   1.0000   1.0000   1.0000   1.0000   1.0000   1.0000
     1.0000   1.0000   1.0000   1.0000   1.0000   1.0000   1.0000   1.0000
     1.0000   1.0000   1.0000   1.0000   1.0000   1.0000   1.0000   1.0000
     1.0000   1.0000   1.0000   1.0000   1.0000   1.0000   1.0000   1.0000
     1.0000   1.0000   1.0000   1.0000   1.0000   1.0000   1.0000   0.0000
     0.0000   0.0000   0.0000   0.0000   0.0000   0.0000   0.0000   0.0000
     0.0000   0.0000   0.0000

          k = 0.4162 0.2002 0.3781 ( 18012 PWs)   bands (ev):

   -92.1038 -80.9031 -63.4538 -63.4428 -52.7347 -52.7038 -52.6766 -44.4997
   -44.2074 -44.0753 -27.8624 -27.8314 -27.6994 -27.6886 -27.6447 -27.6278
    -6.7860  -6.6396  -6.4965  -6.3160  -6.0418  -5.9972  -5.6244  -5.5340
     3.5266   3.6557   4.4113   4.4956   4.7641   4.9640   5.0821   5.4324
     5.6840   6.1446   6.3327   6.5429   6.9658   7.2814   7.4586   7.7036
     7.9555   8.1026   8.2472   8.5434   8.7529   9.1662   9.2577   9.3913
     9.6621   9.8533  10.0139  10.0727  10.1921  10.4746  10.7235  14.0100
    14.2141  14.4867  14.5290  14.9254  15.0950  16.6771  17.5989  17.7720
    18.5152  18.5538  19.6929

     occupation numbers 
     1.0000   1.0000   1.0000   1.0000   1.0000   1.0000   1.0000   1.0000
     1.0000   1.0000   1.0000   1.0000   1.0000   1.0000   1.0000   1.0000
     1.0000   1.0000   1.0000   1.0000   1.0000   1.0000   1.0000   1.0000
     1.0000   1.0000   1.0000   1.0000   1.0000   1.0000   1.0000   1.0000
     1.0000   1.0000   1.0000   1.0000   1.0000   1.0000   1.0000   1.0000
     1.0000   1.0000   1.0000   1.0000   1.0000   1.0000   1.0000   1.0000
     1.0000   1.0000   1.0000   1.0000   1.0000   1.0000   1.0000   0.0000
     0.0000   0.0000   0.0000   0.0000   0.0000   0.0000   0.0000   0.0000
     0.0000   0.0000   0.0000

          k = 0.4171 0.2002-0.3759 ( 18010 PWs)   bands (ev):

   -92.1038 -80.9031 -63.4538 -63.4428 -52.7347 -52.7038 -52.6766 -44.4997
   -44.2074 -44.0753 -27.8624 -27.8314 -27.6995 -27.6885 -27.6447 -27.6278
    -6.7844  -6.6820  -6.4729  -6.3435  -6.0884  -5.8883  -5.6072  -5.5582
     3.5555   3.6264   4.3317   4.5580   4.7021   5.0622   5.0848   5.3742
     5.6424   6.0586   6.3876   6.6392   6.7933   7.3074   7.5638   7.6722
     7.9288   8.0601   8.3375   8.5563   8.7513   9.1234   9.2885   9.5442
     9.6776   9.8378   9.8813  10.1548  10.2330  10.4113  10.7348  14.0933
    14.1949  14.4055  14.6017  14.9500  15.1363  16.6709  17.6243  17.6827
    18.3527  18.6402  19.4140

     occupation numbers 
     1.0000   1.0000   1.0000   1.0000   1.0000   1.0000   1.0000   1.0000
     1.0000   1.0000   1.0000   1.0000   1.0000   1.0000   1.0000   1.0000
     1.0000   1.0000   1.0000   1.0000   1.0000   1.0000   1.0000   1.0000
     1.0000   1.0000   1.0000   1.0000   1.0000   1.0000   1.0000   1.0000
     1.0000   1.0000   1.0000   1.0000   1.0000   1.0000   1.0000   1.0000
     1.0000   1.0000   1.0000   1.0000   1.0000   1.0000   1.0000   1.0000
     1.0000   1.0000   1.0000   1.0000   1.0000   1.0000   1.0000   0.0000
     0.0000   0.0000   0.0000   0.0000   0.0000   0.0000   0.0000   0.0000
     0.0000   0.0000   0.0000

          k = 0.4169 0.2002-0.2251 ( 18032 PWs)   bands (ev):

   -92.1038 -80.9031 -63.4552 -63.4414 -52.7347 -52.7038 -52.6766 -44.4996
   -44.2074 -44.0754 -27.8698 -27.8100 -27.7093 -27.6797 -27.6499 -27.6349
    -7.0325  -6.7351  -6.4267  -6.2185  -6.0353  -5.8029  -5.6282  -5.5306
     3.5363   3.6269   4.2294   4.5294   4.7080   5.0878   5.3388   5.4084
     5.7558   5.9581   6.3805   6.5652   6.8199   7.1874   7.4562   7.5365
     7.9224   8.3801   8.4387   8.6850   8.8041   9.0088   9.2347   9.3762
     9.5795   9.6944   9.8591  10.1969  10.2812  10.5041  10.7166  14.0140
    14.2298  14.4517  14.6147  14.8752  15.3216  16.6675  17.5728  17.6951
    18.4104  18.9729  19.1740

     occupation numbers 
     1.0000   1.0000   1.0000   1.0000   1.0000   1.0000   1.0000   1.0000
     1.0000   1.0000   1.0000   1.0000   1.0000   1.0000   1.0000   1.0000
     1.0000   1.0000   1.0000   1.0000   1.0000   1.0000   1.0000   1.0000
     1.0000   1.0000   1.0000   1.0000   1.0000   1.0000   1.0000   1.0000
     1.0000   1.0000   1.0000   1.0000   1.0000   1.0000   1.0000   1.0000
     1.0000   1.0000   1.0000   1.0000   1.0000   1.0000   1.0000   1.0000
     1.0000   1.0000   1.0000   1.0000   1.0000   1.0000   1.0000   0.0000
     0.0000   0.0000   0.0000   0.0000   0.0000   0.0000   0.0000   0.0000
     0.0000   0.0000   0.0000

          k = 0.4168 0.2002-0.0743 ( 18021 PWs)   bands (ev):

   -92.1038 -80.9031 -63.4563 -63.4401 -52.7348 -52.7038 -52.6766 -44.4996
   -44.2074 -44.0754 -27.8723 -27.7925 -27.7152 -27.6722 -27.6582 -27.6424
    -7.1898  -6.7135  -6.4993  -6.1296  -5.9332  -5.7947  -5.6708  -5.4737
     3.4980   3.6446   4.2181   4.4703   4.7161   5.0356   5.2684   5.6025
     5.9105   6.2584   6.4076   6.5937   6.9707   7.1122   7.1523   7.6413
     7.7672   8.1939   8.3611   8.6277   8.8135   8.9397   9.1573   9.4214
     9.5272   9.6315   9.9427  10.2946  10.3930  10.4819  10.6765  14.0019
    14.2698  14.3281  14.6423  14.8461  15.4192  16.6638  17.5433  17.7193
    18.6564  19.0020  19.3793

     occupation numbers 
     1.0000   1.0000   1.0000   1.0000   1.0000   1.0000   1.0000   1.0000
     1.0000   1.0000   1.0000   1.0000   1.0000   1.0000   1.0000   1.0000
     1.0000   1.0000   1.0000   1.0000   1.0000   1.0000   1.0000   1.0000
     1.0000   1.0000   1.0000   1.0000   1.0000   1.0000   1.0000   1.0000
     1.0000   1.0000   1.0000   1.0000   1.0000   1.0000   1.0000   1.0000
     1.0000   1.0000   1.0000   1.0000   1.0000   1.0000   1.0000   1.0000
     1.0000   1.0000   1.0000   1.0000   1.0000   1.0000   1.0000   0.0000
     0.0000   0.0000   0.0000   0.0000   0.0000   0.0000   0.0000   0.0000
     0.0000   0.0000   0.0000

          k = 0.4166 0.3337 0.0765 ( 18021 PWs)   bands (ev):

   -92.1038 -80.9031 -63.4563 -63.4401 -52.7348 -52.7038 -52.6766 -44.4996
   -44.2074 -44.0754 -27.8717 -27.7911 -27.7148 -27.6738 -27.6586 -27.6429
    -7.1006  -6.7997  -6.4423  -6.1763  -6.0599  -5.7824  -5.6114  -5.4328
     3.3963   3.5670   4.1458   4.4514   4.6859   5.1337   5.3346   5.8187
     5.9941   6.4274   6.5255   6.7730   6.9904   7.1172   7.3079   7.5380
     7.9182   7.9969   8.3019   8.4593   8.7028   8.9392   9.0158   9.1689
     9.4697   9.7299   9.8385  10.1700  10.3166  10.4836  10.6156  13.9559
    14.3436  14.4396  14.5011  14.9387  15.3840  16.7167  17.4665  17.7594
    18.5091  19.2503  19.3940

     occupation numbers 
     1.0000   1.0000   1.0000   1.0000   1.0000   1.0000   1.0000   1.0000
     1.0000   1.0000   1.0000   1.0000   1.0000   1.0000   1.0000   1.0000
     1.0000   1.0000   1.0000   1.0000   1.0000   1.0000   1.0000   1.0000
     1.0000   1.0000   1.0000   1.0000   1.0000   1.0000   1.0000   1.0000
     1.0000   1.0000   1.0000   1.0000   1.0000   1.0000   1.0000   1.0000
     1.0000   1.0000   1.0000   1.0000   1.0000   1.0000   1.0000   1.0000
     1.0000   1.0000   1.0000   1.0000   1.0000   1.0000   1.0000   0.0000
     0.0000   0.0000   0.0000   0.0000   0.0000   0.0000   0.0000   0.0000
     0.0000   0.0000   0.0000

          k = 0.4164 0.3337 0.2273 ( 18029 PWs)   bands (ev):

   -92.1038 -80.9031 -63.4552 -63.4414 -52.7347 -52.7038 -52.6766 -44.4996
   -44.2074 -44.0754 -27.8700 -27.8099 -27.7090 -27.6802 -27.6499 -27.6345
    -6.9619  -6.7816  -6.3341  -6.2615  -6.1446  -5.8630  -5.5550  -5.5154
     3.4075   3.5915   4.1966   4.4527   4.7376   5.1305   5.3434   5.5841
     5.7318   6.3536   6.4694   6.6981   6.9428   7.2241   7.5502   7.7137
     7.9286   8.2331   8.4143   8.4519   8.6817   8.8827   8.9963   9.2782
     9.5340   9.6897   9.8011  10.0324  10.2398  10.3977  10.7252  13.9228
    14.2490  14.4875  14.6466  14.7812  15.2461  16.7085  17.5045  17.7839
    18.5154  18.8867  19.6401

     occupation numbers 
     1.0000   1.0000   1.0000   1.0000   1.0000   1.0000   1.0000   1.0000
     1.0000   1.0000   1.0000   1.0000   1.0000   1.0000   1.0000   1.0000
     1.0000   1.0000   1.0000   1.0000   1.0000   1.0000   1.0000   1.0000
     1.0000   1.0000   1.0000   1.0000   1.0000   1.0000   1.0000   1.0000
     1.0000   1.0000   1.0000   1.0000   1.0000   1.0000   1.0000   1.0000
     1.0000   1.0000   1.0000   1.0000   1.0000   1.0000   1.0000   1.0000
     1.0000   1.0000   1.0000   1.0000   1.0000   1.0000   1.0000   0.0000
     0.0000   0.0000   0.0000   0.0000   0.0000   0.0000   0.0000   0.0000
     0.0000   0.0000   0.0000

          k = 0.4162 0.3337 0.3781 ( 18027 PWs)   bands (ev):

   -92.1038 -80.9031 -63.4537 -63.4429 -52.7347 -52.7038 -52.6766 -44.4997
   -44.2074 -44.0753 -27.8636 -27.8323 -27.6991 -27.6884 -27.6439 -27.6267
    -6.7869  -6.7218  -6.4681  -6.3582  -5.9688  -5.9070  -5.6668  -5.5420
     3.4194   3.5922   4.3060   4.3985   4.7005   5.0731   5.2400   5.4348
     5.8525   6.1808   6.5109   6.6089   6.9496   7.3156   7.6051   7.8558
     7.9098   8.2004   8.3422   8.4887   8.8221   8.9525   9.0571   9.3504
     9.5454   9.7058   9.9287  10.0419  10.0692  10.3280  10.7292  13.9924
    14.1943  14.4997  14.6035  14.9047  15.0661  16.6725  17.5431  17.7454
    18.4641  18.5770  19.9154

     occupation numbers 
     1.0000   1.0000   1.0000   1.0000   1.0000   1.0000   1.0000   1.0000
     1.0000   1.0000   1.0000   1.0000   1.0000   1.0000   1.0000   1.0000
     1.0000   1.0000   1.0000   1.0000   1.0000   1.0000   1.0000   1.0000
     1.0000   1.0000   1.0000   1.0000   1.0000   1.0000   1.0000   1.0000
     1.0000   1.0000   1.0000   1.0000   1.0000   1.0000   1.0000   1.0000
     1.0000   1.0000   1.0000   1.0000   1.0000   1.0000   1.0000   1.0000
     1.0000   1.0000   1.0000   1.0000   1.0000   1.0000   1.0000   0.0000
     0.0000   0.0000   0.0000   0.0000   0.0000   0.0000   0.0000   0.0000
     0.0000   0.0000   0.0000

          k = 0.4171 0.3337-0.3759 ( 18029 PWs)   bands (ev):

   -92.1038 -80.9031 -63.4537 -63.4429 -52.7347 -52.7038 -52.6766 -44.4997
   -44.2074 -44.0753 -27.8636 -27.8323 -27.6992 -27.6883 -27.6440 -27.6267
    -6.8070  -6.7635  -6.4378  -6.3532  -5.9470  -5.8643  -5.6447  -5.5930
     3.4228   3.5819   4.2094   4.4910   4.6031   5.1351   5.2182   5.4595
     5.9302   6.1390   6.4789   6.6906   6.8643   7.1598   7.7208   7.8322
     8.0191   8.0807   8.4153   8.5277   8.7282   8.9154   9.0894   9.4231
     9.6104   9.7101   9.8804   9.9868  10.1424  10.3734  10.6798  14.1113
    14.1377  14.4826  14.6534  14.8954  15.1404  16.6556  17.5791  17.6754
    18.2373  18.7197  19.6078

     occupation numbers 
     1.0000   1.0000   1.0000   1.0000   1.0000   1.0000   1.0000   1.0000
     1.0000   1.0000   1.0000   1.0000   1.0000   1.0000   1.0000   1.0000
     1.0000   1.0000   1.0000   1.0000   1.0000   1.0000   1.0000   1.0000
     1.0000   1.0000   1.0000   1.0000   1.0000   1.0000   1.0000   1.0000
     1.0000   1.0000   1.0000   1.0000   1.0000   1.0000   1.0000   1.0000
     1.0000   1.0000   1.0000   1.0000   1.0000   1.0000   1.0000   1.0000
     1.0000   1.0000   1.0000   1.0000   1.0000   1.0000   1.0000   0.0000
     0.0000   0.0000   0.0000   0.0000   0.0000   0.0000   0.0000   0.0000
     0.0000   0.0000   0.0000

          k = 0.4169 0.3337-0.2251 ( 18035 PWs)   bands (ev):

   -92.1038 -80.9031 -63.4551 -63.4414 -52.7347 -52.7038 -52.6766 -44.4996
   -44.2074 -44.0754 -27.8701 -27.8099 -27.7090 -27.6799 -27.6502 -27.6344
    -6.9750  -6.8395  -6.4113  -6.2398  -5.9540  -5.8326  -5.5929  -5.5536
     3.4128   3.5807   4.1116   4.5260   4.5730   5.1983   5.3732   5.4782
     6.0235   6.1728   6.4690   6.6279   6.9922   7.2402   7.4499   7.6835
     7.8882   8.2233   8.3589   8.5359   8.6799   8.9352   9.2146   9.3235
     9.4997   9.6846   9.7846  10.0588  10.1992  10.4976  10.6334  13.9825
    14.2541  14.5473  14.6535  14.8672  15.3285  16.6820  17.5702  17.6586
    18.2141  19.0318  19.3764

     occupation numbers 
     1.0000   1.0000   1.0000   1.0000   1.0000   1.0000   1.0000   1.0000
     1.0000   1.0000   1.0000   1.0000   1.0000   1.0000   1.0000   1.0000
     1.0000   1.0000   1.0000   1.0000   1.0000   1.0000   1.0000   1.0000
     1.0000   1.0000   1.0000   1.0000   1.0000   1.0000   1.0000   1.0000
     1.0000   1.0000   1.0000   1.0000   1.0000   1.0000   1.0000   1.0000
     1.0000   1.0000   1.0000   1.0000   1.0000   1.0000   1.0000   1.0000
     1.0000   1.0000   1.0000   1.0000   1.0000   1.0000   1.0000   0.0000
     0.0000   0.0000   0.0000   0.0000   0.0000   0.0000   0.0000   0.0000
     0.0000   0.0000   0.0000

          k = 0.4168 0.3337-0.0743 ( 18027 PWs)   bands (ev):

   -92.1038 -80.9031 -63.4563 -63.4402 -52.7348 -52.7038 -52.6766 -44.4996
   -44.2074 -44.0754 -27.8717 -27.7911 -27.7148 -27.6735 -27.6589 -27.6429
    -7.1054  -6.8217  -6.4875  -6.1543  -5.9675  -5.7634  -5.6497  -5.4469
     3.3986   3.5656   4.1205   4.4587   4.6255   5.1314   5.3441   5.8527
     6.0790   6.2980   6.6405   6.6821   6.9016   7.1693   7.2910   7.6129
     7.8301   7.9152   8.3857   8.5346   8.6567   8.9876   9.0626   9.1952
     9.4693   9.6777   9.9009  10.1516  10.3552  10.4615  10.5908  13.9633
    14.3375  14.4265  14.5841  14.9709  15.4207  16.7066  17.4932  17.7026
    18.3803  19.2490  19.4004

     occupation numbers 
     1.0000   1.0000   1.0000   1.0000   1.0000   1.0000   1.0000   1.0000
     1.0000   1.0000   1.0000   1.0000   1.0000   1.0000   1.0000   1.0000
     1.0000   1.0000   1.0000   1.0000   1.0000   1.0000   1.0000   1.0000
     1.0000   1.0000   1.0000   1.0000   1.0000   1.0000   1.0000   1.0000
     1.0000   1.0000   1.0000   1.0000   1.0000   1.0000   1.0000   1.0000
     1.0000   1.0000   1.0000   1.0000   1.0000   1.0000   1.0000   1.0000
     1.0000   1.0000   1.0000   1.0000   1.0000   1.0000   1.0000   0.0000
     0.0000   0.0000   0.0000   0.0000   0.0000   0.0000   0.0000   0.0000
     0.0000   0.0000   0.0000

 ------ SPIN DOWN ----------


          k = 0.0832 0.0667 0.0756 ( 18052 PWs)   bands (ev):

   -90.1659 -83.6668 -63.4618 -63.4484 -50.6375 -50.6214 -50.6086 -47.7562
   -47.0469 -46.7436 -27.8835 -27.8026 -27.7179 -27.6820 -27.6631 -27.6523
    -7.7639  -6.4644  -6.2128  -6.0853  -5.9063  -5.8734  -5.6010  -5.3830
     3.8303   3.9650   4.2465   4.4013   4.6864   4.8466   5.3592   5.7523
     5.8576   6.0949   6.5026   6.7354   6.9326   7.0294   7.1619   7.4503
     7.5172   7.9595   8.0328   8.1061   8.3405   8.6936   8.8388   9.0708
     9.4140   9.5771   9.8118   9.8857  10.2934  10.4573  10.6110  10.8520
    13.9608  14.2166  14.3387  14.7204  14.8484  15.2817  16.6634  16.8587
    18.1855  18.7814  19.2452

     occupation numbers 
     1.0000   1.0000   1.0000   1.0000   1.0000   1.0000   1.0000   1.0000
     1.0000   1.0000   1.0000   1.0000   1.0000   1.0000   1.0000   1.0000
     1.0000   1.0000   1.0000   1.0000   1.0000   1.0000   1.0000   1.0000
     1.0000   1.0000   1.0000   1.0000   1.0000   1.0000   1.0000   1.0000
     1.0000   1.0000   1.0000   1.0000   1.0000   1.0000   1.0000   1.0000
     1.0000   1.0000   1.0000   1.0000   1.0000   1.0000   1.0000   1.0000
     1.0000   1.0000   1.0000   1.0000   1.0000   1.0000   1.0000   1.0000
     0.0000   0.0000   0.0000   0.0000   0.0000   0.0000   0.0000   0.0000
     0.0000   0.0000   0.0000

          k = 0.0831 0.0667 0.2264 ( 18041 PWs)   bands (ev):

   -90.1659 -83.6668 -63.4602 -63.4499 -50.6375 -50.6214 -50.6086 -47.7562
   -47.0469 -46.7436 -27.8791 -27.8213 -27.7126 -27.6825 -27.6582 -27.6487
    -7.5554  -6.4835  -6.3020  -6.1749  -5.9274  -5.8449  -5.6271  -5.4265
     3.9117   4.0264   4.2524   4.4488   4.6234   4.8254   5.3638   5.5663
     6.0094   6.2989   6.5247   6.7137   6.8675   7.0767   7.1789   7.4019
     7.6768   7.8065   7.9935   8.1681   8.3930   8.5518   8.7005   9.1523
     9.2511   9.4904   9.6487  10.0013  10.2102  10.4079  10.7970  10.9096
    14.0960  14.2109  14.3883  14.5816  14.7595  15.1960  16.5277  16.7872
    18.6872  18.8963  19.1544

     occupation numbers 
     1.0000   1.0000   1.0000   1.0000   1.0000   1.0000   1.0000   1.0000
     1.0000   1.0000   1.0000   1.0000   1.0000   1.0000   1.0000   1.0000
     1.0000   1.0000   1.0000   1.0000   1.0000   1.0000   1.0000   1.0000
     1.0000   1.0000   1.0000   1.0000   1.0000   1.0000   1.0000   1.0000
     1.0000   1.0000   1.0000   1.0000   1.0000   1.0000   1.0000   1.0000
     1.0000   1.0000   1.0000   1.0000   1.0000   1.0000   1.0000   1.0000
     1.0000   1.0000   1.0000   1.0000   1.0000   1.0000   1.0000   1.0000
     0.0000   0.0000   0.0000   0.0000   0.0000   0.0000   0.0000   0.0000
     0.0000   0.0000   0.0000

          k = 0.0829 0.0667 0.3773 ( 18039 PWs)   bands (ev):

   -90.1660 -83.6668 -63.4580 -63.4521 -50.6374 -50.6214 -50.6086 -47.7562
   -47.0469 -46.7436 -27.8672 -27.8463 -27.7044 -27.6880 -27.6515 -27.6461
    -7.1817  -6.6975  -6.4778  -6.3148  -5.8534  -5.7283  -5.6175  -5.5071
     3.9485   4.1296   4.2036   4.3225   4.4033   5.2651   5.3694   5.7617
     6.0149   6.2238   6.4012   6.5111   6.9969   7.1160   7.3064   7.3884
     7.6317   7.7584   7.9607   8.0656   8.2891   8.3910   8.7780   8.9569
     9.2528   9.5490   9.7763  10.1613  10.2084  10.3479  10.8729  10.9250
    14.0472  14.2166  14.4734  14.5374  14.8106  15.0483  16.4590  16.6291
    18.7094  18.8600  19.5536

     occupation numbers 
     1.0000   1.0000   1.0000   1.0000   1.0000   1.0000   1.0000   1.0000
     1.0000   1.0000   1.0000   1.0000   1.0000   1.0000   1.0000   1.0000
     1.0000   1.0000   1.0000   1.0000   1.0000   1.0000   1.0000   1.0000
     1.0000   1.0000   1.0000   1.0000   1.0000   1.0000   1.0000   1.0000
     1.0000   1.0000   1.0000   1.0000   1.0000   1.0000   1.0000   1.0000
     1.0000   1.0000   1.0000   1.0000   1.0000   1.0000   1.0000   1.0000
     1.0000   1.0000   1.0000   1.0000   1.0000   1.0000   1.0000   1.0000
     0.0000   0.0000   0.0000   0.0000   0.0000   0.0000   0.0000   0.0000
     0.0000   0.0000   0.0000

          k = 0.0838 0.0667-0.3768 ( 18042 PWs)   bands (ev):

   -90.1660 -83.6668 -63.4580 -63.4521 -50.6374 -50.6214 -50.6086 -47.7562
   -47.0469 -46.7436 -27.8672 -27.8463 -27.7044 -27.6880 -27.6516 -27.6460
    -7.1624  -6.7471  -6.4882  -6.3336  -5.7899  -5.7069  -5.6170  -5.5210
     3.9782   4.1307   4.1934   4.2835   4.4067   5.2626   5.3909   5.5572
     6.0424   6.1650   6.4097   6.6228   6.9515   7.1916   7.2337   7.4828
     7.5869   7.8041   7.9637   8.0828   8.2492   8.4227   8.7688   8.8840
     9.3260   9.5470   9.9466  10.1180  10.1824  10.4047  10.8220  10.9235
    14.1046  14.2050  14.3525  14.6457  14.8379  15.0731  16.5050  16.5560
    18.5794  18.7818  19.6335

     occupation numbers 
     1.0000   1.0000   1.0000   1.0000   1.0000   1.0000   1.0000   1.0000
     1.0000   1.0000   1.0000   1.0000   1.0000   1.0000   1.0000   1.0000
     1.0000   1.0000   1.0000   1.0000   1.0000   1.0000   1.0000   1.0000
     1.0000   1.0000   1.0000   1.0000   1.0000   1.0000   1.0000   1.0000
     1.0000   1.0000   1.0000   1.0000   1.0000   1.0000   1.0000   1.0000
     1.0000   1.0000   1.0000   1.0000   1.0000   1.0000   1.0000   1.0000
     1.0000   1.0000   1.0000   1.0000   1.0000   1.0000   1.0000   1.0000
     0.0000   0.0000   0.0000   0.0000   0.0000   0.0000   0.0000   0.0000
     0.0000   0.0000   0.0000

          k = 0.0836 0.0667-0.2260 ( 18046 PWs)   bands (ev):

   -90.1659 -83.6668 -63.4603 -63.4499 -50.6375 -50.6214 -50.6086 -47.7562
   -47.0469 -46.7436 -27.8791 -27.8212 -27.7126 -27.6823 -27.6584 -27.6487
    -7.5473  -6.5338  -6.3817  -6.2160  -5.8321  -5.7442  -5.5951  -5.4675
     3.9460   4.0730   4.2743   4.3784   4.5411   4.7566   5.2859   5.5118
     6.0273   6.2586   6.4845   6.8471   6.9059   7.0238   7.1074   7.4190
     7.6037   7.8400   8.1107   8.1900   8.3602   8.6269   8.7374   8.9903
     9.2921   9.5958   9.9166  10.0309  10.1802  10.4338  10.7480  10.8468
    14.1514  14.2337  14.2756  14.6676  14.8326  15.2411  16.5831  16.6852
    18.4968  18.7900  18.8729

     occupation numbers 
     1.0000   1.0000   1.0000   1.0000   1.0000   1.0000   1.0000   1.0000
     1.0000   1.0000   1.0000   1.0000   1.0000   1.0000   1.0000   1.0000
     1.0000   1.0000   1.0000   1.0000   1.0000   1.0000   1.0000   1.0000
     1.0000   1.0000   1.0000   1.0000   1.0000   1.0000   1.0000   1.0000
     1.0000   1.0000   1.0000   1.0000   1.0000   1.0000   1.0000   1.0000
     1.0000   1.0000   1.0000   1.0000   1.0000   1.0000   1.0000   1.0000
     1.0000   1.0000   1.0000   1.0000   1.0000   1.0000   1.0000   1.0000
     0.0000   0.0000   0.0000   0.0000   0.0000   0.0000   0.0000   0.0000
     0.0000   0.0000   0.0000

          k = 0.0834 0.0667-0.0752 ( 18054 PWs)   bands (ev):

   -90.1659 -83.6668 -63.4618 -63.4484 -50.6375 -50.6214 -50.6086 -47.7562
   -47.0469 -46.7436 -27.8835 -27.8026 -27.7180 -27.6818 -27.6631 -27.6524
    -7.7616  -6.4841  -6.2802  -6.0929  -5.8881  -5.7890  -5.5771  -5.4052
     3.8424   3.9925   4.2868   4.3567   4.6217   4.7605   5.3876   5.7182
     5.8501   6.0884   6.6044   6.7400   6.8886   7.0430   7.1961   7.2513
     7.5858   7.8575   7.9803   8.2124   8.5501   8.6866   8.8494   8.9725
     9.3908   9.7394   9.7991  10.0713  10.1610  10.4972  10.5722  10.8063
    13.9805  14.1551  14.3948  14.7432  14.8822  15.2999  16.6897  16.8126
    18.1561  18.5684  19.1362

     occupation numbers 
     1.0000   1.0000   1.0000   1.0000   1.0000   1.0000   1.0000   1.0000
     1.0000   1.0000   1.0000   1.0000   1.0000   1.0000   1.0000   1.0000
     1.0000   1.0000   1.0000   1.0000   1.0000   1.0000   1.0000   1.0000
     1.0000   1.0000   1.0000   1.0000   1.0000   1.0000   1.0000   1.0000
     1.0000   1.0000   1.0000   1.0000   1.0000   1.0000   1.0000   1.0000
     1.0000   1.0000   1.0000   1.0000   1.0000   1.0000   1.0000   1.0000
     1.0000   1.0000   1.0000   1.0000   1.0000   1.0000   1.0000   1.0000
     0.0000   0.0000   0.0000   0.0000   0.0000   0.0000   0.0000   0.0000
     0.0000   0.0000   0.0000

          k = 0.0832 0.2002 0.0756 ( 18038 PWs)   bands (ev):

   -90.1659 -83.6668 -63.4618 -63.4483 -50.6375 -50.6214 -50.6086 -47.7562
   -47.0469 -46.7436 -27.8830 -27.8013 -27.7177 -27.6836 -27.6634 -27.6528
    -7.6264  -6.5381  -6.3805  -6.0840  -5.9790  -5.8072  -5.5702  -5.3429
     3.9560   4.0969   4.3161   4.5368   4.7416   4.9012   5.4444   5.5618
     5.8717   6.1031   6.2712   6.5714   6.7320   6.9280   7.1120   7.3738
     7.5928   7.9054   8.0884   8.2592   8.2989   8.6831   8.8546   9.1118
     9.2041   9.7386   9.8117   9.9275  10.2122  10.4254  10.6131  10.9522
    13.9193  14.2662  14.4057  14.7605  14.8549  15.2141  16.6654  16.8751
    18.6965  18.8021  18.8747

     occupation numbers 
     1.0000   1.0000   1.0000   1.0000   1.0000   1.0000   1.0000   1.0000
     1.0000   1.0000   1.0000   1.0000   1.0000   1.0000   1.0000   1.0000
     1.0000   1.0000   1.0000   1.0000   1.0000   1.0000   1.0000   1.0000
     1.0000   1.0000   1.0000   1.0000   1.0000   1.0000   1.0000   1.0000
     1.0000   1.0000   1.0000   1.0000   1.0000   1.0000   1.0000   1.0000
     1.0000   1.0000   1.0000   1.0000   1.0000   1.0000   1.0000   1.0000
     1.0000   1.0000   1.0000   1.0000   1.0000   1.0000   1.0000   1.0000
     0.0000   0.0000   0.0000   0.0000   0.0000   0.0000   0.0000   0.0000
     0.0000   0.0000   0.0000

          k = 0.0831 0.2002 0.2264 ( 18034 PWs)   bands (ev):

   -90.1660 -83.6668 -63.4602 -63.4499 -50.6375 -50.6214 -50.6086 -47.7562
   -47.0469 -46.7436 -27.8796 -27.8213 -27.7124 -27.6828 -27.6585 -27.6482
    -7.4293  -6.5441  -6.3833  -6.1079  -6.0514  -5.8529  -5.6276  -5.3869
     4.0411   4.1145   4.3215   4.5348   4.7466   5.0259   5.3040   5.7202
     5.8020   6.1223   6.3961   6.5852   6.7781   6.9240   7.0212   7.3508
     7.5222   7.8433   7.9116   8.4277   8.5087   8.5428   8.8642   9.0233
     9.2650   9.4273   9.6579  10.0314  10.1378  10.4803  10.7260  10.9625
    14.0723  14.2689  14.3948  14.6590  14.7844  15.1203  16.5458  16.7859
    18.7155  19.0283  19.1843

     occupation numbers 
     1.0000   1.0000   1.0000   1.0000   1.0000   1.0000   1.0000   1.0000
     1.0000   1.0000   1.0000   1.0000   1.0000   1.0000   1.0000   1.0000
     1.0000   1.0000   1.0000   1.0000   1.0000   1.0000   1.0000   1.0000
     1.0000   1.0000   1.0000   1.0000   1.0000   1.0000   1.0000   1.0000
     1.0000   1.0000   1.0000   1.0000   1.0000   1.0000   1.0000   1.0000
     1.0000   1.0000   1.0000   1.0000   1.0000   1.0000   1.0000   1.0000
     1.0000   1.0000   1.0000   1.0000   1.0000   1.0000   1.0000   1.0000
     0.0000   0.0000   0.0000   0.0000   0.0000   0.0000   0.0000   0.0000
     0.0000   0.0000   0.0000

          k = 0.0829 0.2002 0.3773 ( 18049 PWs)   bands (ev):

   -90.1660 -83.6668 -63.4580 -63.4522 -50.6374 -50.6214 -50.6086 -47.7562
   -47.0469 -46.7436 -27.8684 -27.8475 -27.7042 -27.6878 -27.6508 -27.6450
    -7.0852  -6.7077  -6.4417  -6.2832  -6.0100  -5.7566  -5.6826  -5.4588
     4.0462   4.1871   4.2722   4.5382   4.6299   5.1826   5.4694   5.6899
     5.9609   6.1190   6.2657   6.3673   6.8400   7.0442   7.1764   7.3222
     7.6297   7.7189   7.8842   8.2480   8.3824   8.4645   8.8993   9.0097
     9.0603   9.3105   9.8240  10.1224  10.2139  10.4296  10.8333  10.9867
    14.0723  14.2218  14.5527  14.6483  14.7797  14.9738  16.4847  16.6238
    18.6690  18.9561  19.4264

     occupation numbers 
     1.0000   1.0000   1.0000   1.0000   1.0000   1.0000   1.0000   1.0000
     1.0000   1.0000   1.0000   1.0000   1.0000   1.0000   1.0000   1.0000
     1.0000   1.0000   1.0000   1.0000   1.0000   1.0000   1.0000   1.0000
     1.0000   1.0000   1.0000   1.0000   1.0000   1.0000   1.0000   1.0000
     1.0000   1.0000   1.0000   1.0000   1.0000   1.0000   1.0000   1.0000
     1.0000   1.0000   1.0000   1.0000   1.0000   1.0000   1.0000   1.0000
     1.0000   1.0000   1.0000   1.0000   1.0000   1.0000   1.0000   1.0000
     0.0000   0.0000   0.0000   0.0000   0.0000   0.0000   0.0000   0.0000
     0.0000   0.0000   0.0000

          k = 0.0838 0.2002-0.3768 ( 18059 PWs)   bands (ev):

   -90.1660 -83.6668 -63.4580 -63.4521 -50.6374 -50.6214 -50.6086 -47.7562
   -47.0469 -46.7436 -27.8684 -27.8475 -27.7042 -27.6877 -27.6509 -27.6449
    -7.0819  -6.7251  -6.4883  -6.2885  -5.8906  -5.8359  -5.6090  -5.4956
     4.0307   4.1722   4.3097   4.4850   4.6607   5.2210   5.3947   5.5472
     5.9485   6.0545   6.3661   6.5062   6.7952   7.0277   7.1388   7.3782
     7.5449   7.8857   8.0059   8.1924   8.2673   8.4596   8.8257   8.9380
     9.1330   9.3825   9.9288  10.1836  10.2294  10.2779  10.8529  11.0135
    14.1450  14.1919  14.4687  14.7351  14.8213  15.0012  16.5048  16.5753
    18.6742  18.7682  19.3925

     occupation numbers 
     1.0000   1.0000   1.0000   1.0000   1.0000   1.0000   1.0000   1.0000
     1.0000   1.0000   1.0000   1.0000   1.0000   1.0000   1.0000   1.0000
     1.0000   1.0000   1.0000   1.0000   1.0000   1.0000   1.0000   1.0000
     1.0000   1.0000   1.0000   1.0000   1.0000   1.0000   1.0000   1.0000
     1.0000   1.0000   1.0000   1.0000   1.0000   1.0000   1.0000   1.0000
     1.0000   1.0000   1.0000   1.0000   1.0000   1.0000   1.0000   1.0000
     1.0000   1.0000   1.0000   1.0000   1.0000   1.0000   1.0000   1.0000
     0.0000   0.0000   0.0000   0.0000   0.0000   0.0000   0.0000   0.0000
     0.0000   0.0000   0.0000

          k = 0.0836 0.2002-0.2260 ( 18037 PWs)   bands (ev):

   -90.1660 -83.6668 -63.4603 -63.4499 -50.6375 -50.6214 -50.6086 -47.7562
   -47.0469 -46.7436 -27.8796 -27.8213 -27.7124 -27.6826 -27.6587 -27.6482
    -7.4289  -6.5997  -6.4528  -6.1305  -5.9038  -5.8005  -5.6305  -5.4151
     3.9821   4.1711   4.2980   4.5883   4.7477   4.8862   5.3024   5.5211
     5.8639   6.0083   6.4548   6.6946   6.7874   6.9076   7.1229   7.2710
     7.6025   7.8696   8.0355   8.2558   8.4183   8.5627   8.8505   9.1053
     9.2790   9.5109   9.8118   9.9655  10.1918  10.3019  10.8365  10.9799
    14.0951  14.3159  14.3677  14.6619  14.9185  15.1538  16.5861  16.7074
    18.5434  18.8769  18.9794

     occupation numbers 
     1.0000   1.0000   1.0000   1.0000   1.0000   1.0000   1.0000   1.0000
     1.0000   1.0000   1.0000   1.0000   1.0000   1.0000   1.0000   1.0000
     1.0000   1.0000   1.0000   1.0000   1.0000   1.0000   1.0000   1.0000
     1.0000   1.0000   1.0000   1.0000   1.0000   1.0000   1.0000   1.0000
     1.0000   1.0000   1.0000   1.0000   1.0000   1.0000   1.0000   1.0000
     1.0000   1.0000   1.0000   1.0000   1.0000   1.0000   1.0000   1.0000
     1.0000   1.0000   1.0000   1.0000   1.0000   1.0000   1.0000   1.0000
     0.0000   0.0000   0.0000   0.0000   0.0000   0.0000   0.0000   0.0000
     0.0000   0.0000   0.0000

          k = 0.0834 0.2002-0.0752 ( 18038 PWs)   bands (ev):

   -90.1659 -83.6668 -63.4618 -63.4483 -50.6375 -50.6214 -50.6086 -47.7562
   -47.0469 -46.7436 -27.8830 -27.8013 -27.7178 -27.6834 -27.6634 -27.6528
    -7.6264  -6.5649  -6.4231  -6.0585  -5.9279  -5.7973  -5.5616  -5.3577
     3.9258   4.1417   4.3265   4.5046   4.7459   4.8336   5.4200   5.6279
     5.8060   5.9733   6.3956   6.5326   6.7564   6.9292   7.1763   7.3667
     7.6094   7.8931   8.0166   8.1832   8.3989   8.7673   8.8494   9.1138
     9.2759   9.6703   9.8283   9.9323  10.2088  10.3828  10.6799  10.9602
    13.9321  14.2282  14.4565  14.7576  14.9213  15.2273  16.6932  16.8373
    18.5395  18.6309  19.0011

     occupation numbers 
     1.0000   1.0000   1.0000   1.0000   1.0000   1.0000   1.0000   1.0000
     1.0000   1.0000   1.0000   1.0000   1.0000   1.0000   1.0000   1.0000
     1.0000   1.0000   1.0000   1.0000   1.0000   1.0000   1.0000   1.0000
     1.0000   1.0000   1.0000   1.0000   1.0000   1.0000   1.0000   1.0000
     1.0000   1.0000   1.0000   1.0000   1.0000   1.0000   1.0000   1.0000
     1.0000   1.0000   1.0000   1.0000   1.0000   1.0000   1.0000   1.0000
     1.0000   1.0000   1.0000   1.0000   1.0000   1.0000   1.0000   1.0000
     0.0000   0.0000   0.0000   0.0000   0.0000   0.0000   0.0000   0.0000
     0.0000   0.0000   0.0000

          k = 0.0832 0.3337 0.0756 ( 18022 PWs)   bands (ev):

   -90.1659 -83.6668 -63.4618 -63.4483 -50.6375 -50.6214 -50.6086 -47.7562
   -47.0469 -46.7436 -27.8825 -27.7999 -27.7175 -27.6852 -27.6637 -27.6533
    -7.4068  -6.8401  -6.3488  -6.0886  -6.0327  -5.7779  -5.5724  -5.2987
     4.1541   4.2601   4.3652   4.6733   4.7247   5.0816   5.2817   5.5018
     5.7708   6.0464   6.1882   6.4578   6.6351   6.8316   7.1322   7.3043
     7.6336   7.8013   7.9607   8.1828   8.6259   8.6657   8.8487   8.9784
     9.2176   9.6388   9.6950  10.0319  10.2582  10.3906  10.6944  11.0746
    13.8434  14.4003  14.4745  14.7326  14.8642  15.1562  16.6691  16.8938
    18.5337  18.8218  19.3437

     occupation numbers 
     1.0000   1.0000   1.0000   1.0000   1.0000   1.0000   1.0000   1.0000
     1.0000   1.0000   1.0000   1.0000   1.0000   1.0000   1.0000   1.0000
     1.0000   1.0000   1.0000   1.0000   1.0000   1.0000   1.0000   1.0000
     1.0000   1.0000   1.0000   1.0000   1.0000   1.0000   1.0000   1.0000
     1.0000   1.0000   1.0000   1.0000   1.0000   1.0000   1.0000   1.0000
     1.0000   1.0000   1.0000   1.0000   1.0000   1.0000   1.0000   1.0000
     1.0000   1.0000   1.0000   1.0000   1.0000   1.0000   1.0000   1.0000
     0.0000   0.0000   0.0000   0.0000   0.0000   0.0000   0.0000   0.0000
     0.0000   0.0000   0.0000

          k = 0.0831 0.3337 0.2264 ( 18018 PWs)   bands (ev):

   -90.1660 -83.6668 -63.4602 -63.4499 -50.6375 -50.6214 -50.6086 -47.7562
   -47.0469 -46.7436 -27.8799 -27.8214 -27.7122 -27.6831 -27.6586 -27.6477
    -7.2303  -6.7544  -6.3680  -6.1707  -6.0263  -5.8703  -5.6503  -5.3542
     4.1881   4.2661   4.3569   4.6585   4.8327   5.1502   5.3441   5.7473
     5.8880   5.9590   6.0902   6.3256   6.6320   6.9192   6.9971   7.3349
     7.4731   7.6664   7.8896   8.2685   8.5609   8.7510   9.0308   9.0731
     9.2229   9.4259   9.5332  10.0499  10.2180  10.3903  10.6988  11.0719
    14.0196  14.3606  14.5084  14.5654  14.8181  15.0882  16.5726  16.7868
    18.4296  19.0252  19.5814

     occupation numbers 
     1.0000   1.0000   1.0000   1.0000   1.0000   1.0000   1.0000   1.0000
     1.0000   1.0000   1.0000   1.0000   1.0000   1.0000   1.0000   1.0000
     1.0000   1.0000   1.0000   1.0000   1.0000   1.0000   1.0000   1.0000
     1.0000   1.0000   1.0000   1.0000   1.0000   1.0000   1.0000   1.0000
     1.0000   1.0000   1.0000   1.0000   1.0000   1.0000   1.0000   1.0000
     1.0000   1.0000   1.0000   1.0000   1.0000   1.0000   1.0000   1.0000
     1.0000   1.0000   1.0000   1.0000   1.0000   1.0000   1.0000   1.0000
     0.0000   0.0000   0.0000   0.0000   0.0000   0.0000   0.0000   0.0000
     0.0000   0.0000   0.0000

          k = 0.0829 0.3337 0.3773 ( 18060 PWs)   bands (ev):

   -90.1660 -83.6668 -63.4579 -63.4522 -50.6374 -50.6214 -50.6086 -47.7562
   -47.0469 -46.7436 -27.8696 -27.8486 -27.7039 -27.6876 -27.6500 -27.6440
    -6.9554  -6.7299  -6.4007  -6.2299  -6.1372  -5.9367  -5.6474  -5.4354
     4.1692   4.1916   4.4590   4.7480   4.9231   5.0798   5.4557   5.6428
     5.8374   6.0570   6.1490   6.3008   6.6579   6.9814   7.1872   7.2527
     7.5419   7.6150   7.8440   8.0789   8.3680   8.7193   8.9604   9.0212
     9.0933   9.2721   9.7750  10.1264  10.2312  10.3217  10.8467  11.0825
    14.1540  14.2079  14.5952  14.6557  14.7740  14.9513  16.5334  16.6214
    18.4417  19.0557  19.5436

     occupation numbers 
     1.0000   1.0000   1.0000   1.0000   1.0000   1.0000   1.0000   1.0000
     1.0000   1.0000   1.0000   1.0000   1.0000   1.0000   1.0000   1.0000
     1.0000   1.0000   1.0000   1.0000   1.0000   1.0000   1.0000   1.0000
     1.0000   1.0000   1.0000   1.0000   1.0000   1.0000   1.0000   1.0000
     1.0000   1.0000   1.0000   1.0000   1.0000   1.0000   1.0000   1.0000
     1.0000   1.0000   1.0000   1.0000   1.0000   1.0000   1.0000   1.0000
     1.0000   1.0000   1.0000   1.0000   1.0000   1.0000   1.0000   1.0000
     0.0000   0.0000   0.0000   0.0000   0.0000   0.0000   0.0000   0.0000
     0.0000   0.0000   0.0000

          k = 0.0838 0.3337-0.3768 ( 18055 PWs)   bands (ev):

   -90.1660 -83.6668 -63.4580 -63.4521 -50.6374 -50.6214 -50.6086 -47.7562
   -47.0469 -46.7436 -27.8696 -27.8486 -27.7040 -27.6875 -27.6502 -27.6439
    -6.9568  -6.7957  -6.3526  -6.2063  -6.0824  -6.0111  -5.5763  -5.4818
     4.1265   4.1991   4.4291   4.7599   4.9287   5.1627   5.3453   5.5197
     5.7472   6.1461   6.3392   6.4144   6.7107   6.8343   6.9523   7.3402
     7.5378   7.7065   7.8594   8.1907   8.3251   8.7271   8.8599   8.9504
     9.0621   9.3682   9.9475  10.0437  10.1807  10.3004  10.8755  11.1054
    14.1716  14.2953  14.5465  14.6564  14.8356  14.9695  16.5115  16.6178
    18.5852  18.8259  19.3580

     occupation numbers 
     1.0000   1.0000   1.0000   1.0000   1.0000   1.0000   1.0000   1.0000
     1.0000   1.0000   1.0000   1.0000   1.0000   1.0000   1.0000   1.0000
     1.0000   1.0000   1.0000   1.0000   1.0000   1.0000   1.0000   1.0000
     1.0000   1.0000   1.0000   1.0000   1.0000   1.0000   1.0000   1.0000
     1.0000   1.0000   1.0000   1.0000   1.0000   1.0000   1.0000   1.0000
     1.0000   1.0000   1.0000   1.0000   1.0000   1.0000   1.0000   1.0000
     1.0000   1.0000   1.0000   1.0000   1.0000   1.0000   1.0000   1.0000
     0.0000   0.0000   0.0000   0.0000   0.0000   0.0000   0.0000   0.0000
     0.0000   0.0000   0.0000

          k = 0.0836 0.3337-0.2260 ( 18025 PWs)   bands (ev):

   -90.1660 -83.6668 -63.4603 -63.4498 -50.6375 -50.6214 -50.6086 -47.7562
   -47.0469 -46.7436 -27.8800 -27.8214 -27.7122 -27.6828 -27.6589 -27.6477
    -7.2383  -6.8324  -6.3647  -6.0752  -5.9921  -5.8864  -5.6366  -5.3799
     4.0964   4.2584   4.3156   4.6939   4.9518   5.1021   5.3918   5.4824
     5.7447   5.9055   6.2826   6.4458   6.7038   6.8403   7.0898   7.3207
     7.4451   7.7898   7.8947   8.2430   8.3786   8.7333   8.9369   9.1977
     9.3067   9.4354   9.7576   9.9377  10.0875  10.3473  10.8420  11.0754
    14.0569  14.4141  14.5130  14.6323  14.9317  15.0567  16.5918  16.7515
    18.6124  18.7894  19.0832

     occupation numbers 
     1.0000   1.0000   1.0000   1.0000   1.0000   1.0000   1.0000   1.0000
     1.0000   1.0000   1.0000   1.0000   1.0000   1.0000   1.0000   1.0000
     1.0000   1.0000   1.0000   1.0000   1.0000   1.0000   1.0000   1.0000
     1.0000   1.0000   1.0000   1.0000   1.0000   1.0000   1.0000   1.0000
     1.0000   1.0000   1.0000   1.0000   1.0000   1.0000   1.0000   1.0000
     1.0000   1.0000   1.0000   1.0000   1.0000   1.0000   1.0000   1.0000
     1.0000   1.0000   1.0000   1.0000   1.0000   1.0000   1.0000   1.0000
     0.0000   0.0000   0.0000   0.0000   0.0000   0.0000   0.0000   0.0000
     0.0000   0.0000   0.0000

          k = 0.0834 0.3337-0.0752 ( 18034 PWs)   bands (ev):

   -90.1659 -83.6668 -63.4618 -63.4483 -50.6375 -50.6214 -50.6086 -47.7562
   -47.0469 -46.7436 -27.8826 -27.7999 -27.7176 -27.6850 -27.6638 -27.6533
    -7.4098  -6.8674  -6.3746  -6.0388  -5.9806  -5.8122  -5.5627  -5.3104
     4.0916   4.2932   4.3318   4.6560   4.7835   5.0814   5.3359   5.4377
     5.7021   5.9583   6.2039   6.5369   6.7028   6.7413   7.2270   7.3543
     7.5204   7.8965   8.0180   8.1027   8.4842   8.7438   8.7871   9.0800
     9.2600   9.6631   9.7324   9.9709  10.2189  10.3405  10.7879  11.0781
    13.8594  14.3721  14.5104  14.8032  14.8894  15.1475  16.6965  16.8757
    18.5770  18.7658  19.1484

     occupation numbers 
     1.0000   1.0000   1.0000   1.0000   1.0000   1.0000   1.0000   1.0000
     1.0000   1.0000   1.0000   1.0000   1.0000   1.0000   1.0000   1.0000
     1.0000   1.0000   1.0000   1.0000   1.0000   1.0000   1.0000   1.0000
     1.0000   1.0000   1.0000   1.0000   1.0000   1.0000   1.0000   1.0000
     1.0000   1.0000   1.0000   1.0000   1.0000   1.0000   1.0000   1.0000
     1.0000   1.0000   1.0000   1.0000   1.0000   1.0000   1.0000   1.0000
     1.0000   1.0000   1.0000   1.0000   1.0000   1.0000   1.0000   1.0000
     0.0000   0.0000   0.0000   0.0000   0.0000   0.0000   0.0000   0.0000
     0.0000   0.0000   0.0000

          k = 0.2499 0.0667 0.0761 ( 18028 PWs)   bands (ev):

   -90.1659 -83.6668 -63.4618 -63.4483 -50.6375 -50.6214 -50.6086 -47.7562
   -47.0469 -46.7436 -27.8834 -27.8024 -27.7198 -27.6820 -27.6639 -27.6528
    -7.5662  -6.4874  -6.2920  -6.1027  -5.9818  -5.7978  -5.6188  -5.5189
     3.9038   4.1611   4.2917   4.6014   4.8229   4.9548   5.1091   5.6412
     5.9148   6.0320   6.3396   6.6710   6.8191   6.8728   7.0959   7.3729
     7.5041   7.8191   8.0027   8.2914   8.5314   8.7763   9.0317   9.1408
     9.3499   9.5295   9.7384   9.9310  10.1362  10.5081  10.6651  10.9821
    13.9795  14.1921  14.2732  14.6197  14.8094  15.3293  16.6169  16.8888
    18.8158  18.8908  19.2904

     occupation numbers 
     1.0000   1.0000   1.0000   1.0000   1.0000   1.0000   1.0000   1.0000
     1.0000   1.0000   1.0000   1.0000   1.0000   1.0000   1.0000   1.0000
     1.0000   1.0000   1.0000   1.0000   1.0000   1.0000   1.0000   1.0000
     1.0000   1.0000   1.0000   1.0000   1.0000   1.0000   1.0000   1.0000
     1.0000   1.0000   1.0000   1.0000   1.0000   1.0000   1.0000   1.0000
     1.0000   1.0000   1.0000   1.0000   1.0000   1.0000   1.0000   1.0000
     1.0000   1.0000   1.0000   1.0000   1.0000   1.0000   1.0000   1.0000
     0.0000   0.0000   0.0000   0.0000   0.0000   0.0000   0.0000   0.0000
     0.0000   0.0000   0.0000

          k = 0.2497 0.0667 0.2269 ( 18036 PWs)   bands (ev):

   -90.1659 -83.6668 -63.4602 -63.4499 -50.6375 -50.6214 -50.6086 -47.7562
   -47.0469 -46.7436 -27.8790 -27.8211 -27.7143 -27.6834 -27.6587 -27.6488
    -7.3777  -6.4802  -6.2585  -6.1182  -6.0516  -5.9897  -5.6267  -5.5033
     3.9319   4.2126   4.3123   4.5999   4.8182   5.0094   5.1782   5.4273
     6.0510   6.2410   6.3851   6.5603   6.5903   6.9276   7.0175   7.2316
     7.6438   7.8581   8.0520   8.2640   8.5206   8.6709   8.9315   9.1595
     9.4759   9.6350   9.7142   9.9019  10.0464  10.3352  10.8246  10.9823
    14.0105  14.1695  14.4095  14.5662  14.7074  15.2163  16.5776  16.8610
    18.9204  19.0441  19.2788

     occupation numbers 
     1.0000   1.0000   1.0000   1.0000   1.0000   1.0000   1.0000   1.0000
     1.0000   1.0000   1.0000   1.0000   1.0000   1.0000   1.0000   1.0000
     1.0000   1.0000   1.0000   1.0000   1.0000   1.0000   1.0000   1.0000
     1.0000   1.0000   1.0000   1.0000   1.0000   1.0000   1.0000   1.0000
     1.0000   1.0000   1.0000   1.0000   1.0000   1.0000   1.0000   1.0000
     1.0000   1.0000   1.0000   1.0000   1.0000   1.0000   1.0000   1.0000
     1.0000   1.0000   1.0000   1.0000   1.0000   1.0000   1.0000   1.0000
     0.0000   0.0000   0.0000   0.0000   0.0000   0.0000   0.0000   0.0000
     0.0000   0.0000   0.0000

          k = 0.2495 0.0667 0.3777 ( 18033 PWs)   bands (ev):

   -90.1660 -83.6668 -63.4579 -63.4523 -50.6374 -50.6214 -50.6086 -47.7562
   -47.0469 -46.7436 -27.8670 -27.8462 -27.7059 -27.6893 -27.6515 -27.6462
    -7.0428  -6.5722  -6.4627  -6.3248  -6.0242  -5.8846  -5.5993  -5.5095
     4.0222   4.2578   4.3508   4.4705   4.5584   5.0905   5.2423   5.5240
     6.0014   6.2353   6.3649   6.4708   6.7414   6.8678   7.0539   7.2814
     7.5497   7.8583   8.1106   8.1652   8.3884   8.5998   8.9992   9.0400
     9.5452   9.6309   9.8539   9.9835  10.1425  10.3835  10.8501  10.9902
    14.0315  14.2130  14.3842  14.4960  14.8642  15.0898  16.5776  16.7553
    18.5989  18.7804  19.4427

     occupation numbers 
     1.0000   1.0000   1.0000   1.0000   1.0000   1.0000   1.0000   1.0000
     1.0000   1.0000   1.0000   1.0000   1.0000   1.0000   1.0000   1.0000
     1.0000   1.0000   1.0000   1.0000   1.0000   1.0000   1.0000   1.0000
     1.0000   1.0000   1.0000   1.0000   1.0000   1.0000   1.0000   1.0000
     1.0000   1.0000   1.0000   1.0000   1.0000   1.0000   1.0000   1.0000
     1.0000   1.0000   1.0000   1.0000   1.0000   1.0000   1.0000   1.0000
     1.0000   1.0000   1.0000   1.0000   1.0000   1.0000   1.0000   1.0000
     0.0000   0.0000   0.0000   0.0000   0.0000   0.0000   0.0000   0.0000
     0.0000   0.0000   0.0000

          k = 0.2505 0.0667-0.3764 ( 18029 PWs)   bands (ev):

   -90.1660 -83.6668 -63.4580 -63.4522 -50.6374 -50.6214 -50.6086 -47.7562
   -47.0469 -46.7436 -27.8669 -27.8462 -27.7060 -27.6892 -27.6518 -27.6460
    -6.9956  -6.6846  -6.5048  -6.3472  -5.9765  -5.7713  -5.6389  -5.4768
     4.1053   4.2019   4.3266   4.4512   4.5646   5.0725   5.2611   5.3801
     5.7255   6.1489   6.3091   6.6444   6.7279   6.9720   7.2123   7.3418
     7.6023   7.7419   8.1249   8.2541   8.3497   8.6902   8.9201   9.0415
     9.4022   9.7875   9.9259  10.0328  10.1451  10.4497  10.7426  11.0733
    14.0737  14.1714  14.3409  14.6226  14.9307  15.1095  16.5204  16.7669
    18.3133  18.5744  19.5506

     occupation numbers 
     1.0000   1.0000   1.0000   1.0000   1.0000   1.0000   1.0000   1.0000
     1.0000   1.0000   1.0000   1.0000   1.0000   1.0000   1.0000   1.0000
     1.0000   1.0000   1.0000   1.0000   1.0000   1.0000   1.0000   1.0000
     1.0000   1.0000   1.0000   1.0000   1.0000   1.0000   1.0000   1.0000
     1.0000   1.0000   1.0000   1.0000   1.0000   1.0000   1.0000   1.0000
     1.0000   1.0000   1.0000   1.0000   1.0000   1.0000   1.0000   1.0000
     1.0000   1.0000   1.0000   1.0000   1.0000   1.0000   1.0000   1.0000
     0.0000   0.0000   0.0000   0.0000   0.0000   0.0000   0.0000   0.0000
     0.0000   0.0000   0.0000

          k = 0.2503 0.0667-0.2256 ( 18038 PWs)   bands (ev):

   -90.1659 -83.6668 -63.4603 -63.4499 -50.6375 -50.6214 -50.6086 -47.7562
   -47.0469 -46.7436 -27.8790 -27.8211 -27.7144 -27.6829 -27.6591 -27.6488
    -7.3564  -6.5748  -6.4408  -6.2268  -5.8577  -5.7738  -5.6504  -5.4767
     4.0095   4.2639   4.3246   4.5294   4.6574   4.8602   5.1987   5.4500
     5.5505   6.0987   6.3202   6.6273   6.8274   6.9279   7.1366   7.2320
     7.6271   8.0358   8.2420   8.2901   8.5652   8.7630   8.9478   9.0461
     9.2960   9.7159   9.8412   9.9776  10.1561  10.4637  10.6284  11.1083
    13.9981  14.2526  14.3295  14.6486  14.8922  15.2933  16.4829  16.8840
    18.2253  18.6762  19.2448

     occupation numbers 
     1.0000   1.0000   1.0000   1.0000   1.0000   1.0000   1.0000   1.0000
     1.0000   1.0000   1.0000   1.0000   1.0000   1.0000   1.0000   1.0000
     1.0000   1.0000   1.0000   1.0000   1.0000   1.0000   1.0000   1.0000
     1.0000   1.0000   1.0000   1.0000   1.0000   1.0000   1.0000   1.0000
     1.0000   1.0000   1.0000   1.0000   1.0000   1.0000   1.0000   1.0000
     1.0000   1.0000   1.0000   1.0000   1.0000   1.0000   1.0000   1.0000
     1.0000   1.0000   1.0000   1.0000   1.0000   1.0000   1.0000   1.0000
     0.0000   0.0000   0.0000   0.0000   0.0000   0.0000   0.0000   0.0000
     0.0000   0.0000   0.0000

          k = 0.2501 0.0667-0.0747 ( 18030 PWs)   bands (ev):

   -90.1659 -83.6668 -63.4618 -63.4483 -50.6375 -50.6214 -50.6086 -47.7562
   -47.0469 -46.7436 -27.8834 -27.8024 -27.7198 -27.6817 -27.6641 -27.6529
    -7.5598  -6.5222  -6.3973  -6.1276  -5.8708  -5.6992  -5.6540  -5.5103
     3.9317   4.2136   4.3543   4.4937   4.6961   4.8250   5.1958   5.6439
     5.7645   6.0405   6.3678   6.5003   6.8409   6.9961   7.0716   7.3085
     7.4984   7.8696   8.1641   8.4502   8.5864   8.8022   8.9330   9.1046
     9.4210   9.5011   9.8074  10.0037  10.0711  10.5355  10.6182  11.0326
    13.9825  14.1373  14.3494  14.6625  14.8623  15.3791  16.5620  16.9166
    18.4339  18.8261  19.0142

     occupation numbers 
     1.0000   1.0000   1.0000   1.0000   1.0000   1.0000   1.0000   1.0000
     1.0000   1.0000   1.0000   1.0000   1.0000   1.0000   1.0000   1.0000
     1.0000   1.0000   1.0000   1.0000   1.0000   1.0000   1.0000   1.0000
     1.0000   1.0000   1.0000   1.0000   1.0000   1.0000   1.0000   1.0000
     1.0000   1.0000   1.0000   1.0000   1.0000   1.0000   1.0000   1.0000
     1.0000   1.0000   1.0000   1.0000   1.0000   1.0000   1.0000   1.0000
     1.0000   1.0000   1.0000   1.0000   1.0000   1.0000   1.0000   1.0000
     0.0000   0.0000   0.0000   0.0000   0.0000   0.0000   0.0000   0.0000
     0.0000   0.0000   0.0000

          k = 0.2499 0.2002 0.0761 ( 18027 PWs)   bands (ev):

   -90.1659 -83.6668 -63.4618 -63.4483 -50.6375 -50.6214 -50.6086 -47.7562
   -47.0469 -46.7436 -27.8828 -27.8010 -27.7195 -27.6836 -27.6643 -27.6532
    -7.4515  -6.5810  -6.3883  -6.1229  -6.0101  -5.7890  -5.5887  -5.4476
     3.8936   4.2676   4.2937   4.7028   4.7523   4.9674   5.1764   5.5529
     5.8703   6.1575   6.3165   6.6480   6.8210   6.9337   7.0867   7.3391
     7.5368   7.8434   8.0651   8.2010   8.4746   8.6751   8.9665   9.0665
     9.3341   9.4246   9.7305  10.0176  10.1705  10.5061  10.5546  10.9631
    13.9319  14.2854  14.3623  14.5617  14.8760  15.2972  16.5760  16.9076
    18.7980  19.0230  19.2367

     occupation numbers 
     1.0000   1.0000   1.0000   1.0000   1.0000   1.0000   1.0000   1.0000
     1.0000   1.0000   1.0000   1.0000   1.0000   1.0000   1.0000   1.0000
     1.0000   1.0000   1.0000   1.0000   1.0000   1.0000   1.0000   1.0000
     1.0000   1.0000   1.0000   1.0000   1.0000   1.0000   1.0000   1.0000
     1.0000   1.0000   1.0000   1.0000   1.0000   1.0000   1.0000   1.0000
     1.0000   1.0000   1.0000   1.0000   1.0000   1.0000   1.0000   1.0000
     1.0000   1.0000   1.0000   1.0000   1.0000   1.0000   1.0000   1.0000
     0.0000   0.0000   0.0000   0.0000   0.0000   0.0000   0.0000   0.0000
     0.0000   0.0000   0.0000

          k = 0.2497 0.2002 0.2269 ( 18035 PWs)   bands (ev):

   -90.1660 -83.6668 -63.4603 -63.4499 -50.6375 -50.6214 -50.6086 -47.7562
   -47.0469 -46.7436 -27.8793 -27.8211 -27.7140 -27.6837 -27.6590 -27.6482
    -7.2713  -6.5656  -6.3240  -6.1791  -6.0898  -5.9106  -5.6267  -5.4516
     3.9430   4.2598   4.4022   4.5685   4.8250   4.9950   5.2341   5.5215
     5.9538   6.1516   6.3969   6.5880   6.6925   6.7834   7.0152   7.2896
     7.6720   7.8561   8.0417   8.3193   8.5561   8.6687   8.8879   9.1145
     9.3676   9.4921   9.6104   9.8341  10.1276  10.4219  10.7505  10.9637
    13.9511  14.2465  14.3933  14.6200  14.7381  15.1641  16.5687  16.8655
    18.7845  18.9267  19.6062

     occupation numbers 
     1.0000   1.0000   1.0000   1.0000   1.0000   1.0000   1.0000   1.0000
     1.0000   1.0000   1.0000   1.0000   1.0000   1.0000   1.0000   1.0000
     1.0000   1.0000   1.0000   1.0000   1.0000   1.0000   1.0000   1.0000
     1.0000   1.0000   1.0000   1.0000   1.0000   1.0000   1.0000   1.0000
     1.0000   1.0000   1.0000   1.0000   1.0000   1.0000   1.0000   1.0000
     1.0000   1.0000   1.0000   1.0000   1.0000   1.0000   1.0000   1.0000
     1.0000   1.0000   1.0000   1.0000   1.0000   1.0000   1.0000   1.0000
     0.0000   0.0000   0.0000   0.0000   0.0000   0.0000   0.0000   0.0000
     0.0000   0.0000   0.0000

          k = 0.2495 0.2002 0.3777 ( 18026 PWs)   bands (ev):

   -90.1660 -83.6668 -63.4580 -63.4523 -50.6374 -50.6214 -50.6086 -47.7562
   -47.0469 -46.7436 -27.8681 -27.8473 -27.7056 -27.6891 -27.6509 -27.6451
    -6.9626  -6.6270  -6.5205  -6.2407  -6.0823  -5.8447  -5.6784  -5.4795
     3.9904   4.2219   4.4068   4.5947   4.7441   5.0014   5.2781   5.4566
     5.9599   6.1915   6.2663   6.4796   6.7886   6.9020   7.1209   7.5004
     7.5981   7.6738   7.9652   8.2152   8.5494   8.6693   8.9579   9.0413
     9.2720   9.3973   9.8034   9.9630  10.2198  10.3160  10.8445  11.0086
    14.0000  14.1971  14.4888  14.5235  14.8594  15.0269  16.6095  16.7443
    18.5286  18.8695  19.3329

     occupation numbers 
     1.0000   1.0000   1.0000   1.0000   1.0000   1.0000   1.0000   1.0000
     1.0000   1.0000   1.0000   1.0000   1.0000   1.0000   1.0000   1.0000
     1.0000   1.0000   1.0000   1.0000   1.0000   1.0000   1.0000   1.0000
     1.0000   1.0000   1.0000   1.0000   1.0000   1.0000   1.0000   1.0000
     1.0000   1.0000   1.0000   1.0000   1.0000   1.0000   1.0000   1.0000
     1.0000   1.0000   1.0000   1.0000   1.0000   1.0000   1.0000   1.0000
     1.0000   1.0000   1.0000   1.0000   1.0000   1.0000   1.0000   1.0000
     0.0000   0.0000   0.0000   0.0000   0.0000   0.0000   0.0000   0.0000
     0.0000   0.0000   0.0000

          k = 0.2505 0.2002-0.3764 ( 18032 PWs)   bands (ev):

   -90.1660 -83.6668 -63.4580 -63.4522 -50.6374 -50.6214 -50.6086 -47.7562
   -47.0469 -46.7436 -27.8681 -27.8472 -27.7057 -27.6890 -27.6511 -27.6449
    -6.9592  -6.6587  -6.5872  -6.2643  -5.9899  -5.7925  -5.6440  -5.5182
     3.9948   4.1764   4.3569   4.5931   4.8162   5.0624   5.1418   5.3992
     5.7188   6.2423   6.3457   6.5150   6.7092   7.0406   7.2404   7.4115
     7.5517   7.8422   7.9902   8.2568   8.4039   8.6495   8.9182   9.0370
     9.2397   9.5408   9.8857  10.0013  10.1084  10.3531  10.8294  11.0868
    14.1124  14.2203  14.2979  14.6935  14.9054  15.0968  16.5385  16.7656
    18.3605  18.7368  19.1665

     occupation numbers 
     1.0000   1.0000   1.0000   1.0000   1.0000   1.0000   1.0000   1.0000
     1.0000   1.0000   1.0000   1.0000   1.0000   1.0000   1.0000   1.0000
     1.0000   1.0000   1.0000   1.0000   1.0000   1.0000   1.0000   1.0000
     1.0000   1.0000   1.0000   1.0000   1.0000   1.0000   1.0000   1.0000
     1.0000   1.0000   1.0000   1.0000   1.0000   1.0000   1.0000   1.0000
     1.0000   1.0000   1.0000   1.0000   1.0000   1.0000   1.0000   1.0000
     1.0000   1.0000   1.0000   1.0000   1.0000   1.0000   1.0000   1.0000
     0.0000   0.0000   0.0000   0.0000   0.0000   0.0000   0.0000   0.0000
     0.0000   0.0000   0.0000

          k = 0.2503 0.2002-0.2256 ( 18047 PWs)   bands (ev):

   -90.1660 -83.6668 -63.4603 -63.4499 -50.6375 -50.6214 -50.6086 -47.7562
   -47.0469 -46.7436 -27.8793 -27.8211 -27.7141 -27.6832 -27.6594 -27.6482
    -7.2705  -6.6665  -6.4832  -6.1607  -5.8752  -5.7614  -5.6701  -5.4880
     3.9330   4.2380   4.2967   4.6091   4.8695   4.9378   5.2604   5.3475
     5.6314   6.0338   6.3997   6.5089   6.8085   7.0704   7.2034   7.4345
     7.5148   7.9336   8.0981   8.1924   8.5212   8.6449   8.9553   9.1516
     9.3587   9.4867   9.7520   9.9419  10.0577  10.3846  10.7702  11.0906
    14.0444  14.2214  14.4171  14.6116  14.9920  15.2575  16.4969  16.8739
    18.3671  18.7481  18.9976

     occupation numbers 
     1.0000   1.0000   1.0000   1.0000   1.0000   1.0000   1.0000   1.0000
     1.0000   1.0000   1.0000   1.0000   1.0000   1.0000   1.0000   1.0000
     1.0000   1.0000   1.0000   1.0000   1.0000   1.0000   1.0000   1.0000
     1.0000   1.0000   1.0000   1.0000   1.0000   1.0000   1.0000   1.0000
     1.0000   1.0000   1.0000   1.0000   1.0000   1.0000   1.0000   1.0000
     1.0000   1.0000   1.0000   1.0000   1.0000   1.0000   1.0000   1.0000
     1.0000   1.0000   1.0000   1.0000   1.0000   1.0000   1.0000   1.0000
     0.0000   0.0000   0.0000   0.0000   0.0000   0.0000   0.0000   0.0000
     0.0000   0.0000   0.0000

          k = 0.2501 0.2002-0.0747 ( 18023 PWs)   bands (ev):

   -90.1659 -83.6668 -63.4618 -63.4483 -50.6375 -50.6214 -50.6086 -47.7562
   -47.0469 -46.7436 -27.8829 -27.8010 -27.7196 -27.6832 -27.6645 -27.6533
    -7.4513  -6.6236  -6.4777  -6.0850  -5.9048  -5.7347  -5.6166  -5.4639
     3.8853   4.2592   4.3138   4.6112   4.7576   4.9766   5.1282   5.5713
     5.7842   6.0743   6.2917   6.5333   6.8597   7.0109   7.2172   7.3228
     7.6971   7.7829   7.9996   8.3681   8.4454   8.6084   8.9000   9.1731
     9.3592   9.4049   9.8262  10.0309  10.0831  10.4452  10.6409  11.0176
    13.9614  14.2386  14.3793  14.6251  14.9678  15.3450  16.5566  16.9127
    18.5648  18.8504  19.0420

     occupation numbers 
     1.0000   1.0000   1.0000   1.0000   1.0000   1.0000   1.0000   1.0000
     1.0000   1.0000   1.0000   1.0000   1.0000   1.0000   1.0000   1.0000
     1.0000   1.0000   1.0000   1.0000   1.0000   1.0000   1.0000   1.0000
     1.0000   1.0000   1.0000   1.0000   1.0000   1.0000   1.0000   1.0000
     1.0000   1.0000   1.0000   1.0000   1.0000   1.0000   1.0000   1.0000
     1.0000   1.0000   1.0000   1.0000   1.0000   1.0000   1.0000   1.0000
     1.0000   1.0000   1.0000   1.0000   1.0000   1.0000   1.0000   1.0000
     0.0000   0.0000   0.0000   0.0000   0.0000   0.0000   0.0000   0.0000
     0.0000   0.0000   0.0000

          k = 0.2499 0.3337 0.0761 ( 18020 PWs)   bands (ev):

   -90.1659 -83.6668 -63.4619 -63.4483 -50.6375 -50.6214 -50.6086 -47.7562
   -47.0469 -46.7436 -27.8823 -27.7996 -27.7193 -27.6851 -27.6647 -27.6537
    -7.2736  -6.8022  -6.3762  -6.1583  -6.0719  -5.7569  -5.5543  -5.3992
     3.9685   4.2291   4.3260   4.6642   4.7680   4.9750   5.3172   5.6030
     5.9511   6.1027   6.2374   6.4795   6.8548   7.0094   7.1491   7.4148
     7.6083   7.8090   8.0832   8.1730   8.3701   8.5852   8.7717   8.9861
     9.2403   9.4802   9.7258  10.0318  10.2718  10.4269  10.5263  10.9510
    13.9017  14.3634  14.4437  14.5622  14.9349  15.2021  16.5477  16.9307
    18.8024  18.9045  19.1853

     occupation numbers 
     1.0000   1.0000   1.0000   1.0000   1.0000   1.0000   1.0000   1.0000
     1.0000   1.0000   1.0000   1.0000   1.0000   1.0000   1.0000   1.0000
     1.0000   1.0000   1.0000   1.0000   1.0000   1.0000   1.0000   1.0000
     1.0000   1.0000   1.0000   1.0000   1.0000   1.0000   1.0000   1.0000
     1.0000   1.0000   1.0000   1.0000   1.0000   1.0000   1.0000   1.0000
     1.0000   1.0000   1.0000   1.0000   1.0000   1.0000   1.0000   1.0000
     1.0000   1.0000   1.0000   1.0000   1.0000   1.0000   1.0000   1.0000
     0.0000   0.0000   0.0000   0.0000   0.0000   0.0000   0.0000   0.0000
     0.0000   0.0000   0.0000

          k = 0.2497 0.3337 0.2269 ( 18047 PWs)   bands (ev):

   -90.1660 -83.6668 -63.4603 -63.4499 -50.6375 -50.6214 -50.6086 -47.7562
   -47.0469 -46.7436 -27.8796 -27.8211 -27.7138 -27.6839 -27.6592 -27.6477
    -7.1099  -6.7087  -6.3676  -6.2772  -6.0920  -5.8380  -5.6146  -5.4234
     4.0011   4.3133   4.4187   4.5552   4.7501   4.9882   5.3896   5.5874
     5.9192   6.1513   6.2850   6.5029   6.7235   6.8807   7.1556   7.3247
     7.5394   7.8267   8.0515   8.2979   8.4409   8.7612   8.8109   9.0111
     9.2981   9.5111   9.5952   9.7897  10.2174  10.3972  10.6857  10.9217
    13.9663  14.2333  14.4519  14.5902  14.8021  15.1049  16.5673  16.8690
    18.5376  18.9012  19.7217

     occupation numbers 
     1.0000   1.0000   1.0000   1.0000   1.0000   1.0000   1.0000   1.0000
     1.0000   1.0000   1.0000   1.0000   1.0000   1.0000   1.0000   1.0000
     1.0000   1.0000   1.0000   1.0000   1.0000   1.0000   1.0000   1.0000
     1.0000   1.0000   1.0000   1.0000   1.0000   1.0000   1.0000   1.0000
     1.0000   1.0000   1.0000   1.0000   1.0000   1.0000   1.0000   1.0000
     1.0000   1.0000   1.0000   1.0000   1.0000   1.0000   1.0000   1.0000
     1.0000   1.0000   1.0000   1.0000   1.0000   1.0000   1.0000   1.0000
     0.0000   0.0000   0.0000   0.0000   0.0000   0.0000   0.0000   0.0000
     0.0000   0.0000   0.0000

          k = 0.2495 0.3337 0.3777 ( 18057 PWs)   bands (ev):

   -90.1660 -83.6668 -63.4580 -63.4522 -50.6374 -50.6214 -50.6086 -47.7562
   -47.0469 -46.7436 -27.8692 -27.8484 -27.7054 -27.6889 -27.6501 -27.6440
    -6.8768  -6.6016  -6.5655  -6.3701  -5.9897  -5.8142  -5.7645  -5.4687
     4.0185   4.2162   4.4873   4.6190   4.7503   5.0765   5.2306   5.3963
     5.9614   6.1832   6.3529   6.6248   6.7456   6.9401   7.1446   7.4200
     7.5015   7.6525   7.9375   8.2602   8.4533   8.8360   8.9392   9.0157
     9.1552   9.3144   9.7662   9.8322  10.2302  10.3244  10.8025  10.9808
    14.0226  14.1794  14.5319  14.5620  14.8348  14.9979  16.6464  16.7388
    18.2755  18.8762  19.6839

     occupation numbers 
     1.0000   1.0000   1.0000   1.0000   1.0000   1.0000   1.0000   1.0000
     1.0000   1.0000   1.0000   1.0000   1.0000   1.0000   1.0000   1.0000
     1.0000   1.0000   1.0000   1.0000   1.0000   1.0000   1.0000   1.0000
     1.0000   1.0000   1.0000   1.0000   1.0000   1.0000   1.0000   1.0000
     1.0000   1.0000   1.0000   1.0000   1.0000   1.0000   1.0000   1.0000
     1.0000   1.0000   1.0000   1.0000   1.0000   1.0000   1.0000   1.0000
     1.0000   1.0000   1.0000   1.0000   1.0000   1.0000   1.0000   1.0000
     0.0000   0.0000   0.0000   0.0000   0.0000   0.0000   0.0000   0.0000
     0.0000   0.0000   0.0000

          k = 0.2505 0.3337-0.3764 ( 18066 PWs)   bands (ev):

   -90.1660 -83.6668 -63.4581 -63.4522 -50.6374 -50.6214 -50.6086 -47.7562
   -47.0469 -46.7436 -27.8693 -27.8483 -27.7054 -27.6888 -27.6504 -27.6439
    -6.8900  -6.7802  -6.4615  -6.2872  -5.9633  -5.8638  -5.6337  -5.5522
     3.9928   4.1689   4.3673   4.6428   4.8191   5.0481   5.1818   5.4789
     5.7996   6.2591   6.5597   6.6421   6.7078   6.8764   7.0891   7.3266
     7.4138   7.8757   8.0390   8.3143   8.4721   8.6206   8.8748   9.0721
     9.2173   9.2615   9.7828   9.9092  10.1327  10.3313  10.8696  11.0400
    14.1177  14.2381  14.4237  14.6812  14.8638  15.0932  16.5562  16.7824
    18.1610  18.8569  19.2935

     occupation numbers 
     1.0000   1.0000   1.0000   1.0000   1.0000   1.0000   1.0000   1.0000
     1.0000   1.0000   1.0000   1.0000   1.0000   1.0000   1.0000   1.0000
     1.0000   1.0000   1.0000   1.0000   1.0000   1.0000   1.0000   1.0000
     1.0000   1.0000   1.0000   1.0000   1.0000   1.0000   1.0000   1.0000
     1.0000   1.0000   1.0000   1.0000   1.0000   1.0000   1.0000   1.0000
     1.0000   1.0000   1.0000   1.0000   1.0000   1.0000   1.0000   1.0000
     1.0000   1.0000   1.0000   1.0000   1.0000   1.0000   1.0000   1.0000
     0.0000   0.0000   0.0000   0.0000   0.0000   0.0000   0.0000   0.0000
     0.0000   0.0000   0.0000

          k = 0.2503 0.3337-0.2256 ( 18051 PWs)   bands (ev):

   -90.1660 -83.6668 -63.4604 -63.4498 -50.6375 -50.6214 -50.6086 -47.7562
   -47.0469 -46.7436 -27.8797 -27.8211 -27.7139 -27.6834 -27.6597 -27.6477
    -7.1303  -6.8523  -6.4276  -6.1515  -5.9079  -5.7558  -5.6770  -5.4912
     3.9270   4.2214   4.2594   4.6039   4.9057   5.0634   5.2204   5.5201
     5.7753   5.9972   6.4123   6.6103   6.8271   6.9904   7.1557   7.4856
     7.5414   7.7784   7.9428   8.2317   8.4147   8.6262   8.9047   9.1620
     9.3429   9.4818   9.5888   9.8850  10.0591  10.3395  10.8862  10.9984
    14.0277  14.2610  14.5170  14.6548  15.0154  15.1990  16.5139  16.8801
    18.2560  18.8787  19.0628

     occupation numbers 
     1.0000   1.0000   1.0000   1.0000   1.0000   1.0000   1.0000   1.0000
     1.0000   1.0000   1.0000   1.0000   1.0000   1.0000   1.0000   1.0000
     1.0000   1.0000   1.0000   1.0000   1.0000   1.0000   1.0000   1.0000
     1.0000   1.0000   1.0000   1.0000   1.0000   1.0000   1.0000   1.0000
     1.0000   1.0000   1.0000   1.0000   1.0000   1.0000   1.0000   1.0000
     1.0000   1.0000   1.0000   1.0000   1.0000   1.0000   1.0000   1.0000
     1.0000   1.0000   1.0000   1.0000   1.0000   1.0000   1.0000   1.0000
     0.0000   0.0000   0.0000   0.0000   0.0000   0.0000   0.0000   0.0000
     0.0000   0.0000   0.0000

          k = 0.2501 0.3337-0.0747 ( 18015 PWs)   bands (ev):

   -90.1659 -83.6668 -63.4619 -63.4483 -50.6375 -50.6214 -50.6086 -47.7562
   -47.0469 -46.7436 -27.8823 -27.7996 -27.7193 -27.6848 -27.6649 -27.6538
    -7.2810  -6.8529  -6.4476  -6.0872  -5.9370  -5.7740  -5.5558  -5.4383
     3.9223   4.1930   4.2919   4.6691   4.8707   4.9788   5.1961   5.5945
     5.8479   6.0924   6.2032   6.5974   6.8405   7.0094   7.2367   7.4574
     7.6512   7.8243   8.0240   8.2160   8.3297   8.5369   8.7366   9.0005
     9.2404   9.5265   9.8623  10.0308  10.1120  10.3369  10.7428  10.9552
    13.9181  14.3275  14.4310  14.6878  15.0487  15.2335  16.5565  16.9262
    18.5692  18.9004  19.0589

     occupation numbers 
     1.0000   1.0000   1.0000   1.0000   1.0000   1.0000   1.0000   1.0000
     1.0000   1.0000   1.0000   1.0000   1.0000   1.0000   1.0000   1.0000
     1.0000   1.0000   1.0000   1.0000   1.0000   1.0000   1.0000   1.0000
     1.0000   1.0000   1.0000   1.0000   1.0000   1.0000   1.0000   1.0000
     1.0000   1.0000   1.0000   1.0000   1.0000   1.0000   1.0000   1.0000
     1.0000   1.0000   1.0000   1.0000   1.0000   1.0000   1.0000   1.0000
     1.0000   1.0000   1.0000   1.0000   1.0000   1.0000   1.0000   1.0000
     0.0000   0.0000   0.0000   0.0000   0.0000   0.0000   0.0000   0.0000
     0.0000   0.0000   0.0000

          k = 0.4166 0.0667 0.0765 ( 17998 PWs)   bands (ev):

   -90.1659 -83.6668 -63.4618 -63.4483 -50.6375 -50.6214 -50.6086 -47.7562
   -47.0469 -46.7436 -27.8833 -27.8022 -27.7217 -27.6819 -27.6650 -27.6532
    -7.2647  -6.5671  -6.4858  -6.1392  -6.0021  -5.7672  -5.6894  -5.5096
     4.0857   4.3086   4.4628   4.6321   4.8287   4.9543   5.1307   5.3839
     5.5590   6.2395   6.4279   6.5768   6.6983   6.8650   7.0585   7.3117
     7.5835   7.7400   7.9757   8.2421   8.6336   8.7437   8.8798   9.1870
     9.4066   9.5309   9.6424   9.9803  10.3962  10.5864  10.8416  10.9637
    14.0114  14.1329  14.2758  14.6308  14.7145  15.3031  16.7114  16.8018
    18.7566  19.0960  19.3905

     occupation numbers 
     1.0000   1.0000   1.0000   1.0000   1.0000   1.0000   1.0000   1.0000
     1.0000   1.0000   1.0000   1.0000   1.0000   1.0000   1.0000   1.0000
     1.0000   1.0000   1.0000   1.0000   1.0000   1.0000   1.0000   1.0000
     1.0000   1.0000   1.0000   1.0000   1.0000   1.0000   1.0000   1.0000
     1.0000   1.0000   1.0000   1.0000   1.0000   1.0000   1.0000   1.0000
     1.0000   1.0000   1.0000   1.0000   1.0000   1.0000   1.0000   1.0000
     1.0000   1.0000   1.0000   1.0000   1.0000   1.0000   1.0000   1.0000
     0.0000   0.0000   0.0000   0.0000   0.0000   0.0000   0.0000   0.0000
     0.0000   0.0000   0.0000

          k = 0.4164 0.0667 0.2273 ( 18030 PWs)   bands (ev):

   -90.1659 -83.6668 -63.4602 -63.4499 -50.6375 -50.6214 -50.6086 -47.7562
   -47.0469 -46.7436 -27.8788 -27.8210 -27.7160 -27.6840 -27.6594 -27.6488
    -7.0990  -6.5518  -6.3804  -6.2046  -6.1212  -5.9253  -5.6646  -5.4969
     4.1230   4.2922   4.4849   4.6221   4.8790   5.0792   5.1891   5.2799
     5.6342   6.0188   6.2896   6.4017   6.6297   6.9196   7.0274   7.1704
     7.6637   7.7851   7.9871   8.4499   8.6905   8.8747   9.0267   9.1718
     9.4137   9.6354   9.7344   9.7962  10.3607  10.4418  10.8626  10.9444
    13.9499  14.1833  14.4035  14.5300  14.7701  15.2420  16.7494  16.7829
    18.6724  18.9916  19.3623

     occupation numbers 
     1.0000   1.0000   1.0000   1.0000   1.0000   1.0000   1.0000   1.0000
     1.0000   1.0000   1.0000   1.0000   1.0000   1.0000   1.0000   1.0000
     1.0000   1.0000   1.0000   1.0000   1.0000   1.0000   1.0000   1.0000
     1.0000   1.0000   1.0000   1.0000   1.0000   1.0000   1.0000   1.0000
     1.0000   1.0000   1.0000   1.0000   1.0000   1.0000   1.0000   1.0000
     1.0000   1.0000   1.0000   1.0000   1.0000   1.0000   1.0000   1.0000
     1.0000   1.0000   1.0000   1.0000   1.0000   1.0000   1.0000   1.0000
     0.0000   0.0000   0.0000   0.0000   0.0000   0.0000   0.0000   0.0000
     0.0000   0.0000   0.0000

          k = 0.4162 0.0667 0.3781 ( 18037 PWs)   bands (ev):

   -90.1660 -83.6668 -63.4579 -63.4524 -50.6374 -50.6214 -50.6086 -47.7562
   -47.0469 -46.7436 -27.8667 -27.8460 -27.7075 -27.6906 -27.6517 -27.6462
    -6.8064  -6.5318  -6.4355  -6.3116  -6.1691  -6.1017  -5.6194  -5.4737
     4.2173   4.3572   4.5011   4.6450   4.7573   4.9742   5.0954   5.2849
     5.4650   6.1009   6.3334   6.4293   6.6059   6.8068   6.9393   7.4027
     7.7083   7.8941   8.0420   8.2126   8.5093   8.7534   9.0798   9.2547
     9.5435   9.7560   9.8377   9.9422  10.2805  10.4184  10.8774  10.9737
    13.9851  14.2246  14.3427  14.4901  14.9600  15.1388  16.7077  16.8306
    18.4800  18.5561  19.4778

     occupation numbers 
     1.0000   1.0000   1.0000   1.0000   1.0000   1.0000   1.0000   1.0000
     1.0000   1.0000   1.0000   1.0000   1.0000   1.0000   1.0000   1.0000
     1.0000   1.0000   1.0000   1.0000   1.0000   1.0000   1.0000   1.0000
     1.0000   1.0000   1.0000   1.0000   1.0000   1.0000   1.0000   1.0000
     1.0000   1.0000   1.0000   1.0000   1.0000   1.0000   1.0000   1.0000
     1.0000   1.0000   1.0000   1.0000   1.0000   1.0000   1.0000   1.0000
     1.0000   1.0000   1.0000   1.0000   1.0000   1.0000   1.0000   1.0000
     0.0000   0.0000   0.0000   0.0000   0.0000   0.0000   0.0000   0.0000
     0.0000   0.0000   0.0000

          k = 0.4171 0.0667-0.3759 ( 18041 PWs)   bands (ev):

   -90.1660 -83.6668 -63.4579 -63.4524 -50.6374 -50.6214 -50.6086 -47.7562
   -47.0469 -46.7436 -27.8667 -27.8460 -27.7075 -27.6905 -27.6518 -27.6461
    -6.7742  -6.5623  -6.4791  -6.3158  -6.2681  -5.9500  -5.6371  -5.4503
     4.2658   4.3188   4.4857   4.6645   4.8789   4.9649   5.0117   5.1311
     5.4108   5.9531   6.3953   6.5520   6.5881   6.7358   7.1185   7.4993
     7.5568   7.8534   8.0723   8.3185   8.4796   8.7850   9.1415   9.1854
     9.5509   9.7398   9.8282   9.9279  10.2860  10.4519  10.8481  11.0543
    13.9737  14.2133  14.4011  14.5067  14.9957  15.1362  16.6238  16.9020
    18.2679  18.5029  19.4357

     occupation numbers 
     1.0000   1.0000   1.0000   1.0000   1.0000   1.0000   1.0000   1.0000
     1.0000   1.0000   1.0000   1.0000   1.0000   1.0000   1.0000   1.0000
     1.0000   1.0000   1.0000   1.0000   1.0000   1.0000   1.0000   1.0000
     1.0000   1.0000   1.0000   1.0000   1.0000   1.0000   1.0000   1.0000
     1.0000   1.0000   1.0000   1.0000   1.0000   1.0000   1.0000   1.0000
     1.0000   1.0000   1.0000   1.0000   1.0000   1.0000   1.0000   1.0000
     1.0000   1.0000   1.0000   1.0000   1.0000   1.0000   1.0000   1.0000
     0.0000   0.0000   0.0000   0.0000   0.0000   0.0000   0.0000   0.0000
     0.0000   0.0000   0.0000

          k = 0.4169 0.0667-0.2251 ( 18021 PWs)   bands (ev):

   -90.1659 -83.6668 -63.4602 -63.4499 -50.6375 -50.6214 -50.6086 -47.7562
   -47.0469 -46.7436 -27.8788 -27.8210 -27.7161 -27.6838 -27.6596 -27.6488
    -7.0782  -6.6008  -6.4709  -6.2075  -6.1123  -5.7977  -5.6940  -5.4580
     4.1888   4.2699   4.4663   4.6783   4.8646   4.9702   5.1963   5.2239
     5.4530   5.8275   6.2295   6.5637   6.7324   6.8252   7.0528   7.1898
     7.6593   7.9265   8.1520   8.5507   8.7083   8.8614   9.0811   9.1624
     9.3527   9.5002   9.6665   9.8502  10.3470  10.5133  10.8056  11.1213
    13.9291  14.2344  14.4033  14.5335  14.8644  15.2779  16.5748  16.9358
    18.3051  18.7548  19.3878

     occupation numbers 
     1.0000   1.0000   1.0000   1.0000   1.0000   1.0000   1.0000   1.0000
     1.0000   1.0000   1.0000   1.0000   1.0000   1.0000   1.0000   1.0000
     1.0000   1.0000   1.0000   1.0000   1.0000   1.0000   1.0000   1.0000
     1.0000   1.0000   1.0000   1.0000   1.0000   1.0000   1.0000   1.0000
     1.0000   1.0000   1.0000   1.0000   1.0000   1.0000   1.0000   1.0000
     1.0000   1.0000   1.0000   1.0000   1.0000   1.0000   1.0000   1.0000
     1.0000   1.0000   1.0000   1.0000   1.0000   1.0000   1.0000   1.0000
     0.0000   0.0000   0.0000   0.0000   0.0000   0.0000   0.0000   0.0000
     0.0000   0.0000   0.0000

          k = 0.4168 0.0667-0.0743 ( 18009 PWs)   bands (ev):

   -90.1659 -83.6668 -63.4618 -63.4483 -50.6375 -50.6214 -50.6086 -47.7562
   -47.0469 -46.7436 -27.8833 -27.8022 -27.7217 -27.6817 -27.6651 -27.6532
    -7.2577  -6.5900  -6.5189  -6.1537  -5.9295  -5.8233  -5.6433  -5.4967
     4.1071   4.3369   4.4591   4.6295   4.7701   4.9338   5.0612   5.3636
     5.6710   6.0773   6.3025   6.5867   6.7717   6.9431   7.0372   7.2317
     7.4588   7.9231   8.2095   8.3636   8.5610   8.8297   8.8610   9.0971
     9.3510   9.4798   9.6391  10.0087  10.3411  10.5980  10.8265  11.0829
    13.9748  14.2028  14.2560  14.6060  14.7737  15.3350  16.6188  16.8841
    18.5539  18.9845  19.4383

     occupation numbers 
     1.0000   1.0000   1.0000   1.0000   1.0000   1.0000   1.0000   1.0000
     1.0000   1.0000   1.0000   1.0000   1.0000   1.0000   1.0000   1.0000
     1.0000   1.0000   1.0000   1.0000   1.0000   1.0000   1.0000   1.0000
     1.0000   1.0000   1.0000   1.0000   1.0000   1.0000   1.0000   1.0000
     1.0000   1.0000   1.0000   1.0000   1.0000   1.0000   1.0000   1.0000
     1.0000   1.0000   1.0000   1.0000   1.0000   1.0000   1.0000   1.0000
     1.0000   1.0000   1.0000   1.0000   1.0000   1.0000   1.0000   1.0000
     0.0000   0.0000   0.0000   0.0000   0.0000   0.0000   0.0000   0.0000
     0.0000   0.0000   0.0000

          k = 0.4166 0.2002 0.0765 ( 18028 PWs)   bands (ev):

   -90.1659 -83.6668 -63.4619 -63.4483 -50.6375 -50.6214 -50.6086 -47.7562
   -47.0469 -46.7436 -27.8827 -27.8008 -27.7213 -27.6834 -27.6654 -27.6536
    -7.1973  -6.6937  -6.4605  -6.1472  -5.9970  -5.8023  -5.6594  -5.4597
     3.9356   4.1746   4.3408   4.6743   4.8609   4.9915   5.2012   5.5013
     5.7168   6.3268   6.5667   6.6562   6.7661   6.8952   7.1572   7.3667
     7.4897   7.7882   7.9828   8.2008   8.4313   8.6632   8.7629   9.0188
     9.3966   9.4766   9.7220   9.9703  10.3664  10.5812  10.6736  10.8508
    13.9445  14.2017  14.3728  14.5712  14.7692  15.3605  16.6743  16.8010
    18.6855  19.0333  19.3226

     occupation numbers 
     1.0000   1.0000   1.0000   1.0000   1.0000   1.0000   1.0000   1.0000
     1.0000   1.0000   1.0000   1.0000   1.0000   1.0000   1.0000   1.0000
     1.0000   1.0000   1.0000   1.0000   1.0000   1.0000   1.0000   1.0000
     1.0000   1.0000   1.0000   1.0000   1.0000   1.0000   1.0000   1.0000
     1.0000   1.0000   1.0000   1.0000   1.0000   1.0000   1.0000   1.0000
     1.0000   1.0000   1.0000   1.0000   1.0000   1.0000   1.0000   1.0000
     1.0000   1.0000   1.0000   1.0000   1.0000   1.0000   1.0000   1.0000
     0.0000   0.0000   0.0000   0.0000   0.0000   0.0000   0.0000   0.0000
     0.0000   0.0000   0.0000

          k = 0.4164 0.2002 0.2273 ( 18023 PWs)   bands (ev):

   -90.1659 -83.6668 -63.4603 -63.4499 -50.6375 -50.6214 -50.6086 -47.7562
   -47.0469 -46.7436 -27.8790 -27.8209 -27.7157 -27.6843 -27.6597 -27.6482
    -7.0427  -6.6842  -6.3163  -6.2864  -6.0848  -5.8874  -5.6374  -5.4924
     3.9817   4.2321   4.3575   4.6794   4.8384   4.9849   5.2771   5.3579
     5.6845   6.2266   6.3446   6.5846   6.7529   6.9053   7.0670   7.2944
     7.6779   7.8546   8.0418   8.3506   8.6373   8.7253   8.8798   9.2121
     9.3030   9.3960   9.7232   9.8119  10.3030  10.4550  10.7501  10.8671
    13.8832  14.2220  14.4682  14.5630  14.7290  15.2542  16.7364  16.7804
    18.5241  18.8805  19.4669

     occupation numbers 
     1.0000   1.0000   1.0000   1.0000   1.0000   1.0000   1.0000   1.0000
     1.0000   1.0000   1.0000   1.0000   1.0000   1.0000   1.0000   1.0000
     1.0000   1.0000   1.0000   1.0000   1.0000   1.0000   1.0000   1.0000
     1.0000   1.0000   1.0000   1.0000   1.0000   1.0000   1.0000   1.0000
     1.0000   1.0000   1.0000   1.0000   1.0000   1.0000   1.0000   1.0000
     1.0000   1.0000   1.0000   1.0000   1.0000   1.0000   1.0000   1.0000
     1.0000   1.0000   1.0000   1.0000   1.0000   1.0000   1.0000   1.0000
     0.0000   0.0000   0.0000   0.0000   0.0000   0.0000   0.0000   0.0000
     0.0000   0.0000   0.0000

          k = 0.4162 0.2002 0.3781 ( 18012 PWs)   bands (ev):

   -90.1660 -83.6668 -63.4580 -63.4523 -50.6374 -50.6214 -50.6086 -47.7562
   -47.0469 -46.7436 -27.8678 -27.8470 -27.7072 -27.6904 -27.6511 -27.6451
    -6.7947  -6.6386  -6.4975  -6.3144  -6.0567  -5.9839  -5.6316  -5.5174
     4.0470   4.2589   4.4379   4.5846   4.8154   4.9211   5.0647   5.3686
     5.7481   6.1674   6.3244   6.4794   6.7026   6.8833   7.1698   7.4845
     7.6447   7.9559   8.0979   8.2333   8.4916   8.6760   9.0023   9.2041
     9.4293   9.5534   9.7973   9.8840  10.2491  10.2963  10.8063  10.8851
    13.9506  14.1805  14.4310  14.5226  14.9335  15.1003  16.7216  16.8171
    18.4238  18.4563  19.6706

     occupation numbers 
     1.0000   1.0000   1.0000   1.0000   1.0000   1.0000   1.0000   1.0000
     1.0000   1.0000   1.0000   1.0000   1.0000   1.0000   1.0000   1.0000
     1.0000   1.0000   1.0000   1.0000   1.0000   1.0000   1.0000   1.0000
     1.0000   1.0000   1.0000   1.0000   1.0000   1.0000   1.0000   1.0000
     1.0000   1.0000   1.0000   1.0000   1.0000   1.0000   1.0000   1.0000
     1.0000   1.0000   1.0000   1.0000   1.0000   1.0000   1.0000   1.0000
     1.0000   1.0000   1.0000   1.0000   1.0000   1.0000   1.0000   1.0000
     0.0000   0.0000   0.0000   0.0000   0.0000   0.0000   0.0000   0.0000
     0.0000   0.0000   0.0000

          k = 0.4171 0.2002-0.3759 ( 18010 PWs)   bands (ev):

   -90.1660 -83.6668 -63.4580 -63.4523 -50.6374 -50.6214 -50.6086 -47.7562
   -47.0469 -46.7436 -27.8678 -27.8470 -27.7072 -27.6903 -27.6512 -27.6450
    -6.7966  -6.6743  -6.4815  -6.3385  -6.0866  -5.8895  -5.6347  -5.5220
     4.0688   4.2320   4.3432   4.6216   4.8387   4.9652   5.0532   5.3464
     5.6262   6.0719   6.4399   6.5395   6.6958   6.9470   7.1174   7.5011
     7.6697   7.8636   8.0840   8.3140   8.5328   8.6740   9.0448   9.1546
     9.3759   9.6528   9.7547   9.8462  10.1987  10.4029  10.7734  10.9450
    14.0009  14.1623  14.3708  14.6253  14.9397  15.1371  16.6457  16.8754
    18.2077  18.5530  19.3872

     occupation numbers 
     1.0000   1.0000   1.0000   1.0000   1.0000   1.0000   1.0000   1.0000
     1.0000   1.0000   1.0000   1.0000   1.0000   1.0000   1.0000   1.0000
     1.0000   1.0000   1.0000   1.0000   1.0000   1.0000   1.0000   1.0000
     1.0000   1.0000   1.0000   1.0000   1.0000   1.0000   1.0000   1.0000
     1.0000   1.0000   1.0000   1.0000   1.0000   1.0000   1.0000   1.0000
     1.0000   1.0000   1.0000   1.0000   1.0000   1.0000   1.0000   1.0000
     1.0000   1.0000   1.0000   1.0000   1.0000   1.0000   1.0000   1.0000
     0.0000   0.0000   0.0000   0.0000   0.0000   0.0000   0.0000   0.0000
     0.0000   0.0000   0.0000

          k = 0.4169 0.2002-0.2251 ( 18032 PWs)   bands (ev):

   -90.1659 -83.6668 -63.4603 -63.4499 -50.6375 -50.6214 -50.6086 -47.7562
   -47.0469 -46.7436 -27.8791 -27.8209 -27.7158 -27.6840 -27.6599 -27.6482
    -7.0385  -6.7363  -6.4268  -6.2252  -6.0264  -5.8024  -5.6563  -5.4980
     3.9979   4.2134   4.2725   4.6772   4.8849   4.9885   5.2003   5.3531
     5.6478   6.0537   6.3018   6.6004   6.8418   6.9611   7.1467   7.3382
     7.6641   7.7638   8.1023   8.4696   8.6377   8.7253   8.9472   9.1269
     9.2956   9.4400   9.6331   9.8597  10.2551  10.5080  10.7304  10.9869
    13.9391  14.1888  14.4390  14.5995  14.8667  15.3043  16.6072  16.8846
    18.2818  18.8933  19.1338

     occupation numbers 
     1.0000   1.0000   1.0000   1.0000   1.0000   1.0000   1.0000   1.0000
     1.0000   1.0000   1.0000   1.0000   1.0000   1.0000   1.0000   1.0000
     1.0000   1.0000   1.0000   1.0000   1.0000   1.0000   1.0000   1.0000
     1.0000   1.0000   1.0000   1.0000   1.0000   1.0000   1.0000   1.0000
     1.0000   1.0000   1.0000   1.0000   1.0000   1.0000   1.0000   1.0000
     1.0000   1.0000   1.0000   1.0000   1.0000   1.0000   1.0000   1.0000
     1.0000   1.0000   1.0000   1.0000   1.0000   1.0000   1.0000   1.0000
     0.0000   0.0000   0.0000   0.0000   0.0000   0.0000   0.0000   0.0000
     0.0000   0.0000   0.0000

          k = 0.4168 0.2002-0.0743 ( 18021 PWs)   bands (ev):

   -90.1659 -83.6668 -63.4619 -63.4483 -50.6375 -50.6214 -50.6086 -47.7562
   -47.0469 -46.7436 -27.8827 -27.8008 -27.7214 -27.6832 -27.6655 -27.6537
    -7.1954  -6.7170  -6.4963  -6.1333  -5.9400  -5.8014  -5.6577  -5.4653
     3.9392   4.1609   4.3387   4.6765   4.8396   4.9495   5.1584   5.6000
     5.7515   6.1541   6.4491   6.5955   6.8567   6.9885   7.1969   7.3525
     7.6130   7.6900   8.0083   8.2969   8.4041   8.6724   8.8465   8.9419
     9.3826   9.4829   9.7095   9.9884  10.3007  10.5465  10.7188  10.9342
    13.9597  14.2215  14.3178  14.5824  14.8504  15.3892  16.6283  16.8384
    18.5737  18.9468  19.2881

     occupation numbers 
     1.0000   1.0000   1.0000   1.0000   1.0000   1.0000   1.0000   1.0000
     1.0000   1.0000   1.0000   1.0000   1.0000   1.0000   1.0000   1.0000
     1.0000   1.0000   1.0000   1.0000   1.0000   1.0000   1.0000   1.0000
     1.0000   1.0000   1.0000   1.0000   1.0000   1.0000   1.0000   1.0000
     1.0000   1.0000   1.0000   1.0000   1.0000   1.0000   1.0000   1.0000
     1.0000   1.0000   1.0000   1.0000   1.0000   1.0000   1.0000   1.0000
     1.0000   1.0000   1.0000   1.0000   1.0000   1.0000   1.0000   1.0000
     0.0000   0.0000   0.0000   0.0000   0.0000   0.0000   0.0000   0.0000
     0.0000   0.0000   0.0000

          k = 0.4166 0.3337 0.0765 ( 18021 PWs)   bands (ev):

   -90.1659 -83.6668 -63.4620 -63.4482 -50.6375 -50.6214 -50.6086 -47.7563
   -47.0469 -46.7436 -27.8820 -27.7993 -27.7210 -27.6849 -27.6659 -27.6541
    -7.1095  -6.8023  -6.4371  -6.1850  -6.0498  -5.7822  -5.6164  -5.4263
     3.8600   3.9895   4.2623   4.7105   4.8907   4.9782   5.2102   5.7134
     6.0090   6.3473   6.5741   6.6551   6.8329   7.0718   7.2657   7.4057
     7.4810   7.6846   7.9364   8.2790   8.3297   8.4436   8.7116   8.9243
     9.2576   9.4504   9.7787   9.9796  10.2241  10.5276  10.6454  10.7361
    13.9085  14.2934  14.4342  14.5000  14.8537  15.3786  16.6244  16.8223
    18.4206  19.1851  19.3429

     occupation numbers 
     1.0000   1.0000   1.0000   1.0000   1.0000   1.0000   1.0000   1.0000
     1.0000   1.0000   1.0000   1.0000   1.0000   1.0000   1.0000   1.0000
     1.0000   1.0000   1.0000   1.0000   1.0000   1.0000   1.0000   1.0000
     1.0000   1.0000   1.0000   1.0000   1.0000   1.0000   1.0000   1.0000
     1.0000   1.0000   1.0000   1.0000   1.0000   1.0000   1.0000   1.0000
     1.0000   1.0000   1.0000   1.0000   1.0000   1.0000   1.0000   1.0000
     1.0000   1.0000   1.0000   1.0000   1.0000   1.0000   1.0000   1.0000
     0.0000   0.0000   0.0000   0.0000   0.0000   0.0000   0.0000   0.0000
     0.0000   0.0000   0.0000

          k = 0.4164 0.3337 0.2273 ( 18029 PWs)   bands (ev):

   -90.1660 -83.6668 -63.4604 -63.4499 -50.6375 -50.6214 -50.6086 -47.7562
   -47.0469 -46.7436 -27.8793 -27.8209 -27.7154 -27.6845 -27.6599 -27.6477
    -6.9729  -6.7788  -6.3605  -6.2405  -6.1302  -5.8664  -5.5725  -5.4970
     3.8885   4.1106   4.2902   4.6448   4.8011   4.9885   5.3296   5.4520
     5.8036   6.3128   6.4770   6.6915   6.8743   7.0439   7.1492   7.3283
     7.6043   7.9453   8.1019   8.2831   8.4682   8.6302   8.7256   9.0429
     9.2689   9.3575   9.7367   9.8858  10.1411  10.4739  10.5778  10.8115
    13.8674  14.2348  14.4860  14.6110  14.7006  15.2526  16.7068  16.7958
    18.4058  18.8055  19.6146

     occupation numbers 
     1.0000   1.0000   1.0000   1.0000   1.0000   1.0000   1.0000   1.0000
     1.0000   1.0000   1.0000   1.0000   1.0000   1.0000   1.0000   1.0000
     1.0000   1.0000   1.0000   1.0000   1.0000   1.0000   1.0000   1.0000
     1.0000   1.0000   1.0000   1.0000   1.0000   1.0000   1.0000   1.0000
     1.0000   1.0000   1.0000   1.0000   1.0000   1.0000   1.0000   1.0000
     1.0000   1.0000   1.0000   1.0000   1.0000   1.0000   1.0000   1.0000
     1.0000   1.0000   1.0000   1.0000   1.0000   1.0000   1.0000   1.0000
     0.0000   0.0000   0.0000   0.0000   0.0000   0.0000   0.0000   0.0000
     0.0000   0.0000   0.0000

          k = 0.4162 0.3337 0.3781 ( 18027 PWs)   bands (ev):

   -90.1660 -83.6668 -63.4581 -63.4523 -50.6374 -50.6214 -50.6086 -47.7562
   -47.0469 -46.7436 -27.8689 -27.8481 -27.7068 -27.6902 -27.6503 -27.6440
    -6.8102  -6.7029  -6.4886  -6.3405  -5.9735  -5.9001  -5.6575  -5.5465
     3.9192   4.2085   4.3555   4.4563   4.7717   4.9703   5.0858   5.4774
     5.9758   6.2801   6.3873   6.5476   6.7945   7.0372   7.2198   7.5125
     7.6312   7.8154   8.0598   8.3603   8.5075   8.7822   8.9658   9.0743
     9.2280   9.5066   9.6624   9.8801  10.1464  10.2794  10.5575  10.8849
    13.9289  14.1505  14.4407  14.5759  14.9125  15.0780  16.7185  16.8115
    18.3626  18.4079  19.9549

     occupation numbers 
     1.0000   1.0000   1.0000   1.0000   1.0000   1.0000   1.0000   1.0000
     1.0000   1.0000   1.0000   1.0000   1.0000   1.0000   1.0000   1.0000
     1.0000   1.0000   1.0000   1.0000   1.0000   1.0000   1.0000   1.0000
     1.0000   1.0000   1.0000   1.0000   1.0000   1.0000   1.0000   1.0000
     1.0000   1.0000   1.0000   1.0000   1.0000   1.0000   1.0000   1.0000
     1.0000   1.0000   1.0000   1.0000   1.0000   1.0000   1.0000   1.0000
     1.0000   1.0000   1.0000   1.0000   1.0000   1.0000   1.0000   1.0000
     0.0000   0.0000   0.0000   0.0000   0.0000   0.0000   0.0000   0.0000
     0.0000   0.0000   0.0000

          k = 0.4171 0.3337-0.3759 ( 18029 PWs)   bands (ev):

   -90.1660 -83.6668 -63.4581 -63.4523 -50.6374 -50.6214 -50.6086 -47.7562
   -47.0469 -46.7436 -27.8689 -27.8480 -27.7069 -27.6901 -27.6505 -27.6439
    -6.8299  -6.7448  -6.4688  -6.3248  -5.9386  -5.8709  -5.6358  -5.5966
     3.9088   4.2035   4.2329   4.5347   4.7851   4.9116   5.1114   5.5102
     6.0060   6.2183   6.3553   6.6275   6.8556   7.0609   7.1364   7.3308
     7.7363   7.8932   8.1549   8.3057   8.4696   8.8139   8.9435   9.0199
     9.2676   9.4948   9.7135   9.7681  10.0946  10.3738  10.6280  10.8866
    13.9918  14.1042  14.4308  14.6751  14.8935  15.1429  16.6532  16.8636
    18.0905  18.5736  19.5798

     occupation numbers 
     1.0000   1.0000   1.0000   1.0000   1.0000   1.0000   1.0000   1.0000
     1.0000   1.0000   1.0000   1.0000   1.0000   1.0000   1.0000   1.0000
     1.0000   1.0000   1.0000   1.0000   1.0000   1.0000   1.0000   1.0000
     1.0000   1.0000   1.0000   1.0000   1.0000   1.0000   1.0000   1.0000
     1.0000   1.0000   1.0000   1.0000   1.0000   1.0000   1.0000   1.0000
     1.0000   1.0000   1.0000   1.0000   1.0000   1.0000   1.0000   1.0000
     1.0000   1.0000   1.0000   1.0000   1.0000   1.0000   1.0000   1.0000
     0.0000   0.0000   0.0000   0.0000   0.0000   0.0000   0.0000   0.0000
     0.0000   0.0000   0.0000

          k = 0.4169 0.3337-0.2251 ( 18035 PWs)   bands (ev):

   -90.1660 -83.6668 -63.4604 -63.4499 -50.6375 -50.6214 -50.6086 -47.7562
   -47.0469 -46.7436 -27.8793 -27.8208 -27.7154 -27.6843 -27.6602 -27.6477
    -6.9847  -6.8386  -6.4173  -6.2364  -5.9356  -5.8426  -5.6097  -5.5351
     3.8460   4.0943   4.2359   4.6439   4.8399   4.9834   5.1974   5.4538
     6.0357   6.2264   6.3349   6.6300   6.9789   7.0734   7.1930   7.4541
     7.6850   7.7896   8.0154   8.2184   8.5122   8.6765   8.7630   9.0398
     9.3236   9.3768   9.6737   9.8130  10.1119  10.4830  10.6987  10.8740
    13.8944  14.1969  14.5018  14.6473  14.8676  15.3213  16.6331  16.8529
    18.0904  18.9322  19.3316

     occupation numbers 
     1.0000   1.0000   1.0000   1.0000   1.0000   1.0000   1.0000   1.0000
     1.0000   1.0000   1.0000   1.0000   1.0000   1.0000   1.0000   1.0000
     1.0000   1.0000   1.0000   1.0000   1.0000   1.0000   1.0000   1.0000
     1.0000   1.0000   1.0000   1.0000   1.0000   1.0000   1.0000   1.0000
     1.0000   1.0000   1.0000   1.0000   1.0000   1.0000   1.0000   1.0000
     1.0000   1.0000   1.0000   1.0000   1.0000   1.0000   1.0000   1.0000
     1.0000   1.0000   1.0000   1.0000   1.0000   1.0000   1.0000   1.0000
     0.0000   0.0000   0.0000   0.0000   0.0000   0.0000   0.0000   0.0000
     0.0000   0.0000   0.0000

          k = 0.4168 0.3337-0.0743 ( 18027 PWs)   bands (ev):

   -90.1659 -83.6668 -63.4620 -63.4482 -50.6375 -50.6214 -50.6086 -47.7563
   -47.0469 -46.7436 -27.8820 -27.7993 -27.7210 -27.6847 -27.6660 -27.6541
    -7.1138  -6.8252  -6.4806  -6.1586  -5.9685  -5.7619  -5.6460  -5.4447
     3.8264   3.9993   4.2563   4.7200   4.9019   4.9368   5.1634   5.7306
     6.1257   6.2518   6.4614   6.6125   6.9718   7.0776   7.2192   7.5307
     7.5989   7.6630   7.8363   8.0796   8.4261   8.5327   8.6987   8.9552
     9.1851   9.4951   9.7511  10.0022  10.1740  10.5273  10.7002  10.7781
    13.9041  14.2853  14.3960  14.5542  14.9456  15.4088  16.6253  16.8164
    18.2829  19.2024  19.3126

     occupation numbers 
     1.0000   1.0000   1.0000   1.0000   1.0000   1.0000   1.0000   1.0000
     1.0000   1.0000   1.0000   1.0000   1.0000   1.0000   1.0000   1.0000
     1.0000   1.0000   1.0000   1.0000   1.0000   1.0000   1.0000   1.0000
     1.0000   1.0000   1.0000   1.0000   1.0000   1.0000   1.0000   1.0000
     1.0000   1.0000   1.0000   1.0000   1.0000   1.0000   1.0000   1.0000
     1.0000   1.0000   1.0000   1.0000   1.0000   1.0000   1.0000   1.0000
     1.0000   1.0000   1.0000   1.0000   1.0000   1.0000   1.0000   1.0000
     0.0000   0.0000   0.0000   0.0000   0.0000   0.0000   0.0000   0.0000
     0.0000   0.0000   0.0000

     the Fermi energy is    12.5783 ev

!    total energy              =   -1207.98028730 Ry
     estimated scf accuracy    <          8.7E-10 Ry
     smearing contrib. (-TS)   =       0.00000000 Ry
     internal energy E=F+TS    =   -1207.98028730 Ry

     The total energy is F=E-TS. E is the sum of the following terms:
     one-electron contribution =    -541.90445100 Ry
     hartree contribution      =     333.97850265 Ry
     xc contribution           =    -230.00254490 Ry
     ewald contribution        =    -770.22424288 Ry
     Hubbard energy            =       0.17244884 Ry

     total magnetization       =    -1.00 Bohr mag/cell
     absolute magnetization    =     4.83 Bohr mag/cell

     convergence has been achieved in  23 iterations

     Writing all to output data dir ./tmp/NiCoWO4_AFM/NiCoWO4_AFM.save/ :
     XML data file, charge density, pseudopotentials, collected wavefunctions
 
     init_run     :      5.45s CPU      5.57s WALL (       1 calls)
     electrons    :    330.60s CPU    333.56s WALL (       1 calls)

     Called by init_run:
     wfcinit      :      5.37s CPU      5.47s WALL (       1 calls)
     wfcinit:atom :      0.03s CPU      0.03s WALL (     108 calls)
     wfcinit:wfcr :      4.27s CPU      4.35s WALL (     108 calls)
     potinit      :      0.02s CPU      0.02s WALL (       1 calls)
     hinit0       :      0.02s CPU      0.03s WALL (       1 calls)

     Called by electrons:
     c_bands      :    295.07s CPU    297.52s WALL (      23 calls)
     sum_band     :     34.82s CPU     35.23s WALL (      23 calls)
     v_of_rho     :      0.30s CPU      0.31s WALL (      24 calls)
     v_h          :      0.01s CPU      0.01s WALL (      24 calls)
     v_xc         :      0.29s CPU      0.30s WALL (      24 calls)
     mix_rho      :      0.40s CPU      0.41s WALL (      23 calls)

     Called by c_bands:
     init_us_2    :      3.54s CPU      3.61s WALL (    5184 calls)
     cegterg      :    272.63s CPU    274.85s WALL (    2484 calls)

     Called by sum_band:
     sum_band:wei :      0.07s CPU      0.07s WALL (      23 calls)
     sum_band:loo :     32.91s CPU     33.24s WALL (      23 calls)
     sum_band:buf :      0.27s CPU      0.27s WALL (    2484 calls)
     sum_band:ini :      1.64s CPU      1.65s WALL (    2484 calls)

     Called by *egterg:
     cdiaghg      :     34.58s CPU     34.72s WALL (   10937 calls)
     cegterg:over :     14.99s CPU     15.07s WALL (    8453 calls)
     cegterg:upda :      7.09s CPU      7.13s WALL (    8453 calls)
     cegterg:last :     13.13s CPU     13.20s WALL (    5108 calls)
     h_psi        :    195.34s CPU    197.25s WALL (   11045 calls)
     g_psi        :      0.64s CPU      0.64s WALL (    8453 calls)

     Called by h_psi:
     h_psi:calbec :     20.55s CPU     20.70s WALL (   11045 calls)
     vloc_psi     :    145.61s CPU    147.22s WALL (   11045 calls)
     add_vuspsi   :     18.59s CPU     18.69s WALL (   11045 calls)
     vhpsi        :     10.09s CPU     10.14s WALL (   11045 calls)

     General routines
     calbec       :     31.30s CPU     31.54s WALL (   24682 calls)
     fft          :      0.15s CPU      0.16s WALL (     454 calls)
     ffts         :      0.24s CPU      0.24s WALL (     732 calls)
     fftw         :    165.30s CPU    167.09s WALL ( 1012254 calls)
 
     Parallel routines

     Hubbard U routines
     new_ns       :      1.78s CPU      1.85s WALL (      23 calls)
     vhpsi        :     10.09s CPU     10.14s WALL (   11045 calls)
 
     PWSCF        :   5m36.90s CPU   5m43.82s WALL

 
   This run was terminated on:   6:42:11  19Nov2025            

=------------------------------------------------------------------------------=
   JOB DONE.
=------------------------------------------------------------------------------=
