
     Program PWSCF v.7.4.1 starts on 15Oct2025 at 14:13:43 
        Git branch: heads/qe-7.4.1
        Last git commit: 500de340b820e1cb8c05f2d8bb8fced102f377c1-dirty
        Last git commit date: Fri Feb 7 14:59:05 2025 +0000
        Last git commit subject: Merge branch 'qe-7.4.1' into 'master'

     This program is part of the open-source Quantum ESPRESSO suite
     for quantum simulation of materials; please cite
         "P. Giannozzi et al., J. Phys.:Condens. Matter 21 395502 (2009);
         "P. Giannozzi et al., J. Phys.:Condens. Matter 29 465901 (2017);
         "P. Giannozzi et al., J. Chem. Phys. 152 154105 (2020);
          URL http://www.quantum-espresso.org", 
     in publications or presentations arising from this work. More details at
     http://www.quantum-espresso.org/quote

     Parallel version (MPI), running on    16 processors

     MPI processes distributed on     1 nodes
     541580 MiB available memory on the printing compute node when the environment starts
 
     Reading input from inputs/scf.MnWO4.in

     Current dimensions of program PWSCF are:
     Max number of different atomic species (ntypx) = 10
     Max number of k-points (npk) =  40000
     Max angular momentum in pseudopotentials (lmaxx) =  4
     Message from routine setup:
     using ibrav=0 with symmetry is DISCOURAGED, use correct ibrav instead
 
     R & G space division:  proc/nbgrp/npool/nimage =      16
     Subspace diagonalization in iterative solution of the eigenvalue problem:
     a serial algorithm will be used

 
     Parallelization info
     --------------------
     sticks:   dense  smooth     PW     G-vecs:    dense   smooth      PW
     Min         234     234     63                10297    10297    1459
     Max         235     235     64                10301    10301    1464
     Sum        3749    3749   1023               164775   164775   23395
 
     Using Slab Decomposition
 


     bravais-lattice index     =            0
     lattice parameter (alat)  =       9.0375  a.u.
     unit-cell volume          =     928.1789 (a.u.)^3
     number of atoms/cell      =           12
     number of atomic types    =            3
     number of electrons       =       106.00
     number of Kohn-Sham states=           64
     kinetic-energy cutoff     =     120.0000  Ry
     charge density cutoff     =     480.0000  Ry
     scf convergence threshold =      1.0E-09
     mixing beta               =       0.7000
     number of iterations used =            8  local-TF  mixing
     Exchange-correlation= PBESOL
                           (   1   4  10   8   0   0   0)
     Hubbard projectors: ortho-atomic
     Hubbard parameters of DFT+U (Dudarev formulation) in eV:
     U(Mn1-3d) =  4.6500

     Internal variables: lda_plus_u = T, lda_plus_u_kind = 0

     celldm(1)=   9.037542  celldm(2)=   0.000000  celldm(3)=   0.000000
     celldm(4)=   0.000000  celldm(5)=   0.000000  celldm(6)=   0.000000

     crystal axes: (cart. coord. in units of alat)
               a(1) = (   1.000000   0.000000   0.000000 )  
               a(2) = (   0.000000   1.202498   0.000000 )  
               a(3) = (  -0.019608   0.000000   1.045674 )  

     reciprocal axes: (cart. coord. in units 2 pi/alat)
               b(1) = (  1.000000  0.000000  0.018751 )  
               b(2) = (  0.000000  0.831603  0.000000 )  
               b(3) = (  0.000000  0.000000  0.956321 )  


     PseudoPot. # 1 for Mn read from file:
     pseudo_dojo_pbesol/Mn.upf
     MD5 check sum: ef44e22c4884c1dd3870421f9f7ffd72
     Pseudo is Norm-conserving + core correction, Zval = 15.0
     Generated using ONCVPSP code by D. R. Hamann
     Using radial grid of 1448 points,  6 beta functions with: 
                l(1) =   0
                l(2) =   0
                l(3) =   1
                l(4) =   1
                l(5) =   2
                l(6) =   2

     PseudoPot. # 2 for W  read from file:
     pseudo_dojo_pbesol/W.upf
     MD5 check sum: b5ac44390825a9169ccdba7091ec60d0
     Pseudo is Norm-conserving + core correction, Zval = 14.0
     Generated using ONCVPSP code by D. R. Hamann
     Using radial grid of 1396 points,  8 beta functions with: 
                l(1) =   0
                l(2) =   0
                l(3) =   1
                l(4) =   1
                l(5) =   2
                l(6) =   2
                l(7) =   3
                l(8) =   3

     PseudoPot. # 3 for O  read from file:
     pseudo_dojo_pbesol/O.upf
     MD5 check sum: f226cbcd508cec715ff87a8f75a1dfba
     Pseudo is Norm-conserving + core correction, Zval =  6.0
     Generated using ONCVPSP code by D. R. Hamann
     Using radial grid of  936 points,  5 beta functions with: 
                l(1) =   0
                l(2) =   0
                l(3) =   1
                l(4) =   1
                l(5) =   2

     atomic species   valence    mass     pseudopotential
     Mn1              15.00    54.93805     Mn( 1.00)
     W                14.00   183.84000     W ( 1.00)
     O                 6.00    15.99940     O ( 1.00)

     Starting magnetic structure 
     atomic species   magnetization
     Mn1             0.200
     W               0.000
     O               0.000

      4 Sym. Ops., with inversion, found ( 2 have fractional translation)


                                    s                        frac. trans.

      isym =  1     identity                                     

 cryst.   s( 1) = (     1          0          0      )
                  (     0          1          0      )
                  (     0          0          1      )

 cart.    s( 1) = (  1.0000000  0.0000000  0.0000000 )
                  (  0.0000000  1.0000000  0.0000000 )
                  (  0.0000000  0.0000000  1.0000000 )


      isym =  2     180 deg rotation - cart. axis [0,1,0]        

 cryst.   s( 2) = (    -1          0          0      )    f =(  0.0000000 )
                  (     0          1          0      )       (  0.0000000 )
                  (     0          0         -1      )       (  0.5000000 )

 cart.    s( 2) = ( -1.0000000  0.0000000 -0.0000000 )    f =( -0.0098038 )
                  (  0.0000000  1.0000000  0.0000000 )       (  0.0000000 )
                  (  0.0000000  0.0000000 -1.0000000 )       (  0.5228372 )


      isym =  3     inversion                                    

 cryst.   s( 3) = (    -1          0          0      )
                  (     0         -1          0      )
                  (     0          0         -1      )

 cart.    s( 3) = ( -1.0000000  0.0000000 -0.0000000 )
                  (  0.0000000 -1.0000000  0.0000000 )
                  (  0.0000000  0.0000000 -1.0000000 )


      isym =  4     inv. 180 deg rotation - cart. axis [0,1,0]   

 cryst.   s( 4) = (     1          0          0      )    f =(  0.0000000 )
                  (     0         -1          0      )       (  0.0000000 )
                  (     0          0          1      )       (  0.5000000 )

 cart.    s( 4) = (  1.0000000  0.0000000  0.0000000 )    f =( -0.0098038 )
                  (  0.0000000 -1.0000000  0.0000000 )       (  0.0000000 )
                  (  0.0000000  0.0000000  1.0000000 )       (  0.5228372 )


   Cartesian axes

     site n.     atom                  positions (alat units)
         1        Mn1    tau(   1) = (   0.4852942   0.8146962   0.7842558  )
         2        Mn1    tau(   2) = (   0.4950981   0.3878013   0.2614186  )
         3        W      tau(   3) = (  -0.0147058   0.2149270   0.7842558  )
         4        W      tau(   4) = (  -0.0049019   0.9875706   0.2614186  )
         5        O      tau(   5) = (   0.2373027   0.4507823   0.9380950  )
         6        O      tau(   6) = (   0.7332858   0.4507823   0.6304166  )
         7        O      tau(   7) = (   0.7430896   0.7517152   0.1075794  )
         8        O      tau(   8) = (   0.2471065   0.7517152   0.4152578  )
         9        O      tau(   9) = (   0.1945439   1.0762461   0.9822531  )
        10        O      tau(  10) = (   0.7760446   1.0762461   0.5862585  )
        11        O      tau(  11) = (   0.7858485   0.1262514   0.0634213  )
        12        O      tau(  12) = (   0.2043477   0.1262514   0.4594159  )

   Crystallographic axes

     site n.     atom                  positions (cryst. coord.)
         1        Mn1    tau(   1) = (  0.5000000  0.6775034  0.7500000  )
         2        Mn1    tau(   2) = (  0.5000000  0.3224966  0.2500000  )
         3        W      tau(   3) = (  0.0000000  0.1787338  0.7500000  )
         4        W      tau(   4) = (  0.0000000  0.8212662  0.2500000  )
         5        O      tau(   5) = (  0.2548931  0.3748717  0.8971196  )
         6        O      tau(   6) = (  0.7451069  0.3748717  0.6028804  )
         7        O      tau(   7) = (  0.7451069  0.6251283  0.1028804  )
         8        O      tau(   8) = (  0.2548931  0.6251283  0.3971196  )
         9        O      tau(   9) = (  0.2129623  0.8950090  0.9393489  )
        10        O      tau(  10) = (  0.7870377  0.8950090  0.5606511  )
        11        O      tau(  11) = (  0.7870377  0.1049910  0.0606511  )
        12        O      tau(  12) = (  0.2129623  0.1049910  0.4393489  )

     number of k points=    54  Marzari-Vanderbilt smearing, width (Ry)=  0.0200
                       cart. coord. in units 2pi/alat
        k(    1) = (   0.0833333   0.0693002   0.0812560), wk =   0.0185185
        k(    2) = (   0.0833333   0.0693002   0.2406428), wk =   0.0185185
        k(    3) = (   0.0833333   0.0693002   0.4000295), wk =   0.0185185
        k(    4) = (   0.0833333   0.0693002  -0.3969043), wk =   0.0185185
        k(    5) = (   0.0833333   0.0693002  -0.2375175), wk =   0.0185185
        k(    6) = (   0.0833333   0.0693002  -0.0781308), wk =   0.0185185
        k(    7) = (   0.0833333   0.2079006   0.0812560), wk =   0.0185185
        k(    8) = (   0.0833333   0.2079006   0.2406428), wk =   0.0185185
        k(    9) = (   0.0833333   0.2079006   0.4000295), wk =   0.0185185
        k(   10) = (   0.0833333   0.2079006  -0.3969043), wk =   0.0185185
        k(   11) = (   0.0833333   0.2079006  -0.2375175), wk =   0.0185185
        k(   12) = (   0.0833333   0.2079006  -0.0781308), wk =   0.0185185
        k(   13) = (   0.0833333   0.3465011   0.0812560), wk =   0.0185185
        k(   14) = (   0.0833333   0.3465011   0.2406428), wk =   0.0185185
        k(   15) = (   0.0833333   0.3465011   0.4000295), wk =   0.0185185
        k(   16) = (   0.0833333   0.3465011  -0.3969043), wk =   0.0185185
        k(   17) = (   0.0833333   0.3465011  -0.2375175), wk =   0.0185185
        k(   18) = (   0.0833333   0.3465011  -0.0781308), wk =   0.0185185
        k(   19) = (   0.2500000   0.0693002   0.0843812), wk =   0.0185185
        k(   20) = (   0.2500000   0.0693002   0.2437680), wk =   0.0185185
        k(   21) = (   0.2500000   0.0693002   0.4031547), wk =   0.0185185
        k(   22) = (   0.2500000   0.0693002  -0.3937791), wk =   0.0185185
        k(   23) = (   0.2500000   0.0693002  -0.2343923), wk =   0.0185185
        k(   24) = (   0.2500000   0.0693002  -0.0750056), wk =   0.0185185
        k(   25) = (   0.2500000   0.2079006   0.0843812), wk =   0.0185185
        k(   26) = (   0.2500000   0.2079006   0.2437680), wk =   0.0185185
        k(   27) = (   0.2500000   0.2079006   0.4031547), wk =   0.0185185
        k(   28) = (   0.2500000   0.2079006  -0.3937791), wk =   0.0185185
        k(   29) = (   0.2500000   0.2079006  -0.2343923), wk =   0.0185185
        k(   30) = (   0.2500000   0.2079006  -0.0750056), wk =   0.0185185
        k(   31) = (   0.2500000   0.3465011   0.0843812), wk =   0.0185185
        k(   32) = (   0.2500000   0.3465011   0.2437680), wk =   0.0185185
        k(   33) = (   0.2500000   0.3465011   0.4031547), wk =   0.0185185
        k(   34) = (   0.2500000   0.3465011  -0.3937791), wk =   0.0185185
        k(   35) = (   0.2500000   0.3465011  -0.2343923), wk =   0.0185185
        k(   36) = (   0.2500000   0.3465011  -0.0750056), wk =   0.0185185
        k(   37) = (   0.4166667   0.0693002   0.0875064), wk =   0.0185185
        k(   38) = (   0.4166667   0.0693002   0.2468932), wk =   0.0185185
        k(   39) = (   0.4166667   0.0693002   0.4062799), wk =   0.0185185
        k(   40) = (   0.4166667   0.0693002  -0.3906539), wk =   0.0185185
        k(   41) = (   0.4166667   0.0693002  -0.2312671), wk =   0.0185185
        k(   42) = (   0.4166667   0.0693002  -0.0718804), wk =   0.0185185
        k(   43) = (   0.4166667   0.2079006   0.0875064), wk =   0.0185185
        k(   44) = (   0.4166667   0.2079006   0.2468932), wk =   0.0185185
        k(   45) = (   0.4166667   0.2079006   0.4062799), wk =   0.0185185
        k(   46) = (   0.4166667   0.2079006  -0.3906539), wk =   0.0185185
        k(   47) = (   0.4166667   0.2079006  -0.2312671), wk =   0.0185185
        k(   48) = (   0.4166667   0.2079006  -0.0718804), wk =   0.0185185
        k(   49) = (   0.4166667   0.3465011   0.0875064), wk =   0.0185185
        k(   50) = (   0.4166667   0.3465011   0.2468932), wk =   0.0185185
        k(   51) = (   0.4166667   0.3465011   0.4062799), wk =   0.0185185
        k(   52) = (   0.4166667   0.3465011  -0.3906539), wk =   0.0185185
        k(   53) = (   0.4166667   0.3465011  -0.2312671), wk =   0.0185185
        k(   54) = (   0.4166667   0.3465011  -0.0718804), wk =   0.0185185

                       cryst. coord.
        k(    1) = (   0.0833333   0.0833333   0.0833333), wk =   0.0185185
        k(    2) = (   0.0833333   0.0833333   0.2500000), wk =   0.0185185
        k(    3) = (   0.0833333   0.0833333   0.4166667), wk =   0.0185185
        k(    4) = (   0.0833333   0.0833333  -0.4166667), wk =   0.0185185
        k(    5) = (   0.0833333   0.0833333  -0.2500000), wk =   0.0185185
        k(    6) = (   0.0833333   0.0833333  -0.0833333), wk =   0.0185185
        k(    7) = (   0.0833333   0.2500000   0.0833333), wk =   0.0185185
        k(    8) = (   0.0833333   0.2500000   0.2500000), wk =   0.0185185
        k(    9) = (   0.0833333   0.2500000   0.4166667), wk =   0.0185185
        k(   10) = (   0.0833333   0.2500000  -0.4166667), wk =   0.0185185
        k(   11) = (   0.0833333   0.2500000  -0.2500000), wk =   0.0185185
        k(   12) = (   0.0833333   0.2500000  -0.0833333), wk =   0.0185185
        k(   13) = (   0.0833333   0.4166667   0.0833333), wk =   0.0185185
        k(   14) = (   0.0833333   0.4166667   0.2500000), wk =   0.0185185
        k(   15) = (   0.0833333   0.4166667   0.4166667), wk =   0.0185185
        k(   16) = (   0.0833333   0.4166667  -0.4166667), wk =   0.0185185
        k(   17) = (   0.0833333   0.4166667  -0.2500000), wk =   0.0185185
        k(   18) = (   0.0833333   0.4166667  -0.0833333), wk =   0.0185185
        k(   19) = (   0.2500000   0.0833333   0.0833333), wk =   0.0185185
        k(   20) = (   0.2500000   0.0833333   0.2500000), wk =   0.0185185
        k(   21) = (   0.2500000   0.0833333   0.4166667), wk =   0.0185185
        k(   22) = (   0.2500000   0.0833333  -0.4166667), wk =   0.0185185
        k(   23) = (   0.2500000   0.0833333  -0.2500000), wk =   0.0185185
        k(   24) = (   0.2500000   0.0833333  -0.0833333), wk =   0.0185185
        k(   25) = (   0.2500000   0.2500000   0.0833333), wk =   0.0185185
        k(   26) = (   0.2500000   0.2500000   0.2500000), wk =   0.0185185
        k(   27) = (   0.2500000   0.2500000   0.4166667), wk =   0.0185185
        k(   28) = (   0.2500000   0.2500000  -0.4166667), wk =   0.0185185
        k(   29) = (   0.2500000   0.2500000  -0.2500000), wk =   0.0185185
        k(   30) = (   0.2500000   0.2500000  -0.0833333), wk =   0.0185185
        k(   31) = (   0.2500000   0.4166667   0.0833333), wk =   0.0185185
        k(   32) = (   0.2500000   0.4166667   0.2500000), wk =   0.0185185
        k(   33) = (   0.2500000   0.4166667   0.4166667), wk =   0.0185185
        k(   34) = (   0.2500000   0.4166667  -0.4166667), wk =   0.0185185
        k(   35) = (   0.2500000   0.4166667  -0.2500000), wk =   0.0185185
        k(   36) = (   0.2500000   0.4166667  -0.0833333), wk =   0.0185185
        k(   37) = (   0.4166667   0.0833333   0.0833333), wk =   0.0185185
        k(   38) = (   0.4166667   0.0833333   0.2500000), wk =   0.0185185
        k(   39) = (   0.4166667   0.0833333   0.4166667), wk =   0.0185185
        k(   40) = (   0.4166667   0.0833333  -0.4166667), wk =   0.0185185
        k(   41) = (   0.4166667   0.0833333  -0.2500000), wk =   0.0185185
        k(   42) = (   0.4166667   0.0833333  -0.0833333), wk =   0.0185185
        k(   43) = (   0.4166667   0.2500000   0.0833333), wk =   0.0185185
        k(   44) = (   0.4166667   0.2500000   0.2500000), wk =   0.0185185
        k(   45) = (   0.4166667   0.2500000   0.4166667), wk =   0.0185185
        k(   46) = (   0.4166667   0.2500000  -0.4166667), wk =   0.0185185
        k(   47) = (   0.4166667   0.2500000  -0.2500000), wk =   0.0185185
        k(   48) = (   0.4166667   0.2500000  -0.0833333), wk =   0.0185185
        k(   49) = (   0.4166667   0.4166667   0.0833333), wk =   0.0185185
        k(   50) = (   0.4166667   0.4166667   0.2500000), wk =   0.0185185
        k(   51) = (   0.4166667   0.4166667   0.4166667), wk =   0.0185185
        k(   52) = (   0.4166667   0.4166667  -0.4166667), wk =   0.0185185
        k(   53) = (   0.4166667   0.4166667  -0.2500000), wk =   0.0185185
        k(   54) = (   0.4166667   0.4166667  -0.0833333), wk =   0.0185185

     Dense  grid:   164775 G-vectors     FFT dimensions: (  64,  75,  72)

     Dynamical RAM for                 wfc:       1.26 MB

     Dynamical RAM for     wfc (w. buffer):     137.00 MB

     Dynamical RAM for             U proj.:       0.20 MB

     Dynamical RAM for  U proj. (w. buff.):      21.41 MB

     Dynamical RAM for           str. fact:       0.47 MB

     Dynamical RAM for           local pot:       0.00 MB

     Dynamical RAM for          nlocal pot:       4.01 MB

     Dynamical RAM for                qrad:      12.65 MB

     Dynamical RAM for          rho,v,vnew:       2.04 MB

     Dynamical RAM for               rhoin:       0.68 MB

     Dynamical RAM for            rho*nmix:       5.03 MB

     Dynamical RAM for           G-vectors:       0.67 MB

     Dynamical RAM for          h,s,v(r/c):       0.75 MB

     Dynamical RAM for          <psi|beta>:       0.20 MB

     Dynamical RAM for                 psi:       2.51 MB

     Dynamical RAM for                hpsi:       2.51 MB

     Dynamical RAM for      wfcinit/wfcrot:       2.61 MB

     Estimated static dynamical RAM per process >     180.65 MB

     Estimated max dynamical RAM per process >     191.66 MB

     Estimated total dynamical RAM >       2.99 GB
     Generating pointlists ...
     new r_m :   0.1808 (alat units)  1.6341 (a.u.) for type    1
     new r_m :   0.1559 (alat units)  1.4088 (a.u.) for type    2
     new r_m :   0.1559 (alat units)  1.4088 (a.u.) for type    3

     Initial potential from superposition of free atoms

     starting charge     105.9981, renormalised to     106.0000

     HUBBARD ENERGY =    0.0000  (Ry)

     STARTING HUBBARD OCCUPATIONS:

     =================== HUBBARD OCCUPATIONS ===================
     ------------------------ ATOM    1 ------------------------
     Tr[ns(  1)] (up, down, total) =   5.00000  0.00000  5.00000
     Atomic magnetic moment for atom   1 =   5.00000
     SPIN  1
     eigenvalues:
       1.000  1.000  1.000  1.000  1.000
     eigenvectors (columns):
       1.000  0.000  0.000  0.000  0.000
       0.000  1.000  0.000  0.000  0.000
       0.000  0.000  1.000  0.000  0.000
       0.000  0.000  0.000  1.000  0.000
       0.000  0.000  0.000  0.000  1.000
     occupation matrix ns (before diag.):
       1.000  0.000  0.000  0.000  0.000
       0.000  1.000  0.000  0.000  0.000
       0.000  0.000  1.000  0.000  0.000
       0.000  0.000  0.000  1.000  0.000
       0.000  0.000  0.000  0.000  1.000
     SPIN  2
     eigenvalues:
       0.000  0.000  0.000  0.000  0.000
     eigenvectors (columns):
       1.000  0.000  0.000  0.000  0.000
       0.000  1.000  0.000  0.000  0.000
       0.000  0.000  1.000  0.000  0.000
       0.000  0.000  0.000  1.000  0.000
       0.000  0.000  0.000  0.000  1.000
     occupation matrix ns (before diag.):
       0.000  0.000  0.000  0.000  0.000
       0.000  0.000  0.000  0.000  0.000
       0.000  0.000  0.000  0.000  0.000
       0.000  0.000  0.000  0.000  0.000
       0.000  0.000  0.000  0.000  0.000
     ------------------------ ATOM    2 ------------------------
     Tr[ns(  2)] (up, down, total) =   5.00000  0.00000  5.00000
     Atomic magnetic moment for atom   2 =   5.00000
     SPIN  1
     eigenvalues:
       1.000  1.000  1.000  1.000  1.000
     eigenvectors (columns):
       1.000  0.000  0.000  0.000  0.000
       0.000  1.000  0.000  0.000  0.000
       0.000  0.000  1.000  0.000  0.000
       0.000  0.000  0.000  1.000  0.000
       0.000  0.000  0.000  0.000  1.000
     occupation matrix ns (before diag.):
       1.000  0.000  0.000  0.000  0.000
       0.000  1.000  0.000  0.000  0.000
       0.000  0.000  1.000  0.000  0.000
       0.000  0.000  0.000  1.000  0.000
       0.000  0.000  0.000  0.000  1.000
     SPIN  2
     eigenvalues:
       0.000  0.000  0.000  0.000  0.000
     eigenvectors (columns):
       1.000  0.000  0.000  0.000  0.000
       0.000  1.000  0.000  0.000  0.000
       0.000  0.000  1.000  0.000  0.000
       0.000  0.000  0.000  1.000  0.000
       0.000  0.000  0.000  0.000  1.000
     occupation matrix ns (before diag.):
       0.000  0.000  0.000  0.000  0.000
       0.000  0.000  0.000  0.000  0.000
       0.000  0.000  0.000  0.000  0.000
       0.000  0.000  0.000  0.000  0.000
       0.000  0.000  0.000  0.000  0.000

     Number of occupied Hubbard levels =   10.0000

     Atomic wfc used for Hubbard projectors are orthogonalized

     Starting wfcs are   72 randomized atomic wfcs

     total cpu time spent up to now is        6.3 secs

     per-process dynamical memory:   238.8 Mb

     Self-consistent Calculation

     iteration #  1     ecut=   120.00 Ry     beta= 0.70
     Davidson diagonalization with overlap

---- Real-time Memory Report at c_bands before calling an iterative solver
           266 MiB given to the printing process from OS
           233 MiB allocation reported by mallinfo(arena+hblkhd)
        538480 MiB available memory on the node where the printing process lives
------------------
     ethr =  1.00E-02,  avg # of iterations =  2.0

     =================== HUBBARD OCCUPATIONS ===================
     ------------------------ ATOM    1 ------------------------
     Tr[ns(  1)] (up, down, total) =   4.96895  0.19775  5.16669
     Atomic magnetic moment for atom   1 =   4.77120
     SPIN  1
     eigenvalues:
       0.989  0.989  0.997  0.997  0.998
     eigenvectors (columns):
       0.594 -0.000  0.695  0.000  0.405
      -0.775 -0.000  0.629  0.000  0.058
      -0.000  0.520  0.000 -0.854 -0.000
       0.214  0.000  0.348  0.000 -0.913
      -0.000  0.854 -0.000  0.520  0.000
     occupation matrix ns (before diag.):
       0.994  0.004 -0.000 -0.001  0.000
       0.004  0.992 -0.000  0.001  0.000
      -0.000 -0.000  0.995  0.000 -0.004
      -0.001  0.001  0.000  0.997 -0.000
       0.000  0.000 -0.004 -0.000  0.991
     SPIN  2
     eigenvalues:
       0.019  0.019  0.021  0.066  0.072
     eigenvectors (columns):
      -0.000 -0.845  0.058  0.000  0.532
      -0.000 -0.501  0.260  0.000 -0.825
      -0.834  0.000  0.000  0.552  0.000
       0.000  0.186  0.964 -0.000  0.191
       0.552 -0.000 -0.000  0.834 -0.000
     occupation matrix ns (before diag.):
       0.034 -0.023  0.000  0.005  0.000
      -0.023  0.056 -0.000 -0.008  0.000
       0.000 -0.000  0.033 -0.000  0.021
       0.005 -0.008 -0.000  0.023 -0.000
       0.000  0.000  0.021 -0.000  0.051
     ------------------------ ATOM    2 ------------------------
     Tr[ns(  2)] (up, down, total) =   4.96895  0.19775  5.16669
     Atomic magnetic moment for atom   2 =   4.77120
     SPIN  1
     eigenvalues:
       0.989  0.989  0.997  0.997  0.998
     eigenvectors (columns):
       0.594 -0.000  0.695  0.000  0.405
      -0.775 -0.000  0.629  0.000  0.058
      -0.000  0.520  0.000 -0.854 -0.000
       0.214  0.000  0.348  0.000 -0.913
      -0.000  0.854 -0.000  0.520  0.000
     occupation matrix ns (before diag.):
       0.994  0.004 -0.000 -0.001  0.000
       0.004  0.992 -0.000  0.001  0.000
      -0.000 -0.000  0.995  0.000 -0.004
      -0.001  0.001  0.000  0.997 -0.000
       0.000  0.000 -0.004 -0.000  0.991
     SPIN  2
     eigenvalues:
       0.019  0.019  0.021  0.066  0.072
     eigenvectors (columns):
      -0.000 -0.845  0.058  0.000  0.532
      -0.000 -0.501  0.260  0.000 -0.825
      -0.834  0.000  0.000  0.552  0.000
       0.000  0.186  0.964 -0.000  0.191
       0.552 -0.000 -0.000  0.834 -0.000
     occupation matrix ns (before diag.):
       0.034 -0.023  0.000  0.005  0.000
      -0.023  0.056 -0.000 -0.008  0.000
       0.000 -0.000  0.033 -0.000  0.021
       0.005 -0.008 -0.000  0.023 -0.000
       0.000  0.000  0.021 -0.000  0.051

     Number of occupied Hubbard levels =   10.3334

     HUBBARD ENERGY =    0.0744  (Ry)

     total cpu time spent up to now is       21.1 secs

     total energy              =   -1001.69503782 Ry
     estimated scf accuracy    <       4.56308758 Ry

     total magnetization       =    10.00 Bohr mag/cell
     absolute magnetization    =    10.00 Bohr mag/cell

     iteration #  2     ecut=   120.00 Ry     beta= 0.70
     Davidson diagonalization with overlap

---- Real-time Memory Report at c_bands before calling an iterative solver
           274 MiB given to the printing process from OS
           240 MiB allocation reported by mallinfo(arena+hblkhd)
        538369 MiB available memory on the node where the printing process lives
------------------
     ethr =  4.30E-03,  avg # of iterations =  2.0

     =================== HUBBARD OCCUPATIONS ===================
     ------------------------ ATOM    1 ------------------------
     Tr[ns(  1)] (up, down, total) =   4.94278  0.26185  5.20462
     Atomic magnetic moment for atom   1 =   4.68093
     SPIN  1
     eigenvalues:
       0.976  0.980  0.995  0.996  0.996
     eigenvectors (columns):
       0.567 -0.000 -0.816  0.000 -0.113
      -0.795 -0.000 -0.506  0.000 -0.334
      -0.000  0.492 -0.000 -0.870 -0.000
       0.215  0.000  0.279  0.000 -0.936
       0.000  0.870  0.000  0.492  0.000
     occupation matrix ns (before diag.):
       0.989  0.008 -0.000 -0.002  0.000
       0.008  0.983 -0.000  0.003  0.000
      -0.000 -0.000  0.992  0.000 -0.007
      -0.002  0.003  0.000  0.995 -0.000
       0.000  0.000 -0.007 -0.000  0.983
     SPIN  2
     eigenvalues:
       0.026  0.027  0.031  0.085  0.094
     eigenvectors (columns):
      -0.000 -0.843 -0.112  0.000  0.527
      -0.000 -0.538  0.156  0.000 -0.828
      -0.833  0.000  0.000  0.553  0.000
       0.000 -0.011  0.981 -0.000  0.191
       0.553 -0.000 -0.000  0.833 -0.000
     occupation matrix ns (before diag.):
       0.045 -0.029  0.000  0.006  0.000
      -0.029  0.073 -0.000 -0.010  0.000
       0.000 -0.000  0.044 -0.000  0.027
       0.006 -0.010 -0.000  0.033 -0.000
       0.000  0.000  0.027 -0.000  0.067
     ------------------------ ATOM    2 ------------------------
     Tr[ns(  2)] (up, down, total) =   4.94278  0.26185  5.20462
     Atomic magnetic moment for atom   2 =   4.68093
     SPIN  1
     eigenvalues:
       0.976  0.980  0.995  0.996  0.996
     eigenvectors (columns):
       0.567 -0.000 -0.816  0.000 -0.113
      -0.795 -0.000 -0.506  0.000 -0.334
      -0.000  0.492 -0.000 -0.870 -0.000
       0.215  0.000  0.279  0.000 -0.936
       0.000  0.870  0.000  0.492  0.000
     occupation matrix ns (before diag.):
       0.989  0.008 -0.000 -0.002  0.000
       0.008  0.983 -0.000  0.003  0.000
      -0.000 -0.000  0.992  0.000 -0.007
      -0.002  0.003  0.000  0.995 -0.000
       0.000  0.000 -0.007 -0.000  0.983
     SPIN  2
     eigenvalues:
       0.026  0.027  0.031  0.085  0.094
     eigenvectors (columns):
      -0.000 -0.843 -0.112  0.000  0.527
      -0.000 -0.538  0.156  0.000 -0.828
      -0.833  0.000  0.000  0.553  0.000
       0.000 -0.011  0.981 -0.000  0.191
       0.553 -0.000 -0.000  0.833 -0.000
     occupation matrix ns (before diag.):
       0.045 -0.029  0.000  0.006  0.000
      -0.029  0.073 -0.000 -0.010  0.000
       0.000 -0.000  0.044 -0.000  0.027
       0.006 -0.010 -0.000  0.033 -0.000
       0.000  0.000  0.027 -0.000  0.067

     Number of occupied Hubbard levels =   10.4092

     HUBBARD ENERGY =    0.0939  (Ry)

     total cpu time spent up to now is       36.0 secs

     total energy              =   -1002.53654277 Ry
     estimated scf accuracy    <       0.11499628 Ry

     total magnetization       =    10.00 Bohr mag/cell
     absolute magnetization    =    10.00 Bohr mag/cell

     iteration #  3     ecut=   120.00 Ry     beta= 0.70
     Davidson diagonalization with overlap

---- Real-time Memory Report at c_bands before calling an iterative solver
           275 MiB given to the printing process from OS
           240 MiB allocation reported by mallinfo(arena+hblkhd)
        538360 MiB available memory on the node where the printing process lives
------------------
     ethr =  1.08E-04,  avg # of iterations =  5.8

     =================== HUBBARD OCCUPATIONS ===================
     ------------------------ ATOM    1 ------------------------
     Tr[ns(  1)] (up, down, total) =   4.93892  0.24546  5.18438
     Atomic magnetic moment for atom   1 =   4.69346
     SPIN  1
     eigenvalues:
       0.975  0.978  0.995  0.995  0.996
     eigenvectors (columns):
       0.570 -0.000 -0.813  0.000 -0.114
      -0.794 -0.000 -0.510  0.000 -0.332
      -0.000  0.500 -0.000 -0.866 -0.000
       0.212  0.000  0.280  0.000 -0.936
       0.000  0.866  0.000  0.500  0.000
     occupation matrix ns (before diag.):
       0.988  0.009 -0.000 -0.002  0.000
       0.009  0.982 -0.000  0.004  0.000
      -0.000 -0.000  0.991  0.000 -0.008
      -0.002  0.004  0.000  0.995 -0.000
       0.000  0.000 -0.008 -0.000  0.982
     SPIN  2
     eigenvalues:
       0.024  0.025  0.028  0.081  0.088
     eigenvectors (columns):
      -0.000 -0.847 -0.063  0.000  0.528
      -0.000 -0.529  0.186  0.000 -0.828
      -0.831  0.000  0.000  0.556  0.000
       0.000  0.046  0.981 -0.000  0.191
       0.556 -0.000 -0.000  0.831 -0.000
     occupation matrix ns (before diag.):
       0.042 -0.028  0.000  0.006  0.000
      -0.028  0.068 -0.000 -0.009  0.000
       0.000 -0.000  0.041 -0.000  0.026
       0.006 -0.009 -0.000  0.030 -0.000
       0.000  0.000  0.026 -0.000  0.063
     ------------------------ ATOM    2 ------------------------
     Tr[ns(  2)] (up, down, total) =   4.93892  0.24546  5.18438
     Atomic magnetic moment for atom   2 =   4.69346
     SPIN  1
     eigenvalues:
       0.975  0.978  0.995  0.995  0.996
     eigenvectors (columns):
       0.570 -0.000 -0.813  0.000 -0.114
      -0.794 -0.000 -0.510  0.000 -0.332
      -0.000  0.500 -0.000 -0.866 -0.000
       0.212  0.000  0.280  0.000 -0.936
       0.000  0.866  0.000  0.500  0.000
     occupation matrix ns (before diag.):
       0.988  0.009 -0.000 -0.002  0.000
       0.009  0.982 -0.000  0.004  0.000
      -0.000 -0.000  0.991  0.000 -0.008
      -0.002  0.004  0.000  0.995 -0.000
       0.000  0.000 -0.008 -0.000  0.982
     SPIN  2
     eigenvalues:
       0.024  0.025  0.028  0.081  0.088
     eigenvectors (columns):
      -0.000 -0.847 -0.063  0.000  0.528
      -0.000 -0.529  0.186  0.000 -0.828
      -0.831  0.000  0.000  0.556  0.000
       0.000  0.046  0.981 -0.000  0.191
       0.556 -0.000 -0.000  0.831 -0.000
     occupation matrix ns (before diag.):
       0.042 -0.028  0.000  0.006  0.000
      -0.028  0.068 -0.000 -0.009  0.000
       0.000 -0.000  0.041 -0.000  0.026
       0.006 -0.009 -0.000  0.030 -0.000
       0.000  0.000  0.026 -0.000  0.063

     Number of occupied Hubbard levels =   10.3688

     HUBBARD ENERGY =    0.0974  (Ry)

     total cpu time spent up to now is       56.2 secs

     total energy              =   -1002.56811664 Ry
     estimated scf accuracy    <       0.02817818 Ry

     total magnetization       =    10.00 Bohr mag/cell
     absolute magnetization    =    10.01 Bohr mag/cell

     iteration #  4     ecut=   120.00 Ry     beta= 0.70
     Davidson diagonalization with overlap

---- Real-time Memory Report at c_bands before calling an iterative solver
           276 MiB given to the printing process from OS
           241 MiB allocation reported by mallinfo(arena+hblkhd)
        538348 MiB available memory on the node where the printing process lives
------------------
     ethr =  2.66E-05,  avg # of iterations =  4.9

     =================== HUBBARD OCCUPATIONS ===================
     ------------------------ ATOM    1 ------------------------
     Tr[ns(  1)] (up, down, total) =   4.94131  0.23580  5.17711
     Atomic magnetic moment for atom   1 =   4.70552
     SPIN  1
     eigenvalues:
       0.976  0.979  0.995  0.996  0.996
     eigenvectors (columns):
       0.572 -0.000 -0.818  0.000 -0.062
      -0.793 -0.000 -0.532  0.000 -0.298
      -0.000  0.503 -0.000 -0.864 -0.000
       0.211  0.000  0.220  0.000 -0.953
       0.000  0.864  0.000  0.503  0.000
     occupation matrix ns (before diag.):
       0.989  0.009 -0.000 -0.002  0.000
       0.009  0.983 -0.000  0.003  0.000
      -0.000 -0.000  0.991  0.000 -0.007
      -0.002  0.003  0.000  0.995 -0.000
       0.000  0.000 -0.007 -0.000  0.983
     SPIN  2
     eigenvalues:
       0.023  0.023  0.026  0.078  0.085
     eigenvectors (columns):
      -0.000 -0.847 -0.043  0.000  0.529
      -0.000 -0.526  0.199  0.000 -0.827
      -0.831  0.000  0.000  0.557  0.000
       0.000  0.070  0.979 -0.000  0.192
       0.557 -0.000 -0.000  0.831 -0.000
     occupation matrix ns (before diag.):
       0.041 -0.027  0.000  0.006  0.000
      -0.027  0.066 -0.000 -0.009  0.000
       0.000 -0.000  0.040 -0.000  0.026
       0.006 -0.009 -0.000  0.029 -0.000
       0.000  0.000  0.026 -0.000  0.061
     ------------------------ ATOM    2 ------------------------
     Tr[ns(  2)] (up, down, total) =   4.94131  0.23580  5.17711
     Atomic magnetic moment for atom   2 =   4.70552
     SPIN  1
     eigenvalues:
       0.976  0.979  0.995  0.996  0.996
     eigenvectors (columns):
       0.572 -0.000 -0.818  0.000 -0.062
      -0.793 -0.000 -0.532  0.000 -0.298
      -0.000  0.503 -0.000 -0.864 -0.000
       0.211  0.000  0.220  0.000 -0.953
       0.000  0.864  0.000  0.503  0.000
     occupation matrix ns (before diag.):
       0.989  0.009 -0.000 -0.002  0.000
       0.009  0.983 -0.000  0.003  0.000
      -0.000 -0.000  0.991  0.000 -0.007
      -0.002  0.003  0.000  0.995 -0.000
       0.000  0.000 -0.007 -0.000  0.983
     SPIN  2
     eigenvalues:
       0.023  0.023  0.026  0.078  0.085
     eigenvectors (columns):
      -0.000 -0.847 -0.043  0.000  0.529
      -0.000 -0.526  0.199  0.000 -0.827
      -0.831  0.000  0.000  0.557  0.000
       0.000  0.070  0.979 -0.000  0.192
       0.557 -0.000 -0.000  0.831 -0.000
     occupation matrix ns (before diag.):
       0.041 -0.027  0.000  0.006  0.000
      -0.027  0.066 -0.000 -0.009  0.000
       0.000 -0.000  0.040 -0.000  0.026
       0.006 -0.009 -0.000  0.029 -0.000
       0.000  0.000  0.026 -0.000  0.061

     Number of occupied Hubbard levels =   10.3542

     HUBBARD ENERGY =    0.0963  (Ry)

     total cpu time spent up to now is       74.2 secs

     total energy              =   -1002.57235118 Ry
     estimated scf accuracy    <       0.00540948 Ry

     total magnetization       =    10.00 Bohr mag/cell
     absolute magnetization    =    10.02 Bohr mag/cell

     iteration #  5     ecut=   120.00 Ry     beta= 0.70
     Davidson diagonalization with overlap

---- Real-time Memory Report at c_bands before calling an iterative solver
           277 MiB given to the printing process from OS
           242 MiB allocation reported by mallinfo(arena+hblkhd)
        538338 MiB available memory on the node where the printing process lives
------------------
     ethr =  5.10E-06,  avg # of iterations =  4.7

     =================== HUBBARD OCCUPATIONS ===================
     ------------------------ ATOM    1 ------------------------
     Tr[ns(  1)] (up, down, total) =   4.94021  0.23601  5.17622
     Atomic magnetic moment for atom   1 =   4.70420
     SPIN  1
     eigenvalues:
       0.975  0.978  0.995  0.996  0.996
     eigenvectors (columns):
       0.571 -0.000 -0.817  0.000 -0.082
      -0.793 -0.000 -0.524  0.000 -0.311
      -0.000  0.502 -0.000 -0.865 -0.000
       0.211  0.000  0.243  0.000 -0.947
       0.000  0.865  0.000  0.502  0.000
     occupation matrix ns (before diag.):
       0.989  0.009 -0.000 -0.002  0.000
       0.009  0.983 -0.000  0.004  0.000
      -0.000 -0.000  0.991  0.000 -0.007
      -0.002  0.004  0.000  0.995 -0.000
       0.000  0.000 -0.007 -0.000  0.983
     SPIN  2
     eigenvalues:
       0.023  0.023  0.027  0.078  0.085
     eigenvectors (columns):
      -0.000 -0.847 -0.046  0.000  0.529
      -0.000 -0.527  0.198  0.000 -0.827
      -0.831  0.000  0.000  0.556  0.000
       0.000  0.067  0.979 -0.000  0.191
       0.556 -0.000 -0.000  0.831 -0.000
     occupation matrix ns (before diag.):
       0.041 -0.027  0.000  0.006  0.000
      -0.027  0.066 -0.000 -0.009  0.000
       0.000 -0.000  0.040 -0.000  0.025
       0.006 -0.009 -0.000  0.029 -0.000
       0.000  0.000  0.025 -0.000  0.061
     ------------------------ ATOM    2 ------------------------
     Tr[ns(  2)] (up, down, total) =   4.94021  0.23601  5.17622
     Atomic magnetic moment for atom   2 =   4.70420
     SPIN  1
     eigenvalues:
       0.975  0.978  0.995  0.996  0.996
     eigenvectors (columns):
       0.571 -0.000 -0.817  0.000 -0.082
      -0.793 -0.000 -0.524  0.000 -0.311
      -0.000  0.502 -0.000 -0.865 -0.000
       0.211  0.000  0.243  0.000 -0.947
       0.000  0.865  0.000  0.502  0.000
     occupation matrix ns (before diag.):
       0.989  0.009 -0.000 -0.002  0.000
       0.009  0.983 -0.000  0.004  0.000
      -0.000 -0.000  0.991  0.000 -0.007
      -0.002  0.004  0.000  0.995 -0.000
       0.000  0.000 -0.007 -0.000  0.983
     SPIN  2
     eigenvalues:
       0.023  0.023  0.027  0.078  0.085
     eigenvectors (columns):
      -0.000 -0.847 -0.046  0.000  0.529
      -0.000 -0.527  0.198  0.000 -0.827
      -0.831  0.000  0.000  0.556  0.000
       0.000  0.067  0.979 -0.000  0.191
       0.556 -0.000 -0.000  0.831 -0.000
     occupation matrix ns (before diag.):
       0.041 -0.027  0.000  0.006  0.000
      -0.027  0.066 -0.000 -0.009  0.000
       0.000 -0.000  0.040 -0.000  0.025
       0.006 -0.009 -0.000  0.029 -0.000
       0.000  0.000  0.025 -0.000  0.061

     Number of occupied Hubbard levels =   10.3524

     HUBBARD ENERGY =    0.0957  (Ry)

     total cpu time spent up to now is       90.3 secs

     total energy              =   -1002.57321656 Ry
     estimated scf accuracy    <       0.00037918 Ry

     total magnetization       =    10.00 Bohr mag/cell
     absolute magnetization    =    10.03 Bohr mag/cell

     iteration #  6     ecut=   120.00 Ry     beta= 0.70
     Davidson diagonalization with overlap

---- Real-time Memory Report at c_bands before calling an iterative solver
           277 MiB given to the printing process from OS
           242 MiB allocation reported by mallinfo(arena+hblkhd)
        538325 MiB available memory on the node where the printing process lives
------------------
     ethr =  3.58E-07,  avg # of iterations =  4.4

     =================== HUBBARD OCCUPATIONS ===================
     ------------------------ ATOM    1 ------------------------
     Tr[ns(  1)] (up, down, total) =   4.94032  0.23719  5.17752
     Atomic magnetic moment for atom   1 =   4.70313
     SPIN  1
     eigenvalues:
       0.975  0.978  0.995  0.996  0.996
     eigenvectors (columns):
      -0.572 -0.000 -0.816  0.000 -0.080
       0.793 -0.000 -0.525  0.000 -0.309
       0.000  0.503 -0.000 -0.864 -0.000
      -0.211  0.000  0.240  0.000 -0.948
      -0.000  0.864  0.000  0.503  0.000
     occupation matrix ns (before diag.):
       0.989  0.009 -0.000 -0.002  0.000
       0.009  0.983 -0.000  0.004  0.000
      -0.000 -0.000  0.991  0.000 -0.007
      -0.002  0.004  0.000  0.995 -0.000
       0.000  0.000 -0.007 -0.000  0.983
     SPIN  2
     eigenvalues:
       0.023  0.023  0.027  0.078  0.086
     eigenvectors (columns):
      -0.000 -0.848 -0.044  0.000  0.529
      -0.000 -0.526  0.198  0.000 -0.827
      -0.831  0.000  0.000  0.556  0.000
       0.000  0.068  0.979 -0.000  0.191
       0.556 -0.000 -0.000  0.831 -0.000
     occupation matrix ns (before diag.):
       0.041 -0.027  0.000  0.006  0.000
      -0.027  0.066 -0.000 -0.009  0.000
       0.000 -0.000  0.040 -0.000  0.026
       0.006 -0.009 -0.000  0.029 -0.000
       0.000  0.000  0.026 -0.000  0.061
     ------------------------ ATOM    2 ------------------------
     Tr[ns(  2)] (up, down, total) =   4.94032  0.23719  5.17752
     Atomic magnetic moment for atom   2 =   4.70313
     SPIN  1
     eigenvalues:
       0.975  0.978  0.995  0.996  0.996
     eigenvectors (columns):
       0.572 -0.000 -0.816  0.000 -0.080
      -0.793 -0.000 -0.525  0.000 -0.309
      -0.000  0.503 -0.000 -0.864 -0.000
       0.211  0.000  0.240  0.000 -0.948
       0.000  0.864  0.000  0.503  0.000
     occupation matrix ns (before diag.):
       0.989  0.009 -0.000 -0.002  0.000
       0.009  0.983 -0.000  0.004  0.000
      -0.000 -0.000  0.991  0.000 -0.007
      -0.002  0.004  0.000  0.995 -0.000
       0.000  0.000 -0.007 -0.000  0.983
     SPIN  2
     eigenvalues:
       0.023  0.023  0.027  0.078  0.086
     eigenvectors (columns):
      -0.000 -0.848 -0.044  0.000  0.529
      -0.000 -0.526  0.198  0.000 -0.827
      -0.831  0.000  0.000  0.556  0.000
       0.000  0.068  0.979 -0.000  0.191
       0.556 -0.000 -0.000  0.831 -0.000
     occupation matrix ns (before diag.):
       0.041 -0.027  0.000  0.006  0.000
      -0.027  0.066 -0.000 -0.009  0.000
       0.000 -0.000  0.040 -0.000  0.026
       0.006 -0.009 -0.000  0.029 -0.000
       0.000  0.000  0.026 -0.000  0.061

     Number of occupied Hubbard levels =   10.3550

     HUBBARD ENERGY =    0.0956  (Ry)

     total cpu time spent up to now is      107.9 secs

     total energy              =   -1002.57321923 Ry
     estimated scf accuracy    <       0.00030345 Ry

     total magnetization       =    10.00 Bohr mag/cell
     absolute magnetization    =    10.03 Bohr mag/cell

     iteration #  7     ecut=   120.00 Ry     beta= 0.70
     Davidson diagonalization with overlap

---- Real-time Memory Report at c_bands before calling an iterative solver
           278 MiB given to the printing process from OS
           243 MiB allocation reported by mallinfo(arena+hblkhd)
        538315 MiB available memory on the node where the printing process lives
------------------
     ethr =  2.86E-07,  avg # of iterations =  1.8

     =================== HUBBARD OCCUPATIONS ===================
     ------------------------ ATOM    1 ------------------------
     Tr[ns(  1)] (up, down, total) =   4.94102  0.23787  5.17889
     Atomic magnetic moment for atom   1 =   4.70316
     SPIN  1
     eigenvalues:
       0.976  0.979  0.995  0.996  0.996
     eigenvectors (columns):
       0.572 -0.000 -0.817  0.000 -0.074
      -0.793 -0.000 -0.528  0.000 -0.305
      -0.000  0.504 -0.000 -0.864 -0.000
       0.211  0.000  0.233  0.000 -0.949
       0.000  0.864  0.000  0.504  0.000
     occupation matrix ns (before diag.):
       0.989  0.009 -0.000 -0.002  0.000
       0.009  0.983 -0.000  0.003  0.000
      -0.000 -0.000  0.991  0.000 -0.007
      -0.002  0.003  0.000  0.995 -0.000
       0.000  0.000 -0.007 -0.000  0.983
     SPIN  2
     eigenvalues:
       0.023  0.024  0.027  0.079  0.086
     eigenvectors (columns):
      -0.000 -0.848 -0.043  0.000  0.529
      -0.000 -0.526  0.199  0.000 -0.827
      -0.831  0.000  0.000  0.557  0.000
       0.000  0.070  0.979 -0.000  0.191
       0.557 -0.000 -0.000  0.831 -0.000
     occupation matrix ns (before diag.):
       0.041 -0.027  0.000  0.006  0.000
      -0.027  0.066 -0.000 -0.009  0.000
       0.000 -0.000  0.040 -0.000  0.026
       0.006 -0.009 -0.000  0.029 -0.000
       0.000  0.000  0.026 -0.000  0.061
     ------------------------ ATOM    2 ------------------------
     Tr[ns(  2)] (up, down, total) =   4.94102  0.23787  5.17889
     Atomic magnetic moment for atom   2 =   4.70316
     SPIN  1
     eigenvalues:
       0.976  0.979  0.995  0.996  0.996
     eigenvectors (columns):
       0.572 -0.000 -0.817  0.000 -0.074
      -0.793 -0.000 -0.528  0.000 -0.305
      -0.000  0.504 -0.000 -0.864 -0.000
       0.211  0.000  0.233  0.000 -0.949
       0.000  0.864  0.000  0.504  0.000
     occupation matrix ns (before diag.):
       0.989  0.009 -0.000 -0.002  0.000
       0.009  0.983 -0.000  0.003  0.000
      -0.000 -0.000  0.991  0.000 -0.007
      -0.002  0.003  0.000  0.995 -0.000
       0.000  0.000 -0.007 -0.000  0.983
     SPIN  2
     eigenvalues:
       0.023  0.024  0.027  0.079  0.086
     eigenvectors (columns):
      -0.000 -0.848 -0.043  0.000  0.529
      -0.000 -0.526  0.199  0.000 -0.827
      -0.831  0.000  0.000  0.557  0.000
       0.000  0.070  0.979 -0.000  0.191
       0.557 -0.000 -0.000  0.831 -0.000
     occupation matrix ns (before diag.):
       0.041 -0.027  0.000  0.006  0.000
      -0.027  0.066 -0.000 -0.009  0.000
       0.000 -0.000  0.040 -0.000  0.026
       0.006 -0.009 -0.000  0.029 -0.000
       0.000  0.000  0.026 -0.000  0.061

     Number of occupied Hubbard levels =   10.3578

     HUBBARD ENERGY =    0.0958  (Ry)

     total cpu time spent up to now is      120.7 secs

     total energy              =   -1002.57326555 Ry
     estimated scf accuracy    <       0.00000327 Ry

     total magnetization       =    10.00 Bohr mag/cell
     absolute magnetization    =    10.03 Bohr mag/cell

     iteration #  8     ecut=   120.00 Ry     beta= 0.70
     Davidson diagonalization with overlap

---- Real-time Memory Report at c_bands before calling an iterative solver
           279 MiB given to the printing process from OS
           244 MiB allocation reported by mallinfo(arena+hblkhd)
        538304 MiB available memory on the node where the printing process lives
------------------
     ethr =  3.08E-09,  avg # of iterations =  6.1

     =================== HUBBARD OCCUPATIONS ===================
     ------------------------ ATOM    1 ------------------------
     Tr[ns(  1)] (up, down, total) =   4.94112  0.23795  5.17907
     Atomic magnetic moment for atom   1 =   4.70317
     SPIN  1
     eigenvalues:
       0.976  0.979  0.995  0.996  0.996
     eigenvectors (columns):
       0.572 -0.000 -0.817  0.000 -0.075
      -0.793 -0.000 -0.527  0.000 -0.306
      -0.000  0.504 -0.000 -0.864 -0.000
       0.210  0.000  0.234  0.000 -0.949
       0.000  0.864  0.000  0.504  0.000
     occupation matrix ns (before diag.):
       0.989  0.009 -0.000 -0.002  0.000
       0.009  0.983 -0.000  0.003  0.000
      -0.000 -0.000  0.991  0.000 -0.007
      -0.002  0.003  0.000  0.995 -0.000
       0.000  0.000 -0.007 -0.000  0.983
     SPIN  2
     eigenvalues:
       0.023  0.024  0.027  0.079  0.086
     eigenvectors (columns):
      -0.000 -0.848 -0.043  0.000  0.529
      -0.000 -0.526  0.199  0.000 -0.827
      -0.831  0.000  0.000  0.556  0.000
       0.000  0.070  0.979 -0.000  0.191
       0.556 -0.000 -0.000  0.831 -0.000
     occupation matrix ns (before diag.):
       0.041 -0.027  0.000  0.006  0.000
      -0.027  0.066 -0.000 -0.009  0.000
       0.000 -0.000  0.040 -0.000  0.026
       0.006 -0.009 -0.000  0.029 -0.000
       0.000  0.000  0.026 -0.000  0.061
     ------------------------ ATOM    2 ------------------------
     Tr[ns(  2)] (up, down, total) =   4.94112  0.23795  5.17907
     Atomic magnetic moment for atom   2 =   4.70317
     SPIN  1
     eigenvalues:
       0.976  0.979  0.995  0.996  0.996
     eigenvectors (columns):
       0.572 -0.000 -0.817  0.000 -0.075
      -0.793 -0.000 -0.527  0.000 -0.306
      -0.000  0.504 -0.000 -0.864 -0.000
       0.210  0.000  0.234  0.000 -0.949
       0.000  0.864  0.000  0.504  0.000
     occupation matrix ns (before diag.):
       0.989  0.009 -0.000 -0.002  0.000
       0.009  0.983 -0.000  0.003  0.000
      -0.000 -0.000  0.991  0.000 -0.007
      -0.002  0.003  0.000  0.995 -0.000
       0.000  0.000 -0.007 -0.000  0.983
     SPIN  2
     eigenvalues:
       0.023  0.024  0.027  0.079  0.086
     eigenvectors (columns):
      -0.000 -0.848 -0.043  0.000  0.529
      -0.000 -0.526  0.199  0.000 -0.827
      -0.831  0.000  0.000  0.556  0.000
       0.000  0.070  0.979 -0.000  0.191
       0.556 -0.000 -0.000  0.831 -0.000
     occupation matrix ns (before diag.):
       0.041 -0.027  0.000  0.006  0.000
      -0.027  0.066 -0.000 -0.009  0.000
       0.000 -0.000  0.040 -0.000  0.026
       0.006 -0.009 -0.000  0.029 -0.000
       0.000  0.000  0.026 -0.000  0.061

     Number of occupied Hubbard levels =   10.3581

     HUBBARD ENERGY =    0.0959  (Ry)

     total cpu time spent up to now is      143.2 secs

     total energy              =   -1002.57326772 Ry
     estimated scf accuracy    <       0.00000521 Ry

     total magnetization       =    10.00 Bohr mag/cell
     absolute magnetization    =    10.03 Bohr mag/cell

     iteration #  9     ecut=   120.00 Ry     beta= 0.70
     Davidson diagonalization with overlap

---- Real-time Memory Report at c_bands before calling an iterative solver
           279 MiB given to the printing process from OS
           244 MiB allocation reported by mallinfo(arena+hblkhd)
        538295 MiB available memory on the node where the printing process lives
------------------
     ethr =  3.08E-09,  avg # of iterations =  2.0

     =================== HUBBARD OCCUPATIONS ===================
     ------------------------ ATOM    1 ------------------------
     Tr[ns(  1)] (up, down, total) =   4.94109  0.23802  5.17911
     Atomic magnetic moment for atom   1 =   4.70308
     SPIN  1
     eigenvalues:
       0.976  0.979  0.995  0.996  0.996
     eigenvectors (columns):
       0.572 -0.000 -0.817  0.000 -0.076
      -0.793 -0.000 -0.527  0.000 -0.306
      -0.000  0.504 -0.000 -0.864 -0.000
       0.210  0.000  0.235  0.000 -0.949
       0.000  0.864  0.000  0.504  0.000
     occupation matrix ns (before diag.):
       0.989  0.009 -0.000 -0.002  0.000
       0.009  0.983 -0.000  0.003  0.000
      -0.000 -0.000  0.991  0.000 -0.007
      -0.002  0.003  0.000  0.995 -0.000
       0.000  0.000 -0.007 -0.000  0.983
     SPIN  2
     eigenvalues:
       0.023  0.024  0.027  0.079  0.086
     eigenvectors (columns):
      -0.000 -0.848 -0.043  0.000  0.529
      -0.000 -0.526  0.199  0.000 -0.827
      -0.831  0.000  0.000  0.556  0.000
       0.000  0.070  0.979 -0.000  0.191
       0.556 -0.000 -0.000  0.831 -0.000
     occupation matrix ns (before diag.):
       0.041 -0.027  0.000  0.006  0.000
      -0.027  0.066 -0.000 -0.009  0.000
       0.000 -0.000  0.040 -0.000  0.026
       0.006 -0.009 -0.000  0.029 -0.000
       0.000  0.000  0.026 -0.000  0.061
     ------------------------ ATOM    2 ------------------------
     Tr[ns(  2)] (up, down, total) =   4.94109  0.23802  5.17911
     Atomic magnetic moment for atom   2 =   4.70308
     SPIN  1
     eigenvalues:
       0.976  0.979  0.995  0.996  0.996
     eigenvectors (columns):
       0.572 -0.000 -0.817  0.000 -0.076
      -0.793 -0.000 -0.527  0.000 -0.306
      -0.000  0.504 -0.000 -0.864 -0.000
       0.210  0.000  0.235  0.000 -0.949
       0.000  0.864  0.000  0.504  0.000
     occupation matrix ns (before diag.):
       0.989  0.009 -0.000 -0.002  0.000
       0.009  0.983 -0.000  0.003  0.000
      -0.000 -0.000  0.991  0.000 -0.007
      -0.002  0.003  0.000  0.995 -0.000
       0.000  0.000 -0.007 -0.000  0.983
     SPIN  2
     eigenvalues:
       0.023  0.024  0.027  0.079  0.086
     eigenvectors (columns):
      -0.000 -0.848 -0.043  0.000  0.529
      -0.000 -0.526  0.199  0.000 -0.827
      -0.831  0.000  0.000  0.556  0.000
       0.000  0.070  0.979 -0.000  0.191
       0.556 -0.000 -0.000  0.831 -0.000
     occupation matrix ns (before diag.):
       0.041 -0.027  0.000  0.006  0.000
      -0.027  0.066 -0.000 -0.009  0.000
       0.000 -0.000  0.040 -0.000  0.026
       0.006 -0.009 -0.000  0.029 -0.000
       0.000  0.000  0.026 -0.000  0.061

     Number of occupied Hubbard levels =   10.3582

     HUBBARD ENERGY =    0.0959  (Ry)

     total cpu time spent up to now is      157.4 secs

     total energy              =   -1002.57326825 Ry
     estimated scf accuracy    <       0.00000019 Ry

     total magnetization       =    10.00 Bohr mag/cell
     absolute magnetization    =    10.03 Bohr mag/cell

     iteration # 10     ecut=   120.00 Ry     beta= 0.70
     Davidson diagonalization with overlap

---- Real-time Memory Report at c_bands before calling an iterative solver
           280 MiB given to the printing process from OS
           245 MiB allocation reported by mallinfo(arena+hblkhd)
        538285 MiB available memory on the node where the printing process lives
------------------
     ethr =  1.81E-10,  avg # of iterations =  5.1

     =================== HUBBARD OCCUPATIONS ===================
     ------------------------ ATOM    1 ------------------------
     Tr[ns(  1)] (up, down, total) =   4.94109  0.23806  5.17915
     Atomic magnetic moment for atom   1 =   4.70303
     SPIN  1
     eigenvalues:
       0.976  0.979  0.995  0.996  0.996
     eigenvectors (columns):
       0.572 -0.000 -0.817  0.000 -0.076
      -0.793 -0.000 -0.527  0.000 -0.306
      -0.000  0.504 -0.000 -0.864 -0.000
       0.210  0.000  0.235  0.000 -0.949
       0.000  0.864  0.000  0.504  0.000
     occupation matrix ns (before diag.):
       0.989  0.009 -0.000 -0.002  0.000
       0.009  0.983 -0.000  0.003  0.000
      -0.000 -0.000  0.991  0.000 -0.007
      -0.002  0.003  0.000  0.995 -0.000
       0.000  0.000 -0.007 -0.000  0.983
     SPIN  2
     eigenvalues:
       0.023  0.024  0.027  0.079  0.086
     eigenvectors (columns):
      -0.000 -0.848 -0.043  0.000  0.529
      -0.000 -0.526  0.199  0.000 -0.827
      -0.831  0.000  0.000  0.556  0.000
       0.000  0.070  0.979 -0.000  0.191
       0.556 -0.000 -0.000  0.831 -0.000
     occupation matrix ns (before diag.):
       0.041 -0.027  0.000  0.006  0.000
      -0.027  0.066 -0.000 -0.009  0.000
       0.000 -0.000  0.040 -0.000  0.026
       0.006 -0.009 -0.000  0.029 -0.000
       0.000  0.000  0.026 -0.000  0.061
     ------------------------ ATOM    2 ------------------------
     Tr[ns(  2)] (up, down, total) =   4.94109  0.23806  5.17915
     Atomic magnetic moment for atom   2 =   4.70303
     SPIN  1
     eigenvalues:
       0.976  0.979  0.995  0.996  0.996
     eigenvectors (columns):
       0.572 -0.000 -0.817  0.000 -0.076
      -0.793 -0.000 -0.527  0.000 -0.306
      -0.000  0.504 -0.000 -0.864 -0.000
       0.210  0.000  0.235  0.000 -0.949
       0.000  0.864  0.000  0.504  0.000
     occupation matrix ns (before diag.):
       0.989  0.009 -0.000 -0.002  0.000
       0.009  0.983 -0.000  0.003  0.000
      -0.000 -0.000  0.991  0.000 -0.007
      -0.002  0.003  0.000  0.995 -0.000
       0.000  0.000 -0.007 -0.000  0.983
     SPIN  2
     eigenvalues:
       0.023  0.024  0.027  0.079  0.086
     eigenvectors (columns):
      -0.000 -0.848 -0.043  0.000  0.529
      -0.000 -0.526  0.199  0.000 -0.827
      -0.831  0.000  0.000  0.556  0.000
       0.000  0.070  0.979 -0.000  0.191
       0.556 -0.000 -0.000  0.831 -0.000
     occupation matrix ns (before diag.):
       0.041 -0.027  0.000  0.006  0.000
      -0.027  0.066 -0.000 -0.009  0.000
       0.000 -0.000  0.040 -0.000  0.026
       0.006 -0.009 -0.000  0.029 -0.000
       0.000  0.000  0.026 -0.000  0.061

     Number of occupied Hubbard levels =   10.3583

     HUBBARD ENERGY =    0.0959  (Ry)

     total cpu time spent up to now is      176.4 secs

     total energy              =   -1002.57326832 Ry
     estimated scf accuracy    <       0.00000002 Ry

     total magnetization       =    10.00 Bohr mag/cell
     absolute magnetization    =    10.03 Bohr mag/cell

     iteration # 11     ecut=   120.00 Ry     beta= 0.70
     Davidson diagonalization with overlap

---- Real-time Memory Report at c_bands before calling an iterative solver
           280 MiB given to the printing process from OS
           245 MiB allocation reported by mallinfo(arena+hblkhd)
        538283 MiB available memory on the node where the printing process lives
------------------
     ethr =  1.52E-11,  avg # of iterations =  2.1

     =================== HUBBARD OCCUPATIONS ===================
     ------------------------ ATOM    1 ------------------------
     Tr[ns(  1)] (up, down, total) =   4.94109  0.23805  5.17914
     Atomic magnetic moment for atom   1 =   4.70304
     SPIN  1
     eigenvalues:
       0.976  0.979  0.995  0.996  0.996
     eigenvectors (columns):
       0.572 -0.000 -0.817  0.000 -0.076
      -0.793 -0.000 -0.527  0.000 -0.306
      -0.000  0.504 -0.000 -0.864 -0.000
       0.210  0.000  0.235  0.000 -0.949
       0.000  0.864  0.000  0.504  0.000
     occupation matrix ns (before diag.):
       0.989  0.009 -0.000 -0.002  0.000
       0.009  0.983 -0.000  0.003  0.000
      -0.000 -0.000  0.991  0.000 -0.007
      -0.002  0.003  0.000  0.995 -0.000
       0.000  0.000 -0.007 -0.000  0.983
     SPIN  2
     eigenvalues:
       0.023  0.024  0.027  0.079  0.086
     eigenvectors (columns):
      -0.000 -0.848 -0.043  0.000  0.529
      -0.000 -0.526  0.199  0.000 -0.827
      -0.831  0.000  0.000  0.556  0.000
       0.000  0.070  0.979 -0.000  0.191
       0.556 -0.000 -0.000  0.831 -0.000
     occupation matrix ns (before diag.):
       0.041 -0.027  0.000  0.006  0.000
      -0.027  0.066 -0.000 -0.009  0.000
       0.000 -0.000  0.040 -0.000  0.026
       0.006 -0.009 -0.000  0.029 -0.000
       0.000  0.000  0.026 -0.000  0.061
     ------------------------ ATOM    2 ------------------------
     Tr[ns(  2)] (up, down, total) =   4.94109  0.23805  5.17914
     Atomic magnetic moment for atom   2 =   4.70304
     SPIN  1
     eigenvalues:
       0.976  0.979  0.995  0.996  0.996
     eigenvectors (columns):
       0.572 -0.000 -0.817  0.000 -0.076
      -0.793 -0.000 -0.527  0.000 -0.306
      -0.000  0.504 -0.000 -0.864 -0.000
       0.210  0.000  0.235  0.000 -0.949
       0.000  0.864  0.000  0.504  0.000
     occupation matrix ns (before diag.):
       0.989  0.009 -0.000 -0.002  0.000
       0.009  0.983 -0.000  0.003  0.000
      -0.000 -0.000  0.991  0.000 -0.007
      -0.002  0.003  0.000  0.995 -0.000
       0.000  0.000 -0.007 -0.000  0.983
     SPIN  2
     eigenvalues:
       0.023  0.024  0.027  0.079  0.086
     eigenvectors (columns):
      -0.000 -0.848 -0.043  0.000  0.529
      -0.000 -0.526  0.199  0.000 -0.827
      -0.831  0.000  0.000  0.556  0.000
       0.000  0.070  0.979 -0.000  0.191
       0.556 -0.000 -0.000  0.831 -0.000
     occupation matrix ns (before diag.):
       0.041 -0.027  0.000  0.006  0.000
      -0.027  0.066 -0.000 -0.009  0.000
       0.000 -0.000  0.040 -0.000  0.026
       0.006 -0.009 -0.000  0.029 -0.000
       0.000  0.000  0.026 -0.000  0.061

     Number of occupied Hubbard levels =   10.3583

     HUBBARD ENERGY =    0.0959  (Ry)

     total cpu time spent up to now is      190.2 secs

     total energy              =   -1002.57326833 Ry
     estimated scf accuracy    <          2.4E-09 Ry

     total magnetization       =    10.00 Bohr mag/cell
     absolute magnetization    =    10.03 Bohr mag/cell

     iteration # 12     ecut=   120.00 Ry     beta= 0.70
     Davidson diagonalization with overlap

---- Real-time Memory Report at c_bands before calling an iterative solver
           280 MiB given to the printing process from OS
           245 MiB allocation reported by mallinfo(arena+hblkhd)
        538283 MiB available memory on the node where the printing process lives
------------------
     ethr =  2.25E-12,  avg # of iterations =  3.7

     =================== HUBBARD OCCUPATIONS ===================
     ------------------------ ATOM    1 ------------------------
     Tr[ns(  1)] (up, down, total) =   4.94109  0.23805  5.17914
     Atomic magnetic moment for atom   1 =   4.70304
     SPIN  1
     eigenvalues:
       0.976  0.979  0.995  0.996  0.996
     eigenvectors (columns):
       0.572 -0.000 -0.817  0.000 -0.076
      -0.793 -0.000 -0.527  0.000 -0.306
      -0.000  0.504 -0.000 -0.864 -0.000
       0.210  0.000  0.235  0.000 -0.949
       0.000  0.864  0.000  0.504  0.000
     occupation matrix ns (before diag.):
       0.989  0.009 -0.000 -0.002  0.000
       0.009  0.983 -0.000  0.003  0.000
      -0.000 -0.000  0.991  0.000 -0.007
      -0.002  0.003  0.000  0.995 -0.000
       0.000  0.000 -0.007 -0.000  0.983
     SPIN  2
     eigenvalues:
       0.023  0.024  0.027  0.079  0.086
     eigenvectors (columns):
      -0.000 -0.848 -0.043  0.000  0.529
      -0.000 -0.526  0.199  0.000 -0.827
      -0.831  0.000  0.000  0.556  0.000
       0.000  0.070  0.979 -0.000  0.191
       0.556 -0.000 -0.000  0.831 -0.000
     occupation matrix ns (before diag.):
       0.041 -0.027  0.000  0.006  0.000
      -0.027  0.066 -0.000 -0.009  0.000
       0.000 -0.000  0.040 -0.000  0.026
       0.006 -0.009 -0.000  0.029 -0.000
       0.000  0.000  0.026 -0.000  0.061
     ------------------------ ATOM    2 ------------------------
     Tr[ns(  2)] (up, down, total) =   4.94109  0.23805  5.17914
     Atomic magnetic moment for atom   2 =   4.70304
     SPIN  1
     eigenvalues:
       0.976  0.979  0.995  0.996  0.996
     eigenvectors (columns):
       0.572 -0.000 -0.817  0.000 -0.076
      -0.793 -0.000 -0.527  0.000 -0.306
      -0.000  0.504 -0.000 -0.864 -0.000
       0.210  0.000  0.235  0.000 -0.949
       0.000  0.864  0.000  0.504  0.000
     occupation matrix ns (before diag.):
       0.989  0.009 -0.000 -0.002  0.000
       0.009  0.983 -0.000  0.003  0.000
      -0.000 -0.000  0.991  0.000 -0.007
      -0.002  0.003  0.000  0.995 -0.000
       0.000  0.000 -0.007 -0.000  0.983
     SPIN  2
     eigenvalues:
       0.023  0.024  0.027  0.079  0.086
     eigenvectors (columns):
      -0.000 -0.848 -0.043  0.000  0.529
      -0.000 -0.526  0.199  0.000 -0.827
      -0.831  0.000  0.000  0.556  0.000
       0.000  0.070  0.979 -0.000  0.191
       0.556 -0.000 -0.000  0.831 -0.000
     occupation matrix ns (before diag.):
       0.041 -0.027  0.000  0.006  0.000
      -0.027  0.066 -0.000 -0.009  0.000
       0.000 -0.000  0.040 -0.000  0.026
       0.006 -0.009 -0.000  0.029 -0.000
       0.000  0.000  0.026 -0.000  0.061

     Number of occupied Hubbard levels =   10.3583

     HUBBARD ENERGY =    0.0959  (Ry)
 
     Magnetic moment per site  (integrated on atomic sphere of radius R)
     atom   1 (R=0.181)  charge= 12.3037  magn=  4.1514
     atom   2 (R=0.181)  charge= 12.3037  magn=  4.1514
     atom   3 (R=0.156)  charge=  7.7949  magn=  0.0568
     atom   4 (R=0.156)  charge=  7.7949  magn=  0.0568
     atom   5 (R=0.156)  charge=  5.0422  magn=  0.0155
     atom   6 (R=0.156)  charge=  5.0422  magn=  0.0155
     atom   7 (R=0.156)  charge=  5.0422  magn=  0.0155
     atom   8 (R=0.156)  charge=  5.0422  magn=  0.0155
     atom   9 (R=0.156)  charge=  5.0464  magn=  0.0157
     atom  10 (R=0.156)  charge=  5.0464  magn=  0.0157
     atom  11 (R=0.156)  charge=  5.0464  magn=  0.0157
     atom  12 (R=0.156)  charge=  5.0464  magn=  0.0157

     total cpu time spent up to now is      206.4 secs

     End of self-consistent calculation

 ------ SPIN UP ------------


          k = 0.0833 0.0693 0.0813 ( 20599 PWs)   bands (ev):

   -69.8128 -69.8113 -65.2455 -65.2387 -38.8678 -38.8606 -38.8572 -38.8480
   -38.8313 -38.8307 -29.6153 -29.5764 -29.5538 -29.4958 -29.4799 -29.4394
    -9.0979  -7.9999  -7.8671  -7.7351  -7.6137  -7.4982  -7.2693  -7.1137
     2.9577   3.1357   3.3334   3.5172   3.6381   4.0547   4.1274   4.3626
     4.6470   4.8889   5.1693   5.4547   5.7570   5.8164   6.0120   6.2206
     6.2703   6.4759   6.4943   6.7992   6.9676   7.2039   7.3618   7.4436
     7.5462   7.9388   8.0984   8.1887   8.3875   8.5169   8.7817   8.9590
     9.2023   9.7495  12.4012  12.6574  12.7334  13.0415  13.5642  13.7979

     occupation numbers 
     1.0000   1.0000   1.0000   1.0000   1.0000   1.0000   1.0000   1.0000
     1.0000   1.0000   1.0000   1.0000   1.0000   1.0000   1.0000   1.0000
     1.0000   1.0000   1.0000   1.0000   1.0000   1.0000   1.0000   1.0000
     1.0000   1.0000   1.0000   1.0000   1.0000   1.0000   1.0000   1.0000
     1.0000   1.0000   1.0000   1.0000   1.0000   1.0000   1.0000   1.0000
     1.0000   1.0000   1.0000   1.0000   1.0000   1.0000   1.0000   1.0000
     1.0000   1.0000   1.0000   1.0000   1.0000   1.0000   1.0000   1.0000
     1.0000   1.0000   0.0000   0.0000   0.0000   0.0000   0.0000   0.0000

          k = 0.0833 0.0693 0.2406 ( 20604 PWs)   bands (ev):

   -69.8126 -69.8116 -65.2446 -65.2396 -38.8676 -38.8636 -38.8538 -38.8483
   -38.8313 -38.8309 -29.6138 -29.5863 -29.5470 -29.5106 -29.4642 -29.4397
    -8.9193  -8.0229  -7.9591  -7.8742  -7.5221  -7.4685  -7.3013  -7.1523
     3.1285   3.1982   3.3156   3.6444   3.6785   3.8071   4.0642   4.1128
     4.8317   4.8940   5.1866   5.5310   5.8155   5.9044   5.9977   6.1749
     6.2096   6.3602   6.4747   6.7268   6.8403   7.2096   7.2768   7.4667
     7.6284   7.8622   8.1310   8.2534   8.3721   8.4459   8.7246   8.9146
     9.5499   9.9202  12.5175  12.5663  12.7078  12.9422  13.4508  13.5395

     occupation numbers 
     1.0000   1.0000   1.0000   1.0000   1.0000   1.0000   1.0000   1.0000
     1.0000   1.0000   1.0000   1.0000   1.0000   1.0000   1.0000   1.0000
     1.0000   1.0000   1.0000   1.0000   1.0000   1.0000   1.0000   1.0000
     1.0000   1.0000   1.0000   1.0000   1.0000   1.0000   1.0000   1.0000
     1.0000   1.0000   1.0000   1.0000   1.0000   1.0000   1.0000   1.0000
     1.0000   1.0000   1.0000   1.0000   1.0000   1.0000   1.0000   1.0000
     1.0000   1.0000   1.0000   1.0000   1.0000   1.0000   1.0000   1.0000
     1.0000   1.0000   0.0000   0.0000   0.0000   0.0000   0.0000   0.0000

          k = 0.0833 0.0693 0.4000 ( 20593 PWs)   bands (ev):

   -69.8123 -69.8119 -65.2430 -65.2411 -38.8670 -38.8657 -38.8511 -38.8493
   -38.8313 -38.8312 -29.6085 -29.5987 -29.5367 -29.5245 -29.4512 -29.4429
    -8.6065  -8.2578  -7.9869  -7.9526  -7.5127  -7.4922  -7.2477  -7.1890
     3.0776   3.1523   3.3793   3.5478   3.8591   3.9306   4.1452   4.3101
     4.7184   4.9950   5.1456   5.3992   5.5420   5.7313   5.9156   5.9952
     6.4414   6.5075   6.5142   6.6986   6.7842   7.0272   7.2335   7.5271
     7.6643   7.8677   8.0983   8.3151   8.3665   8.5400   8.7847   8.8787
     9.7473   9.9430  12.5483  12.6002  12.7887  12.8920  13.1631  13.2260

     occupation numbers 
     1.0000   1.0000   1.0000   1.0000   1.0000   1.0000   1.0000   1.0000
     1.0000   1.0000   1.0000   1.0000   1.0000   1.0000   1.0000   1.0000
     1.0000   1.0000   1.0000   1.0000   1.0000   1.0000   1.0000   1.0000
     1.0000   1.0000   1.0000   1.0000   1.0000   1.0000   1.0000   1.0000
     1.0000   1.0000   1.0000   1.0000   1.0000   1.0000   1.0000   1.0000
     1.0000   1.0000   1.0000   1.0000   1.0000   1.0000   1.0000   1.0000
     1.0000   1.0000   1.0000   1.0000   1.0000   1.0000   1.0000   1.0000
     1.0000   1.0000   0.0000   0.0000   0.0000   0.0000   0.0000   0.0000

          k = 0.0833 0.0693-0.3969 ( 20590 PWs)   bands (ev):

   -69.8123 -69.8119 -65.2430 -65.2412 -38.8670 -38.8657 -38.8511 -38.8493
   -38.8313 -38.8312 -29.6085 -29.5987 -29.5368 -29.5244 -29.4512 -29.4430
    -8.6187  -8.2441  -7.9778  -7.9445  -7.5373  -7.4951  -7.2425  -7.1882
     3.0303   3.1636   3.4215   3.5339   3.7946   4.0293   4.2419   4.3969
     4.5964   4.8690   5.1784   5.4096   5.5230   5.6949   5.9072   6.0931
     6.2675   6.4198   6.6755   6.8409   6.9300   6.9888   7.3041   7.4114
     7.6107   7.8304   8.1226   8.1848   8.3878   8.4307   8.9348   8.9458
     9.7723   9.7841  12.4926  12.6711  12.7914  12.8903  13.0427  13.2737

     occupation numbers 
     1.0000   1.0000   1.0000   1.0000   1.0000   1.0000   1.0000   1.0000
     1.0000   1.0000   1.0000   1.0000   1.0000   1.0000   1.0000   1.0000
     1.0000   1.0000   1.0000   1.0000   1.0000   1.0000   1.0000   1.0000
     1.0000   1.0000   1.0000   1.0000   1.0000   1.0000   1.0000   1.0000
     1.0000   1.0000   1.0000   1.0000   1.0000   1.0000   1.0000   1.0000
     1.0000   1.0000   1.0000   1.0000   1.0000   1.0000   1.0000   1.0000
     1.0000   1.0000   1.0000   1.0000   1.0000   1.0000   1.0000   1.0000
     1.0000   1.0000   0.0000   0.0000   0.0000   0.0000   0.0000   0.0000

          k = 0.0833 0.0693-0.2375 ( 20608 PWs)   bands (ev):

   -69.8126 -69.8116 -65.2446 -65.2397 -38.8676 -38.8636 -38.8538 -38.8484
   -38.8313 -38.8309 -29.6136 -29.5863 -29.5469 -29.5106 -29.4642 -29.4398
    -8.9289  -8.0084  -7.9270  -7.8504  -7.5808  -7.5087  -7.2880  -7.1327
     3.0527   3.1221   3.4006   3.6237   3.6907   3.9816   4.0929   4.3016
     4.6640   4.8942   5.0249   5.4719   5.7673   5.8706   6.0698   6.1592
     6.2130   6.3460   6.5934   6.9153   6.9757   7.1537   7.3919   7.4361
     7.5698   7.6370   8.0962   8.1247   8.3219   8.4636   8.8523   9.0959
     9.4617   9.7011  12.4064  12.6101  12.7115  13.0078  13.3546  13.5011

     occupation numbers 
     1.0000   1.0000   1.0000   1.0000   1.0000   1.0000   1.0000   1.0000
     1.0000   1.0000   1.0000   1.0000   1.0000   1.0000   1.0000   1.0000
     1.0000   1.0000   1.0000   1.0000   1.0000   1.0000   1.0000   1.0000
     1.0000   1.0000   1.0000   1.0000   1.0000   1.0000   1.0000   1.0000
     1.0000   1.0000   1.0000   1.0000   1.0000   1.0000   1.0000   1.0000
     1.0000   1.0000   1.0000   1.0000   1.0000   1.0000   1.0000   1.0000
     1.0000   1.0000   1.0000   1.0000   1.0000   1.0000   1.0000   1.0000
     1.0000   1.0000   0.0000   0.0000   0.0000   0.0000   0.0000   0.0000

          k = 0.0833 0.0693-0.0781 ( 20602 PWs)   bands (ev):

   -69.8128 -69.8113 -65.2455 -65.2387 -38.8678 -38.8606 -38.8572 -38.8480
   -38.8313 -38.8307 -29.6152 -29.5765 -29.5537 -29.4959 -29.4798 -29.4395
    -9.1016  -8.0022  -7.8070  -7.7076  -7.6694  -7.5531  -7.2556  -7.1007
     2.9194   3.1387   3.2872   3.5366   3.7014   4.1517   4.2003   4.3713
     4.5802   4.8673   5.0832   5.4593   5.5756   5.9044   6.0983   6.1742
     6.2832   6.5161   6.5975   6.7984   6.9518   7.1190   7.4152   7.4606
     7.6649   7.8473   7.9955   8.0724   8.4682   8.6235   8.7400   9.0190
     9.1687   9.6331  12.4171  12.5551  12.7623  13.0700  13.5919  13.7146

     occupation numbers 
     1.0000   1.0000   1.0000   1.0000   1.0000   1.0000   1.0000   1.0000
     1.0000   1.0000   1.0000   1.0000   1.0000   1.0000   1.0000   1.0000
     1.0000   1.0000   1.0000   1.0000   1.0000   1.0000   1.0000   1.0000
     1.0000   1.0000   1.0000   1.0000   1.0000   1.0000   1.0000   1.0000
     1.0000   1.0000   1.0000   1.0000   1.0000   1.0000   1.0000   1.0000
     1.0000   1.0000   1.0000   1.0000   1.0000   1.0000   1.0000   1.0000
     1.0000   1.0000   1.0000   1.0000   1.0000   1.0000   1.0000   1.0000
     1.0000   1.0000   0.0000   0.0000   0.0000   0.0000   0.0000   0.0000

          k = 0.0833 0.2079 0.0813 ( 20612 PWs)   bands (ev):

   -69.8128 -69.8113 -65.2456 -65.2386 -38.8677 -38.8607 -38.8572 -38.8481
   -38.8313 -38.8307 -29.6151 -29.5756 -29.5538 -29.4964 -29.4805 -29.4397
    -9.0064  -8.1025  -7.8993  -7.7015  -7.6376  -7.4936  -7.2817  -7.0992
     3.0782   3.2674   3.4508   3.5449   3.6618   3.9839   4.2675   4.4148
     4.6419   4.8135   4.9505   5.3746   5.5139   5.8625   5.9873   6.0994
     6.2297   6.4843   6.5622   6.9499   6.9891   7.1228   7.2296   7.2994
     7.6987   7.7663   8.1041   8.1446   8.3242   8.4421   8.9176   9.2469
     9.2670   9.7392  12.3296  12.5156  12.8340  13.2214  13.5223  13.7136

     occupation numbers 
     1.0000   1.0000   1.0000   1.0000   1.0000   1.0000   1.0000   1.0000
     1.0000   1.0000   1.0000   1.0000   1.0000   1.0000   1.0000   1.0000
     1.0000   1.0000   1.0000   1.0000   1.0000   1.0000   1.0000   1.0000
     1.0000   1.0000   1.0000   1.0000   1.0000   1.0000   1.0000   1.0000
     1.0000   1.0000   1.0000   1.0000   1.0000   1.0000   1.0000   1.0000
     1.0000   1.0000   1.0000   1.0000   1.0000   1.0000   1.0000   1.0000
     1.0000   1.0000   1.0000   1.0000   1.0000   1.0000   1.0000   1.0000
     1.0000   1.0000   0.0000   0.0000   0.0000   0.0000   0.0000   0.0000

          k = 0.0833 0.2079 0.2406 ( 20613 PWs)   bands (ev):

   -69.8126 -69.8116 -65.2446 -65.2395 -38.8675 -38.8636 -38.8538 -38.8483
   -38.8313 -38.8309 -29.6141 -29.5863 -29.5467 -29.5110 -29.4643 -29.4395
    -8.8405  -8.1321  -7.9477  -7.7976  -7.5522  -7.4683  -7.3745  -7.1348
     3.1904   3.2120   3.4536   3.6173   3.7350   3.9121   4.2060   4.3280
     4.7815   4.8464   5.0436   5.4268   5.5018   5.6989   5.8884   6.0754
     6.2390   6.3977   6.6549   6.7731   6.9159   7.1236   7.3447   7.3856
     7.6289   7.7024   8.0311   8.1038   8.3662   8.3971   8.9052   9.2379
     9.5255   9.9132  12.3188  12.6416  12.7841  13.1372  13.3568  13.5006

     occupation numbers 
     1.0000   1.0000   1.0000   1.0000   1.0000   1.0000   1.0000   1.0000
     1.0000   1.0000   1.0000   1.0000   1.0000   1.0000   1.0000   1.0000
     1.0000   1.0000   1.0000   1.0000   1.0000   1.0000   1.0000   1.0000
     1.0000   1.0000   1.0000   1.0000   1.0000   1.0000   1.0000   1.0000
     1.0000   1.0000   1.0000   1.0000   1.0000   1.0000   1.0000   1.0000
     1.0000   1.0000   1.0000   1.0000   1.0000   1.0000   1.0000   1.0000
     1.0000   1.0000   1.0000   1.0000   1.0000   1.0000   1.0000   1.0000
     1.0000   1.0000   0.0000   0.0000   0.0000   0.0000   0.0000   0.0000

          k = 0.0833 0.2079 0.4000 ( 20597 PWs)   bands (ev):

   -69.8123 -69.8120 -65.2430 -65.2411 -38.8670 -38.8658 -38.8510 -38.8492
   -38.8313 -38.8312 -29.6094 -29.5994 -29.5366 -29.5245 -29.4507 -29.4423
    -8.5574  -8.2722  -7.9646  -7.8964  -7.5613  -7.5301  -7.2920  -7.2003
     3.1530   3.2775   3.3852   3.4842   3.8886   4.0741   4.4100   4.4167
     4.7432   4.8699   5.0506   5.3850   5.5269   5.5737   5.6373   5.9348
     6.2763   6.5066   6.5833   6.7369   6.8829   6.9657   7.2211   7.4752
     7.5750   7.7140   8.0668   8.2963   8.3519   8.4501   8.8811   9.1950
     9.7213   9.9591  12.4237  12.6233  12.8583  13.0252  13.1639  13.1805

     occupation numbers 
     1.0000   1.0000   1.0000   1.0000   1.0000   1.0000   1.0000   1.0000
     1.0000   1.0000   1.0000   1.0000   1.0000   1.0000   1.0000   1.0000
     1.0000   1.0000   1.0000   1.0000   1.0000   1.0000   1.0000   1.0000
     1.0000   1.0000   1.0000   1.0000   1.0000   1.0000   1.0000   1.0000
     1.0000   1.0000   1.0000   1.0000   1.0000   1.0000   1.0000   1.0000
     1.0000   1.0000   1.0000   1.0000   1.0000   1.0000   1.0000   1.0000
     1.0000   1.0000   1.0000   1.0000   1.0000   1.0000   1.0000   1.0000
     1.0000   1.0000   0.0000   0.0000   0.0000   0.0000   0.0000   0.0000

          k = 0.0833 0.2079-0.3969 ( 20600 PWs)   bands (ev):

   -69.8124 -69.8120 -65.2430 -65.2412 -38.8670 -38.8658 -38.8510 -38.8492
   -38.8313 -38.8312 -29.6093 -29.5994 -29.5366 -29.5244 -29.4507 -29.4423
    -8.5658  -8.2584  -7.9748  -7.8719  -7.6150  -7.4963  -7.3070  -7.1873
     3.1525   3.2802   3.3722   3.5462   3.9045   4.0678   4.3650   4.4402
     4.6326   4.9422   5.1674   5.2114   5.4334   5.6282   5.8250   5.9571
     6.2199   6.3876   6.4783   6.7590   7.0045   7.0575   7.2990   7.4413
     7.5414   7.7023   8.0584   8.2513   8.3136   8.5931   8.8537   9.1535
     9.7241   9.8607  12.3612  12.7069  12.8558  12.9376  13.1024  13.2320

     occupation numbers 
     1.0000   1.0000   1.0000   1.0000   1.0000   1.0000   1.0000   1.0000
     1.0000   1.0000   1.0000   1.0000   1.0000   1.0000   1.0000   1.0000
     1.0000   1.0000   1.0000   1.0000   1.0000   1.0000   1.0000   1.0000
     1.0000   1.0000   1.0000   1.0000   1.0000   1.0000   1.0000   1.0000
     1.0000   1.0000   1.0000   1.0000   1.0000   1.0000   1.0000   1.0000
     1.0000   1.0000   1.0000   1.0000   1.0000   1.0000   1.0000   1.0000
     1.0000   1.0000   1.0000   1.0000   1.0000   1.0000   1.0000   1.0000
     1.0000   1.0000   0.0000   0.0000   0.0000   0.0000   0.0000   0.0000

          k = 0.0833 0.2079-0.2375 ( 20634 PWs)   bands (ev):

   -69.8126 -69.8116 -65.2447 -65.2396 -38.8675 -38.8636 -38.8538 -38.8484
   -38.8313 -38.8309 -29.6140 -29.5864 -29.5466 -29.5111 -29.4643 -29.4395
    -8.8481  -8.1060  -7.9396  -7.7618  -7.6272  -7.5164  -7.3351  -7.1180
     3.1914   3.2414   3.3786   3.6401   3.8537   3.9379   4.1839   4.4824
     4.5167   4.9266   4.9669   5.4046   5.5137   5.6933   5.9607   6.1009
     6.2288   6.2994   6.4766   6.9993   7.0515   7.1232   7.3729   7.4730
     7.5311   7.5650   8.0766   8.2176   8.2358   8.6363   8.8293   9.1469
     9.4373   9.7739  12.2734  12.6685  12.7666  13.1151  13.2818  13.4671

     occupation numbers 
     1.0000   1.0000   1.0000   1.0000   1.0000   1.0000   1.0000   1.0000
     1.0000   1.0000   1.0000   1.0000   1.0000   1.0000   1.0000   1.0000
     1.0000   1.0000   1.0000   1.0000   1.0000   1.0000   1.0000   1.0000
     1.0000   1.0000   1.0000   1.0000   1.0000   1.0000   1.0000   1.0000
     1.0000   1.0000   1.0000   1.0000   1.0000   1.0000   1.0000   1.0000
     1.0000   1.0000   1.0000   1.0000   1.0000   1.0000   1.0000   1.0000
     1.0000   1.0000   1.0000   1.0000   1.0000   1.0000   1.0000   1.0000
     1.0000   1.0000   0.0000   0.0000   0.0000   0.0000   0.0000   0.0000

          k = 0.0833 0.2079-0.0781 ( 20623 PWs)   bands (ev):

   -69.8128 -69.8113 -65.2456 -65.2386 -38.8677 -38.8607 -38.8572 -38.8481
   -38.8313 -38.8307 -29.6150 -29.5756 -29.5537 -29.4965 -29.4804 -29.4397
    -9.0095  -8.0984  -7.8477  -7.7298  -7.6466  -7.5411  -7.2630  -7.0880
     3.0639   3.2850   3.4088   3.5474   3.7165   4.1453   4.1973   4.3202
     4.5937   4.8947   5.0366   5.2080   5.6292   5.7127   5.9966   6.0653
     6.2701   6.4478   6.7367   6.8942   7.0060   7.1299   7.2428   7.3025
     7.5509   7.8463   8.0743   8.2387   8.3862   8.5142   8.8818   9.1009
     9.2530   9.6822  12.3380  12.5360  12.7485  13.2368  13.5704  13.6143

     occupation numbers 
     1.0000   1.0000   1.0000   1.0000   1.0000   1.0000   1.0000   1.0000
     1.0000   1.0000   1.0000   1.0000   1.0000   1.0000   1.0000   1.0000
     1.0000   1.0000   1.0000   1.0000   1.0000   1.0000   1.0000   1.0000
     1.0000   1.0000   1.0000   1.0000   1.0000   1.0000   1.0000   1.0000
     1.0000   1.0000   1.0000   1.0000   1.0000   1.0000   1.0000   1.0000
     1.0000   1.0000   1.0000   1.0000   1.0000   1.0000   1.0000   1.0000
     1.0000   1.0000   1.0000   1.0000   1.0000   1.0000   1.0000   1.0000
     1.0000   1.0000   0.0000   0.0000   0.0000   0.0000   0.0000   0.0000

          k = 0.0833 0.3465 0.0813 ( 20609 PWs)   bands (ev):

   -69.8128 -69.8113 -65.2456 -65.2385 -38.8676 -38.8607 -38.8572 -38.8481
   -38.8313 -38.8307 -29.6148 -29.5747 -29.5538 -29.4971 -29.4811 -29.4400
    -8.8798  -8.2744  -7.8728  -7.6786  -7.6507  -7.5149  -7.2907  -7.0870
     3.2587   3.4147   3.5372   3.6477   3.6983   3.9328   4.2162   4.3870
     4.5089   4.8008   4.9486   5.2339   5.5880   5.7607   5.8850   6.1340
     6.3234   6.3589   6.5903   6.7540   6.9667   7.0840   7.1115   7.1650
     7.7494   7.7820   8.0843   8.1782   8.3812   8.4640   8.9794   9.2211
     9.4959   9.7544  12.1279  12.6601  13.0214  13.1243  13.4532  13.7059

     occupation numbers 
     1.0000   1.0000   1.0000   1.0000   1.0000   1.0000   1.0000   1.0000
     1.0000   1.0000   1.0000   1.0000   1.0000   1.0000   1.0000   1.0000
     1.0000   1.0000   1.0000   1.0000   1.0000   1.0000   1.0000   1.0000
     1.0000   1.0000   1.0000   1.0000   1.0000   1.0000   1.0000   1.0000
     1.0000   1.0000   1.0000   1.0000   1.0000   1.0000   1.0000   1.0000
     1.0000   1.0000   1.0000   1.0000   1.0000   1.0000   1.0000   1.0000
     1.0000   1.0000   1.0000   1.0000   1.0000   1.0000   1.0000   1.0000
     1.0000   1.0000   0.0000   0.0000   0.0000   0.0000   0.0000   0.0000

          k = 0.0833 0.3465 0.2406 ( 20598 PWs)   bands (ev):

   -69.8126 -69.8116 -65.2446 -65.2395 -38.8675 -38.8637 -38.8538 -38.8483
   -38.8313 -38.8309 -29.6144 -29.5864 -29.5465 -29.5114 -29.4643 -29.4392
    -8.7323  -8.2633  -7.9124  -7.7392  -7.5763  -7.4760  -7.4506  -7.1252
     3.1743   3.3369   3.5319   3.6324   3.8923   4.0623   4.2374   4.4779
     4.7958   4.8851   4.9299   5.1284   5.3967   5.6063   5.6496   6.0650
     6.2468   6.4016   6.6360   6.7854   6.8812   7.0039   7.2992   7.4166
     7.5477   7.7912   7.9295   8.0817   8.3812   8.4450   8.9492   9.4531
     9.5955   9.8296  12.1870  12.7460  12.9631  13.1340  13.1878  13.5493

     occupation numbers 
     1.0000   1.0000   1.0000   1.0000   1.0000   1.0000   1.0000   1.0000
     1.0000   1.0000   1.0000   1.0000   1.0000   1.0000   1.0000   1.0000
     1.0000   1.0000   1.0000   1.0000   1.0000   1.0000   1.0000   1.0000
     1.0000   1.0000   1.0000   1.0000   1.0000   1.0000   1.0000   1.0000
     1.0000   1.0000   1.0000   1.0000   1.0000   1.0000   1.0000   1.0000
     1.0000   1.0000   1.0000   1.0000   1.0000   1.0000   1.0000   1.0000
     1.0000   1.0000   1.0000   1.0000   1.0000   1.0000   1.0000   1.0000
     1.0000   1.0000   0.0000   0.0000   0.0000   0.0000   0.0000   0.0000

          k = 0.0833 0.3465 0.4000 ( 20598 PWs)   bands (ev):

   -69.8124 -69.8120 -65.2430 -65.2411 -38.8670 -38.8658 -38.8510 -38.8492
   -38.8313 -38.8312 -29.6102 -29.6002 -29.5364 -29.5245 -29.4501 -29.4416
    -8.4926  -8.3112  -7.8851  -7.8306  -7.6388  -7.6174  -7.3161  -7.2111
     3.1982   3.2772   3.4563   3.5969   4.0011   4.3295   4.3554   4.5141
     4.6724   4.9141   5.0398   5.2124   5.3948   5.5942   5.6543   5.8636
     6.0960   6.3699   6.4808   6.5994   6.8773   6.9798   7.2429   7.4898
     7.5599   7.7016   8.0856   8.1368   8.3769   8.3968   9.0503   9.5216
     9.5805   9.9413  12.3701  12.6462  12.8731  13.0246  13.1144  13.3104

     occupation numbers 
     1.0000   1.0000   1.0000   1.0000   1.0000   1.0000   1.0000   1.0000
     1.0000   1.0000   1.0000   1.0000   1.0000   1.0000   1.0000   1.0000
     1.0000   1.0000   1.0000   1.0000   1.0000   1.0000   1.0000   1.0000
     1.0000   1.0000   1.0000   1.0000   1.0000   1.0000   1.0000   1.0000
     1.0000   1.0000   1.0000   1.0000   1.0000   1.0000   1.0000   1.0000
     1.0000   1.0000   1.0000   1.0000   1.0000   1.0000   1.0000   1.0000
     1.0000   1.0000   1.0000   1.0000   1.0000   1.0000   1.0000   1.0000
     1.0000   1.0000   0.0000   0.0000   0.0000   0.0000   0.0000   0.0000

          k = 0.0833 0.3465-0.3969 ( 20589 PWs)   bands (ev):

   -69.8124 -69.8120 -65.2430 -65.2411 -38.8670 -38.8658 -38.8510 -38.8492
   -38.8313 -38.8312 -29.6101 -29.6002 -29.5363 -29.5245 -29.4502 -29.4417
    -8.5041  -8.2760  -7.9471  -7.7998  -7.6789  -7.5514  -7.3596  -7.1878
     3.1679   3.4233   3.5016   3.5354   4.0298   4.1979   4.3477   4.4218
     4.6125   5.0046   5.0861   5.2702   5.3286   5.5234   5.8775   5.9662
     6.0373   6.2277   6.3762   6.5511   6.8883   7.0760   7.3897   7.4657
     7.5580   7.6479   8.0617   8.1557   8.3539   8.5100   9.1288   9.3930
     9.5408   9.8745  12.3163  12.5953  12.9358  13.0318  13.1188  13.2451

     occupation numbers 
     1.0000   1.0000   1.0000   1.0000   1.0000   1.0000   1.0000   1.0000
     1.0000   1.0000   1.0000   1.0000   1.0000   1.0000   1.0000   1.0000
     1.0000   1.0000   1.0000   1.0000   1.0000   1.0000   1.0000   1.0000
     1.0000   1.0000   1.0000   1.0000   1.0000   1.0000   1.0000   1.0000
     1.0000   1.0000   1.0000   1.0000   1.0000   1.0000   1.0000   1.0000
     1.0000   1.0000   1.0000   1.0000   1.0000   1.0000   1.0000   1.0000
     1.0000   1.0000   1.0000   1.0000   1.0000   1.0000   1.0000   1.0000
     1.0000   1.0000   0.0000   0.0000   0.0000   0.0000   0.0000   0.0000

          k = 0.0833 0.3465-0.2375 ( 20609 PWs)   bands (ev):

   -69.8126 -69.8116 -65.2447 -65.2395 -38.8675 -38.8637 -38.8538 -38.8483
   -38.8313 -38.8309 -29.6143 -29.5865 -29.5463 -29.5115 -29.4643 -29.4392
    -8.7390  -8.2258  -7.9374  -7.7149  -7.6212  -7.5407  -7.3924  -7.1078
     3.2437   3.4240   3.4987   3.7015   3.8828   3.9780   4.1206   4.4983
     4.6945   4.8302   4.9541   5.1963   5.4493   5.5584   5.8617   6.0207
     6.1956   6.2690   6.4619   6.8926   6.9791   7.1575   7.3547   7.3701
     7.5903   7.6377   8.0172   8.1352   8.3705   8.5495   9.1653   9.2297
     9.4322   9.6755  12.1826  12.7286  12.9075  13.1008  13.1620  13.4951

     occupation numbers 
     1.0000   1.0000   1.0000   1.0000   1.0000   1.0000   1.0000   1.0000
     1.0000   1.0000   1.0000   1.0000   1.0000   1.0000   1.0000   1.0000
     1.0000   1.0000   1.0000   1.0000   1.0000   1.0000   1.0000   1.0000
     1.0000   1.0000   1.0000   1.0000   1.0000   1.0000   1.0000   1.0000
     1.0000   1.0000   1.0000   1.0000   1.0000   1.0000   1.0000   1.0000
     1.0000   1.0000   1.0000   1.0000   1.0000   1.0000   1.0000   1.0000
     1.0000   1.0000   1.0000   1.0000   1.0000   1.0000   1.0000   1.0000
     1.0000   1.0000   0.0000   0.0000   0.0000   0.0000   0.0000   0.0000

          k = 0.0833 0.3465-0.0781 ( 20629 PWs)   bands (ev):

   -69.8128 -69.8113 -65.2456 -65.2385 -38.8676 -38.8607 -38.8572 -38.8481
   -38.8313 -38.8307 -29.6147 -29.5748 -29.5536 -29.4972 -29.4810 -29.4400
    -8.8824  -8.2651  -7.8295  -7.7350  -7.6435  -7.5471  -7.2712  -7.0769
     3.3003   3.4781   3.5216   3.5663   3.7361   4.0075   4.1908   4.2733
     4.4279   4.8231   5.0106   5.4132   5.4581   5.7227   5.9890   6.0361
     6.2048   6.3508   6.5260   6.9237   7.0334   7.0710   7.1595   7.2439
     7.5401   7.8458   8.0579   8.2560   8.4047   8.5265   9.0662   9.1531
     9.3434   9.6854  12.1666  12.6696  12.8892  13.1652  13.4450  13.6597

     occupation numbers 
     1.0000   1.0000   1.0000   1.0000   1.0000   1.0000   1.0000   1.0000
     1.0000   1.0000   1.0000   1.0000   1.0000   1.0000   1.0000   1.0000
     1.0000   1.0000   1.0000   1.0000   1.0000   1.0000   1.0000   1.0000
     1.0000   1.0000   1.0000   1.0000   1.0000   1.0000   1.0000   1.0000
     1.0000   1.0000   1.0000   1.0000   1.0000   1.0000   1.0000   1.0000
     1.0000   1.0000   1.0000   1.0000   1.0000   1.0000   1.0000   1.0000
     1.0000   1.0000   1.0000   1.0000   1.0000   1.0000   1.0000   1.0000
     1.0000   1.0000   0.0000   0.0000   0.0000   0.0000   0.0000   0.0000

          k = 0.2500 0.0693 0.0844 ( 20584 PWs)   bands (ev):

   -69.8128 -69.8113 -65.2456 -65.2386 -38.8677 -38.8606 -38.8572 -38.8480
   -38.8313 -38.8307 -29.6157 -29.5765 -29.5545 -29.4961 -29.4801 -29.4395
    -8.9770  -7.9934  -7.9487  -7.7739  -7.5804  -7.4494  -7.2799  -7.2314
     3.1151   3.2559   3.4016   3.5130   3.6163   3.9955   4.0775   4.6014
     4.6907   4.8286   5.0081   5.1619   5.3964   5.8989   6.1871   6.2475
     6.3718   6.4366   6.6513   6.6918   6.9408   7.1478   7.3144   7.4629
     7.6083   7.6950   7.9288   8.2088   8.4499   8.6044   8.8936   9.1973
     9.4038   9.6512  12.4699  12.5620  12.6949  13.0144  13.6802  13.6962

     occupation numbers 
     1.0000   1.0000   1.0000   1.0000   1.0000   1.0000   1.0000   1.0000
     1.0000   1.0000   1.0000   1.0000   1.0000   1.0000   1.0000   1.0000
     1.0000   1.0000   1.0000   1.0000   1.0000   1.0000   1.0000   1.0000
     1.0000   1.0000   1.0000   1.0000   1.0000   1.0000   1.0000   1.0000
     1.0000   1.0000   1.0000   1.0000   1.0000   1.0000   1.0000   1.0000
     1.0000   1.0000   1.0000   1.0000   1.0000   1.0000   1.0000   1.0000
     1.0000   1.0000   1.0000   1.0000   1.0000   1.0000   1.0000   1.0000
     1.0000   1.0000   0.0000   0.0000   0.0000   0.0000   0.0000   0.0000

          k = 0.2500 0.0693 0.2438 ( 20572 PWs)   bands (ev):

   -69.8126 -69.8116 -65.2447 -65.2395 -38.8676 -38.8636 -38.8538 -38.8483
   -38.8314 -38.8309 -29.6140 -29.5865 -29.5474 -29.5111 -29.4643 -29.4397
    -8.8057  -8.0052  -8.0012  -7.8719  -7.5673  -7.4863  -7.2909  -7.2237
     3.2068   3.3140   3.4560   3.5241   3.7493   3.8773   4.0363   4.2220
     4.6629   4.9652   5.0741   5.1990   5.6372   5.9410   5.9526   6.1923
     6.3207   6.3695   6.5473   6.6030   6.7915   7.1912   7.4382   7.5264
     7.7001   7.8101   7.9282   8.1389   8.4573   8.4919   8.7994   9.2269
     9.5780   9.8625  12.4110  12.6524  12.7271  13.0100  13.5463  13.5771

     occupation numbers 
     1.0000   1.0000   1.0000   1.0000   1.0000   1.0000   1.0000   1.0000
     1.0000   1.0000   1.0000   1.0000   1.0000   1.0000   1.0000   1.0000
     1.0000   1.0000   1.0000   1.0000   1.0000   1.0000   1.0000   1.0000
     1.0000   1.0000   1.0000   1.0000   1.0000   1.0000   1.0000   1.0000
     1.0000   1.0000   1.0000   1.0000   1.0000   1.0000   1.0000   1.0000
     1.0000   1.0000   1.0000   1.0000   1.0000   1.0000   1.0000   1.0000
     1.0000   1.0000   1.0000   1.0000   1.0000   1.0000   1.0000   1.0000
     1.0000   1.0000   0.0000   0.0000   0.0000   0.0000   0.0000   0.0000

          k = 0.2500 0.0693 0.4032 ( 20572 PWs)   bands (ev):

   -69.8123 -69.8119 -65.2432 -65.2412 -38.8670 -38.8657 -38.8511 -38.8493
   -38.8314 -38.8312 -29.6086 -29.5988 -29.5371 -29.5249 -29.4512 -29.4429
    -8.5131  -8.2032  -8.0068  -7.9259  -7.6248  -7.5303  -7.2562  -7.2140
     3.2098   3.2979   3.4230   3.5433   3.7998   4.0003   4.1223   4.1878
     4.8688   4.9171   5.2090   5.2493   5.5647   5.6841   5.8052   5.8366
     6.3170   6.4527   6.4691   6.6745   6.9731   7.0608   7.3658   7.4196
     7.5757   7.9333   8.1075   8.2258   8.4301   8.5572   8.8169   9.2801
     9.6115   9.8264  12.4075  12.6834  12.9450  13.0310  13.2326  13.3014

     occupation numbers 
     1.0000   1.0000   1.0000   1.0000   1.0000   1.0000   1.0000   1.0000
     1.0000   1.0000   1.0000   1.0000   1.0000   1.0000   1.0000   1.0000
     1.0000   1.0000   1.0000   1.0000   1.0000   1.0000   1.0000   1.0000
     1.0000   1.0000   1.0000   1.0000   1.0000   1.0000   1.0000   1.0000
     1.0000   1.0000   1.0000   1.0000   1.0000   1.0000   1.0000   1.0000
     1.0000   1.0000   1.0000   1.0000   1.0000   1.0000   1.0000   1.0000
     1.0000   1.0000   1.0000   1.0000   1.0000   1.0000   1.0000   1.0000
     1.0000   1.0000   0.0000   0.0000   0.0000   0.0000   0.0000   0.0000

          k = 0.2500 0.0693-0.3938 ( 20593 PWs)   bands (ev):

   -69.8123 -69.8119 -65.2431 -65.2414 -38.8670 -38.8657 -38.8511 -38.8493
   -38.8314 -38.8312 -29.6085 -29.5987 -29.5372 -29.5247 -29.4513 -29.4430
    -8.5415  -8.1727  -7.9848  -7.9082  -7.6290  -7.5796  -7.2464  -7.2174
     3.1018   3.2816   3.4752   3.6395   3.7678   4.0742   4.2205   4.3469
     4.5529   5.0214   5.1422   5.2474   5.4386   5.7351   5.7867   5.8237
     6.3491   6.5050   6.5906   6.7588   6.9552   7.1435   7.2900   7.3819
     7.4390   7.8628   8.1040   8.3264   8.4196   8.5441   8.9077   9.2828
     9.5547   9.6349  12.4526  12.7142  12.8522  12.9990  13.0836  13.3638

     occupation numbers 
     1.0000   1.0000   1.0000   1.0000   1.0000   1.0000   1.0000   1.0000
     1.0000   1.0000   1.0000   1.0000   1.0000   1.0000   1.0000   1.0000
     1.0000   1.0000   1.0000   1.0000   1.0000   1.0000   1.0000   1.0000
     1.0000   1.0000   1.0000   1.0000   1.0000   1.0000   1.0000   1.0000
     1.0000   1.0000   1.0000   1.0000   1.0000   1.0000   1.0000   1.0000
     1.0000   1.0000   1.0000   1.0000   1.0000   1.0000   1.0000   1.0000
     1.0000   1.0000   1.0000   1.0000   1.0000   1.0000   1.0000   1.0000
     1.0000   1.0000   0.0000   0.0000   0.0000   0.0000   0.0000   0.0000

          k = 0.2500 0.0693-0.2344 ( 20627 PWs)   bands (ev):

   -69.8126 -69.8116 -65.2447 -65.2398 -38.8676 -38.8636 -38.8538 -38.8484
   -38.8314 -38.8309 -29.6137 -29.5865 -29.5473 -29.5110 -29.4643 -29.4398
    -8.8295  -8.0014  -7.8836  -7.8032  -7.7004  -7.5874  -7.2671  -7.1900
     3.0890   3.1679   3.4564   3.7050   3.8225   3.9911   4.3109   4.4441
     4.4679   4.8610   4.8953   5.3138   5.4672   5.7836   5.9257   6.1509
     6.2322   6.5050   6.7145   6.8268   7.0185   7.0523   7.2519   7.4094
     7.6278   7.8184   8.1089   8.1954   8.3690   8.5465   9.0080   9.0978
     9.3612   9.5670  12.3701  12.6738  12.7340  13.0890  13.1715  13.5957

     occupation numbers 
     1.0000   1.0000   1.0000   1.0000   1.0000   1.0000   1.0000   1.0000
     1.0000   1.0000   1.0000   1.0000   1.0000   1.0000   1.0000   1.0000
     1.0000   1.0000   1.0000   1.0000   1.0000   1.0000   1.0000   1.0000
     1.0000   1.0000   1.0000   1.0000   1.0000   1.0000   1.0000   1.0000
     1.0000   1.0000   1.0000   1.0000   1.0000   1.0000   1.0000   1.0000
     1.0000   1.0000   1.0000   1.0000   1.0000   1.0000   1.0000   1.0000
     1.0000   1.0000   1.0000   1.0000   1.0000   1.0000   1.0000   1.0000
     1.0000   1.0000   0.0000   0.0000   0.0000   0.0000   0.0000   0.0000

          k = 0.2500 0.0693-0.0750 ( 20593 PWs)   bands (ev):

   -69.8128 -69.8113 -65.2456 -65.2387 -38.8677 -38.8606 -38.8572 -38.8480
   -38.8313 -38.8307 -29.6155 -29.5766 -29.5543 -29.4963 -29.4799 -29.4396
    -8.9862  -8.0066  -7.8488  -7.7092  -7.6829  -7.5610  -7.2468  -7.1976
     3.0683   3.2278   3.2563   3.5958   3.7769   4.1164   4.2044   4.4250
     4.7048   4.8558   5.0130   5.2054   5.3903   5.7192   6.0883   6.2641
     6.3886   6.4269   6.6872   6.7527   6.9644   7.1549   7.3014   7.5309
     7.6203   7.6367   7.9491   8.2941   8.4095   8.6897   8.9598   9.0655
     9.3227   9.4732  12.4355  12.5131  12.7660  13.0276  13.5008  13.7089

     occupation numbers 
     1.0000   1.0000   1.0000   1.0000   1.0000   1.0000   1.0000   1.0000
     1.0000   1.0000   1.0000   1.0000   1.0000   1.0000   1.0000   1.0000
     1.0000   1.0000   1.0000   1.0000   1.0000   1.0000   1.0000   1.0000
     1.0000   1.0000   1.0000   1.0000   1.0000   1.0000   1.0000   1.0000
     1.0000   1.0000   1.0000   1.0000   1.0000   1.0000   1.0000   1.0000
     1.0000   1.0000   1.0000   1.0000   1.0000   1.0000   1.0000   1.0000
     1.0000   1.0000   1.0000   1.0000   1.0000   1.0000   1.0000   1.0000
     1.0000   1.0000   0.0000   0.0000   0.0000   0.0000   0.0000   0.0000

          k = 0.2500 0.2079 0.0844 ( 20594 PWs)   bands (ev):

   -69.8128 -69.8113 -65.2457 -65.2386 -38.8677 -38.8607 -38.8572 -38.8481
   -38.8313 -38.8307 -29.6153 -29.5755 -29.5544 -29.4966 -29.4807 -29.4398
    -8.9053  -8.1045  -7.9647  -7.7437  -7.6092  -7.4424  -7.2816  -7.1931
     3.0555   3.3486   3.4881   3.6360   3.6768   3.8892   4.0992   4.4975
     4.6367   4.9016   5.0505   5.3026   5.4819   5.6353   6.0755   6.2199
     6.2853   6.5500   6.7042   6.8242   6.8700   7.0670   7.3144   7.3808
     7.4770   7.6499   7.9517   8.2306   8.4051   8.5858   8.8492   9.2520
     9.4012   9.6942  12.3218  12.5462  12.8068  13.1967  13.6101  13.6601

     occupation numbers 
     1.0000   1.0000   1.0000   1.0000   1.0000   1.0000   1.0000   1.0000
     1.0000   1.0000   1.0000   1.0000   1.0000   1.0000   1.0000   1.0000
     1.0000   1.0000   1.0000   1.0000   1.0000   1.0000   1.0000   1.0000
     1.0000   1.0000   1.0000   1.0000   1.0000   1.0000   1.0000   1.0000
     1.0000   1.0000   1.0000   1.0000   1.0000   1.0000   1.0000   1.0000
     1.0000   1.0000   1.0000   1.0000   1.0000   1.0000   1.0000   1.0000
     1.0000   1.0000   1.0000   1.0000   1.0000   1.0000   1.0000   1.0000
     1.0000   1.0000   0.0000   0.0000   0.0000   0.0000   0.0000   0.0000

          k = 0.2500 0.2079 0.2438 ( 20584 PWs)   bands (ev):

   -69.8126 -69.8116 -65.2448 -65.2396 -38.8675 -38.8636 -38.8538 -38.8483
   -38.8314 -38.8309 -29.6142 -29.5864 -29.5471 -29.5114 -29.4644 -29.4395
    -8.7480  -8.1345  -7.9866  -7.8062  -7.5700  -7.4797  -7.3461  -7.1909
     3.0971   3.2479   3.5148   3.7436   3.8138   3.8769   4.1529   4.2977
     4.6177   4.9365   5.1059   5.2051   5.4568   5.7619   6.0209   6.1895
     6.2956   6.4914   6.5821   6.6644   6.9045   7.1617   7.3386   7.4252
     7.5509   7.7558   7.8456   8.0560   8.3668   8.4916   8.9061   9.3741
     9.4199   9.9229  12.2615  12.6909  12.8373  13.1663  13.4875  13.5357

     occupation numbers 
     1.0000   1.0000   1.0000   1.0000   1.0000   1.0000   1.0000   1.0000
     1.0000   1.0000   1.0000   1.0000   1.0000   1.0000   1.0000   1.0000
     1.0000   1.0000   1.0000   1.0000   1.0000   1.0000   1.0000   1.0000
     1.0000   1.0000   1.0000   1.0000   1.0000   1.0000   1.0000   1.0000
     1.0000   1.0000   1.0000   1.0000   1.0000   1.0000   1.0000   1.0000
     1.0000   1.0000   1.0000   1.0000   1.0000   1.0000   1.0000   1.0000
     1.0000   1.0000   1.0000   1.0000   1.0000   1.0000   1.0000   1.0000
     1.0000   1.0000   0.0000   0.0000   0.0000   0.0000   0.0000   0.0000

          k = 0.2500 0.2079 0.4032 ( 20568 PWs)   bands (ev):

   -69.8123 -69.8120 -65.2432 -65.2413 -38.8670 -38.8658 -38.8510 -38.8492
   -38.8314 -38.8312 -29.6093 -29.5995 -29.5369 -29.5249 -29.4507 -29.4423
    -8.4855  -8.2326  -8.0244  -7.8663  -7.6428  -7.5222  -7.2817  -7.2277
     3.1450   3.2770   3.4494   3.5965   3.8017   4.1483   4.2498   4.3319
     4.6897   4.7588   5.2562   5.3451   5.4733   5.7231   5.7981   5.8953
     6.3167   6.3975   6.4696   6.8876   6.9532   7.0281   7.2760   7.3793
     7.5565   7.7161   8.0226   8.1164   8.3471   8.5159   8.9900   9.3001
     9.4697   9.9224  12.3673  12.6530  12.9440  13.1214  13.2606  13.3049

     occupation numbers 
     1.0000   1.0000   1.0000   1.0000   1.0000   1.0000   1.0000   1.0000
     1.0000   1.0000   1.0000   1.0000   1.0000   1.0000   1.0000   1.0000
     1.0000   1.0000   1.0000   1.0000   1.0000   1.0000   1.0000   1.0000
     1.0000   1.0000   1.0000   1.0000   1.0000   1.0000   1.0000   1.0000
     1.0000   1.0000   1.0000   1.0000   1.0000   1.0000   1.0000   1.0000
     1.0000   1.0000   1.0000   1.0000   1.0000   1.0000   1.0000   1.0000
     1.0000   1.0000   1.0000   1.0000   1.0000   1.0000   1.0000   1.0000
     1.0000   1.0000   0.0000   0.0000   0.0000   0.0000   0.0000   0.0000

          k = 0.2500 0.2079-0.3938 ( 20612 PWs)   bands (ev):

   -69.8123 -69.8120 -65.2432 -65.2414 -38.8670 -38.8658 -38.8510 -38.8492
   -38.8314 -38.8312 -29.6092 -29.5994 -29.5369 -29.5247 -29.4508 -29.4423
    -8.5054  -8.1931  -8.0364  -7.8474  -7.6597  -7.5442  -7.2968  -7.2048
     3.1587   3.3294   3.4381   3.6745   3.7648   4.0942   4.1780   4.4457
     4.5140   4.9498   5.1326   5.3617   5.4993   5.6802   5.8331   5.9630
     6.2622   6.3868   6.4941   6.7565   7.0620   7.2073   7.2817   7.3212
     7.4507   7.6818   8.0145   8.3049   8.3438   8.4878   9.0711   9.2638
     9.4444   9.6606  12.3574  12.7054  12.8796  13.0019  13.1966  13.3386

     occupation numbers 
     1.0000   1.0000   1.0000   1.0000   1.0000   1.0000   1.0000   1.0000
     1.0000   1.0000   1.0000   1.0000   1.0000   1.0000   1.0000   1.0000
     1.0000   1.0000   1.0000   1.0000   1.0000   1.0000   1.0000   1.0000
     1.0000   1.0000   1.0000   1.0000   1.0000   1.0000   1.0000   1.0000
     1.0000   1.0000   1.0000   1.0000   1.0000   1.0000   1.0000   1.0000
     1.0000   1.0000   1.0000   1.0000   1.0000   1.0000   1.0000   1.0000
     1.0000   1.0000   1.0000   1.0000   1.0000   1.0000   1.0000   1.0000
     1.0000   1.0000   0.0000   0.0000   0.0000   0.0000   0.0000   0.0000

          k = 0.2500 0.2079-0.2344 ( 20611 PWs)   bands (ev):

   -69.8126 -69.8116 -65.2448 -65.2397 -38.8675 -38.8636 -38.8538 -38.8484
   -38.8314 -38.8309 -29.6139 -29.5865 -29.5469 -29.5114 -29.4644 -29.4395
    -8.7663  -8.0870  -7.9405  -7.7369  -7.7067  -7.5863  -7.2895  -7.1577
     3.1331   3.3533   3.4504   3.6099   3.9228   3.9468   4.1477   4.3236
     4.6133   4.8592   5.2183   5.2564   5.4459   5.5494   5.9940   6.1212
     6.3253   6.3880   6.6983   6.8125   6.9826   7.1755   7.1961   7.4067
     7.5792   7.7337   8.0552   8.1132   8.3742   8.6477   9.0546   9.1180
     9.2508   9.5361  12.2773  12.7349  12.7701  13.1097  13.1957  13.5430

     occupation numbers 
     1.0000   1.0000   1.0000   1.0000   1.0000   1.0000   1.0000   1.0000
     1.0000   1.0000   1.0000   1.0000   1.0000   1.0000   1.0000   1.0000
     1.0000   1.0000   1.0000   1.0000   1.0000   1.0000   1.0000   1.0000
     1.0000   1.0000   1.0000   1.0000   1.0000   1.0000   1.0000   1.0000
     1.0000   1.0000   1.0000   1.0000   1.0000   1.0000   1.0000   1.0000
     1.0000   1.0000   1.0000   1.0000   1.0000   1.0000   1.0000   1.0000
     1.0000   1.0000   1.0000   1.0000   1.0000   1.0000   1.0000   1.0000
     1.0000   1.0000   0.0000   0.0000   0.0000   0.0000   0.0000   0.0000

          k = 0.2500 0.2079-0.0750 ( 20629 PWs)   bands (ev):

   -69.8128 -69.8113 -65.2457 -65.2386 -38.8677 -38.8607 -38.8572 -38.8481
   -38.8313 -38.8307 -29.6151 -29.5757 -29.5541 -29.4969 -29.4805 -29.4398
    -8.9128  -8.1031  -7.8583  -7.7617  -7.6895  -7.5164  -7.2450  -7.1621
     3.0750   3.3411   3.4316   3.6202   3.7548   4.0312   4.0601   4.3266
     4.7650   4.9430   5.0778   5.3321   5.3779   5.7259   5.8794   6.0926
     6.3379   6.5586   6.6902   6.8629   6.9449   7.0966   7.3086   7.3470
     7.6197   7.6724   7.8738   8.3113   8.4678   8.7154   8.8480   9.0969
     9.2562   9.5379  12.3817  12.5885  12.6697  13.2013  13.4662  13.6528

     occupation numbers 
     1.0000   1.0000   1.0000   1.0000   1.0000   1.0000   1.0000   1.0000
     1.0000   1.0000   1.0000   1.0000   1.0000   1.0000   1.0000   1.0000
     1.0000   1.0000   1.0000   1.0000   1.0000   1.0000   1.0000   1.0000
     1.0000   1.0000   1.0000   1.0000   1.0000   1.0000   1.0000   1.0000
     1.0000   1.0000   1.0000   1.0000   1.0000   1.0000   1.0000   1.0000
     1.0000   1.0000   1.0000   1.0000   1.0000   1.0000   1.0000   1.0000
     1.0000   1.0000   1.0000   1.0000   1.0000   1.0000   1.0000   1.0000
     1.0000   1.0000   0.0000   0.0000   0.0000   0.0000   0.0000   0.0000

          k = 0.2500 0.3465 0.0844 ( 20617 PWs)   bands (ev):

   -69.8128 -69.8113 -65.2458 -65.2385 -38.8676 -38.8607 -38.8572 -38.8481
   -38.8313 -38.8307 -29.6149 -29.5745 -29.5543 -29.4973 -29.4814 -29.4401
    -8.8107  -8.2419  -7.9557  -7.7393  -7.6237  -7.4470  -7.2685  -7.1684
     3.0798   3.2878   3.6097   3.7420   3.7858   3.8129   4.1612   4.5255
     4.5421   4.8798   5.0993   5.1854   5.5053   5.6455   6.0579   6.1475
     6.4186   6.5862   6.6999   6.7921   6.8621   7.0062   7.0432   7.2855
     7.4424   7.7118   8.0167   8.1409   8.4916   8.5344   8.8969   9.0804
     9.5571   9.6901  12.1715  12.6500  12.9565  13.2524  13.4673  13.6781

     occupation numbers 
     1.0000   1.0000   1.0000   1.0000   1.0000   1.0000   1.0000   1.0000
     1.0000   1.0000   1.0000   1.0000   1.0000   1.0000   1.0000   1.0000
     1.0000   1.0000   1.0000   1.0000   1.0000   1.0000   1.0000   1.0000
     1.0000   1.0000   1.0000   1.0000   1.0000   1.0000   1.0000   1.0000
     1.0000   1.0000   1.0000   1.0000   1.0000   1.0000   1.0000   1.0000
     1.0000   1.0000   1.0000   1.0000   1.0000   1.0000   1.0000   1.0000
     1.0000   1.0000   1.0000   1.0000   1.0000   1.0000   1.0000   1.0000
     1.0000   1.0000   0.0000   0.0000   0.0000   0.0000   0.0000   0.0000

          k = 0.2500 0.3465 0.2438 ( 20601 PWs)   bands (ev):

   -69.8126 -69.8116 -65.2448 -65.2396 -38.8675 -38.8637 -38.8538 -38.8483
   -38.8314 -38.8309 -29.6144 -29.5864 -29.5468 -29.5117 -29.4645 -29.4392
    -8.6712  -8.2497  -7.9681  -7.7835  -7.5504  -7.4909  -7.3864  -7.1720
     3.0620   3.1917   3.5395   3.7032   3.9323   4.0484   4.2703   4.4459
     4.6053   4.8865   5.0961   5.1850   5.2534   5.7656   6.0298   6.1189
     6.2822   6.5439   6.5836   6.7338   6.9272   7.1193   7.1983   7.3144
     7.4899   7.7837   7.8526   7.9726   8.3753   8.5125   8.8551   9.1543
     9.5956   9.9641  12.1753  12.7404  13.0190  13.1781  13.4043  13.5341

     occupation numbers 
     1.0000   1.0000   1.0000   1.0000   1.0000   1.0000   1.0000   1.0000
     1.0000   1.0000   1.0000   1.0000   1.0000   1.0000   1.0000   1.0000
     1.0000   1.0000   1.0000   1.0000   1.0000   1.0000   1.0000   1.0000
     1.0000   1.0000   1.0000   1.0000   1.0000   1.0000   1.0000   1.0000
     1.0000   1.0000   1.0000   1.0000   1.0000   1.0000   1.0000   1.0000
     1.0000   1.0000   1.0000   1.0000   1.0000   1.0000   1.0000   1.0000
     1.0000   1.0000   1.0000   1.0000   1.0000   1.0000   1.0000   1.0000
     1.0000   1.0000   0.0000   0.0000   0.0000   0.0000   0.0000   0.0000

          k = 0.2500 0.3465 0.4032 ( 20602 PWs)   bands (ev):

   -69.8124 -69.8120 -65.2432 -65.2414 -38.8670 -38.8658 -38.8510 -38.8492
   -38.8314 -38.8312 -29.6100 -29.6001 -29.5366 -29.5248 -29.4502 -29.4417
    -8.4441  -8.2927  -7.9666  -7.8772  -7.6164  -7.5542  -7.3015  -7.2396
     3.1187   3.2605   3.4249   3.6058   3.9169   4.1492   4.3514   4.4980
     4.7554   4.8435   5.0983   5.1707   5.4769   5.7639   5.7846   5.8767
     6.2790   6.4728   6.5029   6.8786   6.8999   7.0848   7.2978   7.3244
     7.4677   7.6366   7.8959   8.0921   8.3553   8.5040   8.9323   9.0940
     9.5748  10.0082  12.3595  12.6727  12.9104  13.0780  13.3131  13.3830

     occupation numbers 
     1.0000   1.0000   1.0000   1.0000   1.0000   1.0000   1.0000   1.0000
     1.0000   1.0000   1.0000   1.0000   1.0000   1.0000   1.0000   1.0000
     1.0000   1.0000   1.0000   1.0000   1.0000   1.0000   1.0000   1.0000
     1.0000   1.0000   1.0000   1.0000   1.0000   1.0000   1.0000   1.0000
     1.0000   1.0000   1.0000   1.0000   1.0000   1.0000   1.0000   1.0000
     1.0000   1.0000   1.0000   1.0000   1.0000   1.0000   1.0000   1.0000
     1.0000   1.0000   1.0000   1.0000   1.0000   1.0000   1.0000   1.0000
     1.0000   1.0000   0.0000   0.0000   0.0000   0.0000   0.0000   0.0000

          k = 0.2500 0.3465-0.3938 ( 20589 PWs)   bands (ev):

   -69.8124 -69.8120 -65.2433 -65.2413 -38.8670 -38.8658 -38.8510 -38.8492
   -38.8314 -38.8312 -29.6100 -29.6001 -29.5365 -29.5247 -29.4503 -29.4417
    -8.4691  -8.2023  -8.0535  -7.8744  -7.6159  -7.5260  -7.3592  -7.1958
     3.1934   3.3304   3.5235   3.6343   3.8342   4.0343   4.1275   4.4382
     4.6679   4.9502   5.2257   5.3568   5.4374   5.5668   5.9479   6.0658
     6.2503   6.3001   6.5237   6.6441   6.9626   7.2157   7.2964   7.3374
     7.4994   7.5722   7.9237   8.1851   8.4219   8.5347   8.9874   9.1379
     9.4958   9.7032  12.3317  12.5758  12.9897  13.0248  13.2667  13.3160

     occupation numbers 
     1.0000   1.0000   1.0000   1.0000   1.0000   1.0000   1.0000   1.0000
     1.0000   1.0000   1.0000   1.0000   1.0000   1.0000   1.0000   1.0000
     1.0000   1.0000   1.0000   1.0000   1.0000   1.0000   1.0000   1.0000
     1.0000   1.0000   1.0000   1.0000   1.0000   1.0000   1.0000   1.0000
     1.0000   1.0000   1.0000   1.0000   1.0000   1.0000   1.0000   1.0000
     1.0000   1.0000   1.0000   1.0000   1.0000   1.0000   1.0000   1.0000
     1.0000   1.0000   1.0000   1.0000   1.0000   1.0000   1.0000   1.0000
     1.0000   1.0000   0.0000   0.0000   0.0000   0.0000   0.0000   0.0000

          k = 0.2500 0.3465-0.2344 ( 20600 PWs)   bands (ev):

   -69.8126 -69.8116 -65.2450 -65.2396 -38.8675 -38.8637 -38.8538 -38.8484
   -38.8314 -38.8309 -29.6141 -29.5866 -29.5464 -29.5118 -29.4645 -29.4393
    -8.6860  -8.1785  -7.9745  -7.7669  -7.6617  -7.5700  -7.3054  -7.1365
     3.2466   3.3679   3.4852   3.6695   3.8465   4.0169   4.0420   4.3688
     4.6807   4.8397   4.8850   5.4219   5.5344   5.6513   5.9697   6.1252
     6.2586   6.4742   6.7024   6.8197   6.8889   7.0374   7.1214   7.4199
     7.5467   7.6954   7.9718   8.0793   8.5475   8.6872   8.9560   9.1450
     9.3225   9.4015  12.2339  12.7311  12.8838  13.0198  13.2771  13.4897

     occupation numbers 
     1.0000   1.0000   1.0000   1.0000   1.0000   1.0000   1.0000   1.0000
     1.0000   1.0000   1.0000   1.0000   1.0000   1.0000   1.0000   1.0000
     1.0000   1.0000   1.0000   1.0000   1.0000   1.0000   1.0000   1.0000
     1.0000   1.0000   1.0000   1.0000   1.0000   1.0000   1.0000   1.0000
     1.0000   1.0000   1.0000   1.0000   1.0000   1.0000   1.0000   1.0000
     1.0000   1.0000   1.0000   1.0000   1.0000   1.0000   1.0000   1.0000
     1.0000   1.0000   1.0000   1.0000   1.0000   1.0000   1.0000   1.0000
     1.0000   1.0000   0.0000   0.0000   0.0000   0.0000   0.0000   0.0000

          k = 0.2500 0.3465-0.0750 ( 20640 PWs)   bands (ev):

   -69.8128 -69.8113 -65.2458 -65.2385 -38.8676 -38.8607 -38.8572 -38.8481
   -38.8313 -38.8307 -29.6148 -29.5748 -29.5539 -29.4975 -29.4811 -29.4401
    -8.8165  -8.2303  -7.8492  -7.7894  -7.7152  -7.4882  -7.2281  -7.1418
     3.1697   3.4072   3.4634   3.6013   3.8817   3.9275   4.1275   4.3865
     4.5548   4.7238   5.2353   5.3229   5.4827   5.6356   6.0485   6.1077
     6.2877   6.6026   6.6712   6.8204   6.9312   6.9887   7.1191   7.3394
     7.5453   7.6992   7.8944   8.2298   8.5910   8.6704   8.8325   9.1173
     9.3297   9.4813  12.2914  12.6813  12.7478  13.1976  13.4138  13.6388

     occupation numbers 
     1.0000   1.0000   1.0000   1.0000   1.0000   1.0000   1.0000   1.0000
     1.0000   1.0000   1.0000   1.0000   1.0000   1.0000   1.0000   1.0000
     1.0000   1.0000   1.0000   1.0000   1.0000   1.0000   1.0000   1.0000
     1.0000   1.0000   1.0000   1.0000   1.0000   1.0000   1.0000   1.0000
     1.0000   1.0000   1.0000   1.0000   1.0000   1.0000   1.0000   1.0000
     1.0000   1.0000   1.0000   1.0000   1.0000   1.0000   1.0000   1.0000
     1.0000   1.0000   1.0000   1.0000   1.0000   1.0000   1.0000   1.0000
     1.0000   1.0000   0.0000   0.0000   0.0000   0.0000   0.0000   0.0000

          k = 0.4167 0.0693 0.0875 ( 20580 PWs)   bands (ev):

   -69.8128 -69.8113 -65.2456 -65.2385 -38.8677 -38.8606 -38.8572 -38.8480
   -38.8313 -38.8307 -29.6159 -29.5767 -29.5550 -29.4965 -29.4802 -29.4396
    -8.8283  -8.0289  -7.9814  -7.7922  -7.6007  -7.4391  -7.3438  -7.2606
     3.1906   3.3671   3.5283   3.6207   3.7398   3.9139   4.0477   4.3335
     4.6024   4.6713   5.0019   5.3955   5.6814   5.8931   5.9919   6.0796
     6.3991   6.5041   6.5965   6.6881   6.8673   6.9142   7.1216   7.4491
     7.4768   7.8998   7.9684   8.1806   8.5723   8.7796   8.9837   9.1414
     9.5365   9.6929  12.4334  12.5646  12.6999  12.9881  13.4204  13.7716

     occupation numbers 
     1.0000   1.0000   1.0000   1.0000   1.0000   1.0000   1.0000   1.0000
     1.0000   1.0000   1.0000   1.0000   1.0000   1.0000   1.0000   1.0000
     1.0000   1.0000   1.0000   1.0000   1.0000   1.0000   1.0000   1.0000
     1.0000   1.0000   1.0000   1.0000   1.0000   1.0000   1.0000   1.0000
     1.0000   1.0000   1.0000   1.0000   1.0000   1.0000   1.0000   1.0000
     1.0000   1.0000   1.0000   1.0000   1.0000   1.0000   1.0000   1.0000
     1.0000   1.0000   1.0000   1.0000   1.0000   1.0000   1.0000   1.0000
     1.0000   1.0000   0.0000   0.0000   0.0000   0.0000   0.0000   0.0000

          k = 0.4167 0.0693 0.2469 ( 20589 PWs)   bands (ev):

   -69.8126 -69.8116 -65.2448 -65.2396 -38.8676 -38.8636 -38.8538 -38.8484
   -38.8314 -38.8309 -29.6140 -29.5867 -29.5478 -29.5115 -29.4644 -29.4398
    -8.6760  -8.0312  -7.9585  -7.8407  -7.6968  -7.5538  -7.2867  -7.2455
     3.2437   3.3739   3.4926   3.7926   3.8362   3.8601   4.0416   4.2306
     4.5647   4.8336   5.0355   5.3384   5.5389   5.6601   5.8372   5.9435
     6.3203   6.4378   6.5941   6.6444   7.1271   7.2500   7.3419   7.5359
     7.6446   7.6900   7.8528   7.9506   8.6203   8.6946   8.9789   9.2148
     9.5391   9.7718  12.3683  12.7629  12.8052  12.9486  13.3986  13.6487

     occupation numbers 
     1.0000   1.0000   1.0000   1.0000   1.0000   1.0000   1.0000   1.0000
     1.0000   1.0000   1.0000   1.0000   1.0000   1.0000   1.0000   1.0000
     1.0000   1.0000   1.0000   1.0000   1.0000   1.0000   1.0000   1.0000
     1.0000   1.0000   1.0000   1.0000   1.0000   1.0000   1.0000   1.0000
     1.0000   1.0000   1.0000   1.0000   1.0000   1.0000   1.0000   1.0000
     1.0000   1.0000   1.0000   1.0000   1.0000   1.0000   1.0000   1.0000
     1.0000   1.0000   1.0000   1.0000   1.0000   1.0000   1.0000   1.0000
     1.0000   1.0000   0.0000   0.0000   0.0000   0.0000   0.0000   0.0000

          k = 0.4167 0.0693 0.4063 ( 20587 PWs)   bands (ev):

   -69.8123 -69.8119 -65.2433 -65.2414 -38.8670 -38.8657 -38.8511 -38.8493
   -38.8314 -38.8312 -29.6086 -29.5989 -29.5375 -29.5253 -29.4513 -29.4430
    -8.4133  -8.1187  -7.9991  -7.8895  -7.7644  -7.6220  -7.2595  -7.2388
     3.2891   3.4467   3.5189   3.6216   3.7454   4.0527   4.1089   4.2926
     4.6549   4.8416   4.9382   5.2445   5.5780   5.7683   5.8271   5.9295
     6.2108   6.2980   6.4264   6.5450   6.9707   7.2353   7.4739   7.4963
     7.7170   7.8706   7.9571   8.0204   8.4853   8.6645   8.9883   9.3499
     9.5098   9.6983  12.5292  12.7657  12.9157  13.1279  13.1727  13.4102

     occupation numbers 
     1.0000   1.0000   1.0000   1.0000   1.0000   1.0000   1.0000   1.0000
     1.0000   1.0000   1.0000   1.0000   1.0000   1.0000   1.0000   1.0000
     1.0000   1.0000   1.0000   1.0000   1.0000   1.0000   1.0000   1.0000
     1.0000   1.0000   1.0000   1.0000   1.0000   1.0000   1.0000   1.0000
     1.0000   1.0000   1.0000   1.0000   1.0000   1.0000   1.0000   1.0000
     1.0000   1.0000   1.0000   1.0000   1.0000   1.0000   1.0000   1.0000
     1.0000   1.0000   1.0000   1.0000   1.0000   1.0000   1.0000   1.0000
     1.0000   1.0000   0.0000   0.0000   0.0000   0.0000   0.0000   0.0000

          k = 0.4167 0.0693-0.3907 ( 20589 PWs)   bands (ev):

   -69.8123 -69.8119 -65.2433 -65.2415 -38.8670 -38.8657 -38.8511 -38.8493
   -38.8314 -38.8312 -29.6085 -29.5989 -29.5375 -29.5252 -29.4513 -29.4430
    -8.4310  -8.1039  -7.9733  -7.8991  -7.7233  -7.6796  -7.2580  -7.2398
     3.2651   3.3629   3.4817   3.6816   4.0128   4.0331   4.0876   4.2714
     4.5852   4.7747   4.9759   5.3236   5.4516   5.6837   5.8542   6.0361
     6.1977   6.2541   6.5366   6.6666   6.9487   7.0667   7.3554   7.4958
     7.7195   7.8541   8.0559   8.1922   8.5238   8.5640   8.9651   9.2466
     9.5433   9.6611  12.5712  12.7594  12.9107  13.0299  13.1303  13.4352

     occupation numbers 
     1.0000   1.0000   1.0000   1.0000   1.0000   1.0000   1.0000   1.0000
     1.0000   1.0000   1.0000   1.0000   1.0000   1.0000   1.0000   1.0000
     1.0000   1.0000   1.0000   1.0000   1.0000   1.0000   1.0000   1.0000
     1.0000   1.0000   1.0000   1.0000   1.0000   1.0000   1.0000   1.0000
     1.0000   1.0000   1.0000   1.0000   1.0000   1.0000   1.0000   1.0000
     1.0000   1.0000   1.0000   1.0000   1.0000   1.0000   1.0000   1.0000
     1.0000   1.0000   1.0000   1.0000   1.0000   1.0000   1.0000   1.0000
     1.0000   1.0000   0.0000   0.0000   0.0000   0.0000   0.0000   0.0000

          k = 0.4167 0.0693-0.2313 ( 20619 PWs)   bands (ev):

   -69.8126 -69.8116 -65.2448 -65.2397 -38.8676 -38.8636 -38.8538 -38.8484
   -38.8314 -38.8309 -29.6139 -29.5867 -29.5477 -29.5115 -29.4644 -29.4398
    -8.6925  -8.0197  -7.8684  -7.8123  -7.7694  -7.6225  -7.2759  -7.2339
     3.1701   3.3060   3.5865   3.7464   3.8785   3.9277   4.0715   4.4040
     4.5866   4.7930   4.9660   5.3753   5.5174   5.5448   5.8001   6.0339
     6.2445   6.4513   6.5966   6.7289   6.9462   7.1960   7.3398   7.5581
     7.6569   7.7760   7.8558   8.2593   8.5735   8.6660   8.8884   9.0979
     9.4988   9.6838  12.3785  12.7278  12.8652  12.9711  13.1707  13.6571

     occupation numbers 
     1.0000   1.0000   1.0000   1.0000   1.0000   1.0000   1.0000   1.0000
     1.0000   1.0000   1.0000   1.0000   1.0000   1.0000   1.0000   1.0000
     1.0000   1.0000   1.0000   1.0000   1.0000   1.0000   1.0000   1.0000
     1.0000   1.0000   1.0000   1.0000   1.0000   1.0000   1.0000   1.0000
     1.0000   1.0000   1.0000   1.0000   1.0000   1.0000   1.0000   1.0000
     1.0000   1.0000   1.0000   1.0000   1.0000   1.0000   1.0000   1.0000
     1.0000   1.0000   1.0000   1.0000   1.0000   1.0000   1.0000   1.0000
     1.0000   1.0000   0.0000   0.0000   0.0000   0.0000   0.0000   0.0000

          k = 0.4167 0.0693-0.0719 ( 20589 PWs)   bands (ev):

   -69.8128 -69.8113 -65.2456 -65.2386 -38.8677 -38.8606 -38.8572 -38.8481
   -38.8313 -38.8307 -29.6158 -29.5767 -29.5549 -29.4966 -29.4801 -29.4396
    -8.8349  -8.0208  -7.9592  -7.7567  -7.6519  -7.4926  -7.3230  -7.2385
     3.1694   3.3320   3.4600   3.7361   3.7818   3.8766   4.1028   4.4180
     4.4551   4.7173   5.1544   5.3815   5.6202   5.7588   6.0497   6.1805
     6.2880   6.4221   6.5960   6.6332   6.8238   6.9088   7.2938   7.4267
     7.5248   7.8531   7.9979   8.3701   8.5069   8.7986   8.8891   9.1191
     9.4985   9.6277  12.3992  12.5800  12.7632  12.9738  13.3120  13.7692

     occupation numbers 
     1.0000   1.0000   1.0000   1.0000   1.0000   1.0000   1.0000   1.0000
     1.0000   1.0000   1.0000   1.0000   1.0000   1.0000   1.0000   1.0000
     1.0000   1.0000   1.0000   1.0000   1.0000   1.0000   1.0000   1.0000
     1.0000   1.0000   1.0000   1.0000   1.0000   1.0000   1.0000   1.0000
     1.0000   1.0000   1.0000   1.0000   1.0000   1.0000   1.0000   1.0000
     1.0000   1.0000   1.0000   1.0000   1.0000   1.0000   1.0000   1.0000
     1.0000   1.0000   1.0000   1.0000   1.0000   1.0000   1.0000   1.0000
     1.0000   1.0000   0.0000   0.0000   0.0000   0.0000   0.0000   0.0000

          k = 0.4167 0.2079 0.0875 ( 20617 PWs)   bands (ev):

   -69.8128 -69.8113 -65.2458 -65.2385 -38.8677 -38.8607 -38.8572 -38.8481
   -38.8313 -38.8307 -29.6154 -29.5756 -29.5548 -29.4970 -29.4808 -29.4399
    -8.7860  -8.1146  -7.9994  -7.7730  -7.6333  -7.4265  -7.3118  -7.2244
     3.0069   3.3312   3.5419   3.7406   3.7588   3.9853   4.0854   4.3092
     4.6407   4.8696   5.0674   5.2971   5.6429   5.8422   6.0039   6.1459
     6.3168   6.5014   6.5554   6.7117   6.7944   6.9746   7.1579   7.4482
     7.4665   7.7844   8.0785   8.2018   8.5280   8.7905   8.9316   9.0507
     9.3074   9.6418  12.3485  12.6221  12.7723  13.0868  13.4479  13.7357

     occupation numbers 
     1.0000   1.0000   1.0000   1.0000   1.0000   1.0000   1.0000   1.0000
     1.0000   1.0000   1.0000   1.0000   1.0000   1.0000   1.0000   1.0000
     1.0000   1.0000   1.0000   1.0000   1.0000   1.0000   1.0000   1.0000
     1.0000   1.0000   1.0000   1.0000   1.0000   1.0000   1.0000   1.0000
     1.0000   1.0000   1.0000   1.0000   1.0000   1.0000   1.0000   1.0000
     1.0000   1.0000   1.0000   1.0000   1.0000   1.0000   1.0000   1.0000
     1.0000   1.0000   1.0000   1.0000   1.0000   1.0000   1.0000   1.0000
     1.0000   1.0000   0.0000   0.0000   0.0000   0.0000   0.0000   0.0000

          k = 0.4167 0.2079 0.2469 ( 20606 PWs)   bands (ev):

   -69.8126 -69.8116 -65.2449 -65.2397 -38.8675 -38.8636 -38.8538 -38.8484
   -38.8314 -38.8309 -29.6141 -29.5866 -29.5474 -29.5117 -29.4645 -29.4395
    -8.6462  -8.1358  -7.9780  -7.8055  -7.6722  -7.5270  -7.3031  -7.2130
     3.0521   3.3424   3.5555   3.7990   3.8223   3.8831   4.1093   4.2698
     4.7119   4.7519   5.0620   5.3228   5.5777   5.8324   5.9165   6.0354
     6.3933   6.4812   6.5671   6.6224   6.8772   7.1354   7.3497   7.4165
     7.6565   7.6863   7.8584   8.0981   8.5045   8.6992   8.9191   9.1153
     9.2744   9.8115  12.2661  12.8021  12.9252  13.0547  13.3613  13.6186

     occupation numbers 
     1.0000   1.0000   1.0000   1.0000   1.0000   1.0000   1.0000   1.0000
     1.0000   1.0000   1.0000   1.0000   1.0000   1.0000   1.0000   1.0000
     1.0000   1.0000   1.0000   1.0000   1.0000   1.0000   1.0000   1.0000
     1.0000   1.0000   1.0000   1.0000   1.0000   1.0000   1.0000   1.0000
     1.0000   1.0000   1.0000   1.0000   1.0000   1.0000   1.0000   1.0000
     1.0000   1.0000   1.0000   1.0000   1.0000   1.0000   1.0000   1.0000
     1.0000   1.0000   1.0000   1.0000   1.0000   1.0000   1.0000   1.0000
     1.0000   1.0000   0.0000   0.0000   0.0000   0.0000   0.0000   0.0000

          k = 0.4167 0.2079 0.4063 ( 20582 PWs)   bands (ev):

   -69.8123 -69.8120 -65.2434 -65.2415 -38.8670 -38.8658 -38.8510 -38.8492
   -38.8314 -38.8312 -29.6092 -29.5995 -29.5371 -29.5251 -29.4508 -29.4423
    -8.4101  -8.1820  -8.0275  -7.9085  -7.6777  -7.5710  -7.2788  -7.2388
     3.1722   3.4817   3.5034   3.5852   3.6630   4.0276   4.1572   4.2373
     4.7235   4.8923   5.0324   5.4222   5.5894   5.9093   5.9628   5.9952
     6.1469   6.3178   6.4291   6.6593   6.8733   7.1892   7.3293   7.4127
     7.6831   7.8289   7.9385   8.0835   8.4418   8.6562   8.9741   9.0703
     9.3250   9.7305  12.4493  12.7620  13.0321  13.0992  13.2164  13.4151

     occupation numbers 
     1.0000   1.0000   1.0000   1.0000   1.0000   1.0000   1.0000   1.0000
     1.0000   1.0000   1.0000   1.0000   1.0000   1.0000   1.0000   1.0000
     1.0000   1.0000   1.0000   1.0000   1.0000   1.0000   1.0000   1.0000
     1.0000   1.0000   1.0000   1.0000   1.0000   1.0000   1.0000   1.0000
     1.0000   1.0000   1.0000   1.0000   1.0000   1.0000   1.0000   1.0000
     1.0000   1.0000   1.0000   1.0000   1.0000   1.0000   1.0000   1.0000
     1.0000   1.0000   1.0000   1.0000   1.0000   1.0000   1.0000   1.0000
     1.0000   1.0000   0.0000   0.0000   0.0000   0.0000   0.0000   0.0000

          k = 0.4167 0.2079-0.3907 ( 20596 PWs)   bands (ev):

   -69.8123 -69.8120 -65.2434 -65.2416 -38.8670 -38.8658 -38.8510 -38.8492
   -38.8314 -38.8312 -29.6092 -29.5995 -29.5371 -29.5251 -29.4508 -29.4424
    -8.4231  -8.1502  -8.0418  -7.9088  -7.6441  -7.6160  -7.2845  -7.2282
     3.2179   3.4396   3.4832   3.5974   3.8650   3.8787   4.0330   4.2756
     4.6971   4.9958   5.1174   5.3439   5.5934   5.7476   5.8635   6.1119
     6.3030   6.3610   6.4926   6.5891   6.8845   7.0573   7.2616   7.4759
     7.6720   7.7836   8.0453   8.1435   8.4987   8.6634   8.8433   9.1132
     9.3911   9.5651  12.4607  12.7934  12.9172  13.1263  13.1540  13.4196

     occupation numbers 
     1.0000   1.0000   1.0000   1.0000   1.0000   1.0000   1.0000   1.0000
     1.0000   1.0000   1.0000   1.0000   1.0000   1.0000   1.0000   1.0000
     1.0000   1.0000   1.0000   1.0000   1.0000   1.0000   1.0000   1.0000
     1.0000   1.0000   1.0000   1.0000   1.0000   1.0000   1.0000   1.0000
     1.0000   1.0000   1.0000   1.0000   1.0000   1.0000   1.0000   1.0000
     1.0000   1.0000   1.0000   1.0000   1.0000   1.0000   1.0000   1.0000
     1.0000   1.0000   1.0000   1.0000   1.0000   1.0000   1.0000   1.0000
     1.0000   1.0000   0.0000   0.0000   0.0000   0.0000   0.0000   0.0000

          k = 0.4167 0.2079-0.2313 ( 20605 PWs)   bands (ev):

   -69.8126 -69.8116 -65.2450 -65.2397 -38.8675 -38.8636 -38.8538 -38.8484
   -38.8314 -38.8309 -29.6140 -29.5866 -29.5473 -29.5118 -29.4645 -29.4396
    -8.6584  -8.1154  -7.9294  -7.7796  -7.7454  -7.5774  -7.2838  -7.1958
     3.0802   3.4225   3.6153   3.6601   3.7143   3.9303   4.0939   4.3790
     4.5569   4.9401   5.1375   5.3257   5.5845   5.6736   5.8002   6.1721
     6.3343   6.4737   6.5625   6.7021   6.8167   7.1042   7.3690   7.4664
     7.6089   7.7236   7.9714   8.1507   8.6025   8.7230   8.7506   9.1007
     9.3687   9.5019  12.2997  12.8005  12.8811  13.0689  13.1761  13.6105

     occupation numbers 
     1.0000   1.0000   1.0000   1.0000   1.0000   1.0000   1.0000   1.0000
     1.0000   1.0000   1.0000   1.0000   1.0000   1.0000   1.0000   1.0000
     1.0000   1.0000   1.0000   1.0000   1.0000   1.0000   1.0000   1.0000
     1.0000   1.0000   1.0000   1.0000   1.0000   1.0000   1.0000   1.0000
     1.0000   1.0000   1.0000   1.0000   1.0000   1.0000   1.0000   1.0000
     1.0000   1.0000   1.0000   1.0000   1.0000   1.0000   1.0000   1.0000
     1.0000   1.0000   1.0000   1.0000   1.0000   1.0000   1.0000   1.0000
     1.0000   1.0000   0.0000   0.0000   0.0000   0.0000   0.0000   0.0000

          k = 0.4167 0.2079-0.0719 ( 20613 PWs)   bands (ev):

   -69.8128 -69.8113 -65.2458 -65.2386 -38.8677 -38.8607 -38.8572 -38.8481
   -38.8313 -38.8307 -29.6154 -29.5756 -29.5547 -29.4971 -29.4807 -29.4399
    -8.7911  -8.1161  -7.9553  -7.7545  -7.6962  -7.4606  -7.2956  -7.2017
     3.0218   3.3262   3.5818   3.6919   3.7982   3.8879   4.1004   4.3982
     4.5644   4.9663   5.1832   5.2767   5.4896   5.8199   6.0211   6.2105
     6.2936   6.3960   6.4967   6.7197   6.8142   6.9766   7.2891   7.4827
     7.5240   7.7019   8.0333   8.2897   8.5241   8.8280   8.9185   9.1172
     9.2386   9.4746  12.3962  12.6466  12.7085  13.0676  13.3750  13.7298

     occupation numbers 
     1.0000   1.0000   1.0000   1.0000   1.0000   1.0000   1.0000   1.0000
     1.0000   1.0000   1.0000   1.0000   1.0000   1.0000   1.0000   1.0000
     1.0000   1.0000   1.0000   1.0000   1.0000   1.0000   1.0000   1.0000
     1.0000   1.0000   1.0000   1.0000   1.0000   1.0000   1.0000   1.0000
     1.0000   1.0000   1.0000   1.0000   1.0000   1.0000   1.0000   1.0000
     1.0000   1.0000   1.0000   1.0000   1.0000   1.0000   1.0000   1.0000
     1.0000   1.0000   1.0000   1.0000   1.0000   1.0000   1.0000   1.0000
     1.0000   1.0000   0.0000   0.0000   0.0000   0.0000   0.0000   0.0000

          k = 0.4167 0.3465 0.0875 ( 20629 PWs)   bands (ev):

   -69.8128 -69.8113 -65.2460 -65.2386 -38.8676 -38.8607 -38.8572 -38.8481
   -38.8314 -38.8307 -29.6150 -29.5745 -29.5546 -29.4976 -29.4815 -29.4402
    -8.7365  -8.1835  -8.0280  -7.7778  -7.6486  -7.4225  -7.2517  -7.2143
     2.8847   3.3289   3.5118   3.6154   3.8665   3.9986   4.2822   4.5082
     4.7334   4.8362   5.1466   5.2600   5.5189   5.6899   6.0706   6.1111
     6.2491   6.4087   6.5242   6.6700   6.8610   7.1697   7.3170   7.4583
     7.5823   7.6349   7.9570   8.2390   8.3831   8.7896   8.9052   8.9163
     9.2573   9.5132  12.2903  12.6856  12.8413  13.1961  13.4791  13.6600

     occupation numbers 
     1.0000   1.0000   1.0000   1.0000   1.0000   1.0000   1.0000   1.0000
     1.0000   1.0000   1.0000   1.0000   1.0000   1.0000   1.0000   1.0000
     1.0000   1.0000   1.0000   1.0000   1.0000   1.0000   1.0000   1.0000
     1.0000   1.0000   1.0000   1.0000   1.0000   1.0000   1.0000   1.0000
     1.0000   1.0000   1.0000   1.0000   1.0000   1.0000   1.0000   1.0000
     1.0000   1.0000   1.0000   1.0000   1.0000   1.0000   1.0000   1.0000
     1.0000   1.0000   1.0000   1.0000   1.0000   1.0000   1.0000   1.0000
     1.0000   1.0000   0.0000   0.0000   0.0000   0.0000   0.0000   0.0000

          k = 0.4167 0.3465 0.2469 ( 20632 PWs)   bands (ev):

   -69.8126 -69.8116 -65.2451 -65.2397 -38.8675 -38.8637 -38.8538 -38.8484
   -38.8314 -38.8309 -29.6142 -29.5865 -29.5470 -29.5120 -29.4646 -29.4393
    -8.6114  -8.2072  -8.0087  -7.8129  -7.6041  -7.5380  -7.2970  -7.1927
     2.9294   3.3103   3.6035   3.6811   3.8041   3.8490   4.3341   4.3997
     4.7201   4.7892   5.1251   5.3492   5.4857   5.7984   6.1126   6.1791
     6.3441   6.5225   6.5510   6.5657   6.8281   7.0747   7.2869   7.4029
     7.5901   7.7725   7.9028   8.0419   8.4271   8.6335   8.8090   9.0138
     9.2131   9.7401  12.2058  12.8232  13.0797  13.1472  13.3064  13.5726

     occupation numbers 
     1.0000   1.0000   1.0000   1.0000   1.0000   1.0000   1.0000   1.0000
     1.0000   1.0000   1.0000   1.0000   1.0000   1.0000   1.0000   1.0000
     1.0000   1.0000   1.0000   1.0000   1.0000   1.0000   1.0000   1.0000
     1.0000   1.0000   1.0000   1.0000   1.0000   1.0000   1.0000   1.0000
     1.0000   1.0000   1.0000   1.0000   1.0000   1.0000   1.0000   1.0000
     1.0000   1.0000   1.0000   1.0000   1.0000   1.0000   1.0000   1.0000
     1.0000   1.0000   1.0000   1.0000   1.0000   1.0000   1.0000   1.0000
     1.0000   1.0000   0.0000   0.0000   0.0000   0.0000   0.0000   0.0000

          k = 0.4167 0.3465 0.4063 ( 20602 PWs)   bands (ev):

   -69.8124 -69.8120 -65.2435 -65.2416 -38.8670 -38.8658 -38.8510 -38.8492
   -38.8314 -38.8312 -29.6099 -29.6001 -29.5368 -29.5250 -29.4503 -29.4417
    -8.4043  -8.2449  -8.0231  -7.9361  -7.5900  -7.5495  -7.2961  -7.2389
     3.1040   3.4199   3.4587   3.5114   3.7077   3.9477   4.2261   4.2427
     4.9405   4.9609   5.1196   5.3917   5.6619   5.8871   5.9722   6.0294
     6.2548   6.3794   6.5327   6.7293   6.8128   7.0134   7.3191   7.4436
     7.6324   7.7781   7.9255   8.0224   8.4292   8.5673   8.8124   9.0187
     9.2439   9.6190  12.3913  12.8011  12.9937  13.1488  13.2900  13.4072

     occupation numbers 
     1.0000   1.0000   1.0000   1.0000   1.0000   1.0000   1.0000   1.0000
     1.0000   1.0000   1.0000   1.0000   1.0000   1.0000   1.0000   1.0000
     1.0000   1.0000   1.0000   1.0000   1.0000   1.0000   1.0000   1.0000
     1.0000   1.0000   1.0000   1.0000   1.0000   1.0000   1.0000   1.0000
     1.0000   1.0000   1.0000   1.0000   1.0000   1.0000   1.0000   1.0000
     1.0000   1.0000   1.0000   1.0000   1.0000   1.0000   1.0000   1.0000
     1.0000   1.0000   1.0000   1.0000   1.0000   1.0000   1.0000   1.0000
     1.0000   1.0000   0.0000   0.0000   0.0000   0.0000   0.0000   0.0000

          k = 0.4167 0.3465-0.3907 ( 20610 PWs)   bands (ev):

   -69.8124 -69.8120 -65.2436 -65.2416 -38.8670 -38.8658 -38.8510 -38.8492
   -38.8314 -38.8312 -29.6098 -29.6001 -29.5367 -29.5250 -29.4504 -29.4417
    -8.4184  -8.1919  -8.0666  -7.9351  -7.5787  -7.5651  -7.3094  -7.2195
     3.2037   3.3595   3.4963   3.5981   3.7250   3.8159   4.0368   4.2903
     4.8168   5.1023   5.3123   5.3278   5.6531   5.7537   6.0242   6.2107
     6.2648   6.3467   6.5314   6.6867   6.7613   6.9161   7.3472   7.4610
     7.6384   7.7338   7.9722   8.1211   8.3760   8.6339   8.9197   9.0910
     9.1897   9.3711  12.4081  12.6911  13.0564  13.1409  13.2098  13.3958

     occupation numbers 
     1.0000   1.0000   1.0000   1.0000   1.0000   1.0000   1.0000   1.0000
     1.0000   1.0000   1.0000   1.0000   1.0000   1.0000   1.0000   1.0000
     1.0000   1.0000   1.0000   1.0000   1.0000   1.0000   1.0000   1.0000
     1.0000   1.0000   1.0000   1.0000   1.0000   1.0000   1.0000   1.0000
     1.0000   1.0000   1.0000   1.0000   1.0000   1.0000   1.0000   1.0000
     1.0000   1.0000   1.0000   1.0000   1.0000   1.0000   1.0000   1.0000
     1.0000   1.0000   1.0000   1.0000   1.0000   1.0000   1.0000   1.0000
     1.0000   1.0000   0.0000   0.0000   0.0000   0.0000   0.0000   0.0000

          k = 0.4167 0.3465-0.2313 ( 20623 PWs)   bands (ev):

   -69.8126 -69.8116 -65.2452 -65.2397 -38.8675 -38.8637 -38.8538 -38.8484
   -38.8314 -38.8309 -29.6141 -29.5866 -29.5468 -29.5121 -29.4646 -29.4393
    -8.6197  -8.1816  -7.9803  -7.8095  -7.6891  -7.5554  -7.2648  -7.1752
     3.0104   3.4687   3.5007   3.6929   3.7326   3.8575   4.1598   4.3779
     4.6173   4.8810   5.2229   5.3344   5.6980   5.7355   5.9850   6.3038
     6.3488   6.3813   6.5857   6.6457   6.7538   7.0180   7.2961   7.4137
     7.6403   7.8355   7.8902   8.0768   8.5067   8.7244   8.8867   9.0400
     9.1572   9.3391  12.2530  12.8168  12.9540  13.0352  13.3113  13.5255

     occupation numbers 
     1.0000   1.0000   1.0000   1.0000   1.0000   1.0000   1.0000   1.0000
     1.0000   1.0000   1.0000   1.0000   1.0000   1.0000   1.0000   1.0000
     1.0000   1.0000   1.0000   1.0000   1.0000   1.0000   1.0000   1.0000
     1.0000   1.0000   1.0000   1.0000   1.0000   1.0000   1.0000   1.0000
     1.0000   1.0000   1.0000   1.0000   1.0000   1.0000   1.0000   1.0000
     1.0000   1.0000   1.0000   1.0000   1.0000   1.0000   1.0000   1.0000
     1.0000   1.0000   1.0000   1.0000   1.0000   1.0000   1.0000   1.0000
     1.0000   1.0000   0.0000   0.0000   0.0000   0.0000   0.0000   0.0000

          k = 0.4167 0.3465-0.0719 ( 20652 PWs)   bands (ev):

   -69.8128 -69.8113 -65.2460 -65.2386 -38.8676 -38.8607 -38.8572 -38.8481
   -38.8314 -38.8307 -29.6149 -29.5746 -29.5545 -29.4977 -29.4814 -29.4402
    -8.7398  -8.1886  -7.9755  -7.7699  -7.7198  -7.4439  -7.2340  -7.1931
     2.9202   3.3824   3.4697   3.5559   3.9349   4.0354   4.2075   4.4720
     4.6945   4.8204   5.1658   5.2843   5.5982   5.7655   5.9121   6.1003
     6.2451   6.4576   6.5326   6.6424   6.9252   7.0579   7.3999   7.5037
     7.5613   7.7309   7.8457   8.2169   8.5479   8.7703   8.8747   9.0575
     9.1813   9.2841  12.3871  12.7030  12.7095  13.1311  13.4704  13.6417

     occupation numbers 
     1.0000   1.0000   1.0000   1.0000   1.0000   1.0000   1.0000   1.0000
     1.0000   1.0000   1.0000   1.0000   1.0000   1.0000   1.0000   1.0000
     1.0000   1.0000   1.0000   1.0000   1.0000   1.0000   1.0000   1.0000
     1.0000   1.0000   1.0000   1.0000   1.0000   1.0000   1.0000   1.0000
     1.0000   1.0000   1.0000   1.0000   1.0000   1.0000   1.0000   1.0000
     1.0000   1.0000   1.0000   1.0000   1.0000   1.0000   1.0000   1.0000
     1.0000   1.0000   1.0000   1.0000   1.0000   1.0000   1.0000   1.0000
     1.0000   1.0000   0.0000   0.0000   0.0000   0.0000   0.0000   0.0000

 ------ SPIN DOWN ----------


          k = 0.0833 0.0693 0.0813 ( 20599 PWs)   bands (ev):

   -65.2151 -65.2133 -65.1808 -65.1735 -34.0107 -34.0092 -33.9989 -33.9962
   -33.9780 -33.9762 -29.5217 -29.4832 -29.4759 -29.4216 -29.3901 -29.3531
    -9.0311  -7.8809  -7.7745  -7.6125  -7.5185  -7.4082  -7.1890  -7.0349
     3.3198   3.5218   3.7704   4.0077   4.1464   4.6330   4.8437   5.2493
     5.2974   5.8600   5.9536   6.1782   6.2287   6.6212   6.8003   7.0583
     7.3350   7.4661   7.7854   7.9016   7.9756   8.1220   8.4987   8.5995
    12.1986  12.3503  12.7386  12.9670  13.1977  13.4276  15.0004  15.2816
    15.4558  15.5923  15.7411  15.7943  15.8290  15.9629  16.2964  16.3730

     occupation numbers 
     1.0000   1.0000   1.0000   1.0000   1.0000   1.0000   1.0000   1.0000
     1.0000   1.0000   1.0000   1.0000   1.0000   1.0000   1.0000   1.0000
     1.0000   1.0000   1.0000   1.0000   1.0000   1.0000   1.0000   1.0000
     1.0000   1.0000   1.0000   1.0000   1.0000   1.0000   1.0000   1.0000
     1.0000   1.0000   1.0000   1.0000   1.0000   1.0000   1.0000   1.0000
     1.0000   1.0000   1.0000   1.0000   1.0000   1.0000   1.0000   1.0000
     0.0000   0.0000   0.0000   0.0000   0.0000   0.0000   0.0000   0.0000
     0.0000   0.0000   0.0000   0.0000   0.0000   0.0000   0.0000   0.0000

          k = 0.0833 0.0693 0.2406 ( 20604 PWs)   bands (ev):

   -65.2148 -65.2135 -65.1799 -65.1746 -34.0112 -34.0104 -33.9973 -33.9956
   -33.9780 -33.9766 -29.5201 -29.4932 -29.4691 -29.4338 -29.3770 -29.3531
    -8.8513  -7.9275  -7.8637  -7.7549  -7.4413  -7.3602  -7.2151  -7.0578
     3.5331   3.5778   3.8968   3.9670   4.1329   4.2524   4.8719   5.0200
     5.3153   5.9213   5.9509   6.3307   6.4205   6.6845   6.7028   7.0798
     7.1862   7.6525   7.6755   7.7864   7.9326   8.1889   8.4550   8.5426
    12.3230  12.5203  12.6966  12.9360  13.1205  13.3258  14.9793  15.2645
    15.5383  15.6392  15.8279  15.9235  15.9504  16.0816  16.1190  16.1803

     occupation numbers 
     1.0000   1.0000   1.0000   1.0000   1.0000   1.0000   1.0000   1.0000
     1.0000   1.0000   1.0000   1.0000   1.0000   1.0000   1.0000   1.0000
     1.0000   1.0000   1.0000   1.0000   1.0000   1.0000   1.0000   1.0000
     1.0000   1.0000   1.0000   1.0000   1.0000   1.0000   1.0000   1.0000
     1.0000   1.0000   1.0000   1.0000   1.0000   1.0000   1.0000   1.0000
     1.0000   1.0000   1.0000   1.0000   1.0000   1.0000   1.0000   1.0000
     0.0000   0.0000   0.0000   0.0000   0.0000   0.0000   0.0000   0.0000
     0.0000   0.0000   0.0000   0.0000   0.0000   0.0000   0.0000   0.0000

          k = 0.0833 0.0693 0.4000 ( 20593 PWs)   bands (ev):

   -65.2144 -65.2139 -65.1782 -65.1763 -34.0117 -34.0115 -33.9957 -33.9952
   -33.9778 -33.9773 -29.5148 -29.5052 -29.4594 -29.4471 -29.3642 -29.3561
    -8.5307  -8.1830  -7.8865  -7.8489  -7.4106  -7.3653  -7.1688  -7.1037
     3.4677   3.5374   3.9763   4.0279   4.2894   4.5859   4.8195   4.8777
     5.3222   5.7224   5.9483   6.1170   6.2731   6.4031   7.0956   7.1910
     7.2178   7.4948   7.6437   7.8158   8.0653   8.2405   8.3852   8.4823
    12.5128  12.6541  12.7059  12.8668  13.0099  13.1493  15.0581  15.1373
    15.5484  15.6071  15.8113  15.8602  15.9281  16.0605  16.2228  16.3017

     occupation numbers 
     1.0000   1.0000   1.0000   1.0000   1.0000   1.0000   1.0000   1.0000
     1.0000   1.0000   1.0000   1.0000   1.0000   1.0000   1.0000   1.0000
     1.0000   1.0000   1.0000   1.0000   1.0000   1.0000   1.0000   1.0000
     1.0000   1.0000   1.0000   1.0000   1.0000   1.0000   1.0000   1.0000
     1.0000   1.0000   1.0000   1.0000   1.0000   1.0000   1.0000   1.0000
     1.0000   1.0000   1.0000   1.0000   1.0000   1.0000   1.0000   1.0000
     0.0000   0.0000   0.0000   0.0000   0.0000   0.0000   0.0000   0.0000
     0.0000   0.0000   0.0000   0.0000   0.0000   0.0000   0.0000   0.0000

          k = 0.0833 0.0693-0.3969 ( 20590 PWs)   bands (ev):

   -65.2144 -65.2139 -65.1782 -65.1762 -34.0117 -34.0115 -33.9958 -33.9952
   -33.9778 -33.9773 -29.5149 -29.5052 -29.4592 -29.4473 -29.3641 -29.3562
    -8.5499  -8.1454  -7.8806  -7.8302  -7.4405  -7.3926  -7.1759  -7.0874
     3.4116   3.5542   3.8329   4.1758   4.3718   4.6685   4.8918   4.9730
     5.1760   5.7372   5.9213   6.0749   6.1377   6.4025   7.0098   7.2718
     7.3170   7.3957   7.6603   7.8330   8.1031   8.2208   8.3205   8.5240
    12.5008  12.6551  12.6968  12.8789  13.0001  13.0985  15.0024  15.2699
    15.5462  15.5580  15.7922  15.8653  15.9986  16.0530  16.1869  16.4226

     occupation numbers 
     1.0000   1.0000   1.0000   1.0000   1.0000   1.0000   1.0000   1.0000
     1.0000   1.0000   1.0000   1.0000   1.0000   1.0000   1.0000   1.0000
     1.0000   1.0000   1.0000   1.0000   1.0000   1.0000   1.0000   1.0000
     1.0000   1.0000   1.0000   1.0000   1.0000   1.0000   1.0000   1.0000
     1.0000   1.0000   1.0000   1.0000   1.0000   1.0000   1.0000   1.0000
     1.0000   1.0000   1.0000   1.0000   1.0000   1.0000   1.0000   1.0000
     0.0000   0.0000   0.0000   0.0000   0.0000   0.0000   0.0000   0.0000
     0.0000   0.0000   0.0000   0.0000   0.0000   0.0000   0.0000   0.0000

          k = 0.0833 0.0693-0.2375 ( 20608 PWs)   bands (ev):

   -65.2148 -65.2135 -65.1799 -65.1745 -34.0112 -34.0105 -33.9973 -33.9956
   -33.9780 -33.9766 -29.5201 -29.4932 -29.4689 -29.4339 -29.3769 -29.3532
    -8.8606  -7.8886  -7.8157  -7.7147  -7.5122  -7.4346  -7.2166  -7.0384
     3.3852   3.5063   4.0341   4.0740   4.1969   4.3002   5.0474   5.1332
     5.4164   5.6768   5.8121   6.1604   6.3983   6.6146   6.7100   7.1454
     7.2222   7.5053   7.6988   7.8581   7.9652   8.1547   8.4711   8.5672
    12.3584  12.5298  12.5943  12.8463  13.1634  13.2827  14.9894  15.4078
    15.5316  15.5879  15.7610  15.9396  15.9872  16.0211  16.1950  16.2698

     occupation numbers 
     1.0000   1.0000   1.0000   1.0000   1.0000   1.0000   1.0000   1.0000
     1.0000   1.0000   1.0000   1.0000   1.0000   1.0000   1.0000   1.0000
     1.0000   1.0000   1.0000   1.0000   1.0000   1.0000   1.0000   1.0000
     1.0000   1.0000   1.0000   1.0000   1.0000   1.0000   1.0000   1.0000
     1.0000   1.0000   1.0000   1.0000   1.0000   1.0000   1.0000   1.0000
     1.0000   1.0000   1.0000   1.0000   1.0000   1.0000   1.0000   1.0000
     0.0000   0.0000   0.0000   0.0000   0.0000   0.0000   0.0000   0.0000
     0.0000   0.0000   0.0000   0.0000   0.0000   0.0000   0.0000   0.0000

          k = 0.0833 0.0693-0.0781 ( 20602 PWs)   bands (ev):

   -65.2151 -65.2133 -65.1808 -65.1735 -34.0107 -34.0092 -33.9990 -33.9962
   -33.9780 -33.9762 -29.5217 -29.4833 -29.4758 -29.4216 -29.3900 -29.3531
    -9.0339  -7.8718  -7.7089  -7.6029  -7.5626  -7.4525  -7.1967  -7.0249
     3.2616   3.4979   3.8105   3.9822   4.2967   4.7087   4.8057   5.2633
     5.4404   5.6651   5.9245   6.1524   6.3112   6.5239   6.6732   7.2192
     7.3102   7.4180   7.7608   7.8030   8.0159   8.1961   8.5161   8.6098
    12.2140  12.3499  12.6730  12.9217  13.2199  13.4155  15.0150  15.3599
    15.4923  15.5729  15.6434  15.7748  15.8942  15.9551  16.2727  16.4171

     occupation numbers 
     1.0000   1.0000   1.0000   1.0000   1.0000   1.0000   1.0000   1.0000
     1.0000   1.0000   1.0000   1.0000   1.0000   1.0000   1.0000   1.0000
     1.0000   1.0000   1.0000   1.0000   1.0000   1.0000   1.0000   1.0000
     1.0000   1.0000   1.0000   1.0000   1.0000   1.0000   1.0000   1.0000
     1.0000   1.0000   1.0000   1.0000   1.0000   1.0000   1.0000   1.0000
     1.0000   1.0000   1.0000   1.0000   1.0000   1.0000   1.0000   1.0000
     0.0000   0.0000   0.0000   0.0000   0.0000   0.0000   0.0000   0.0000
     0.0000   0.0000   0.0000   0.0000   0.0000   0.0000   0.0000   0.0000

          k = 0.0833 0.2079 0.0813 ( 20612 PWs)   bands (ev):

   -65.2151 -65.2133 -65.1808 -65.1736 -34.0105 -34.0092 -33.9990 -33.9962
   -33.9780 -33.9762 -29.5214 -29.4825 -29.4753 -29.4219 -29.3911 -29.3534
    -8.9421  -8.0056  -7.8163  -7.5869  -7.5531  -7.3881  -7.1798  -6.9904
     3.4788   3.6354   3.8099   3.9887   4.1152   4.6395   4.7710   5.2742
     5.3632   5.6649   5.7215   6.1254   6.4119   6.7135   6.9230   7.1399
     7.4069   7.4839   7.5918   7.8041   7.8598   8.0119   8.4516   8.5213
    12.1643  12.4543  12.7419  13.0253  13.2277  13.3637  15.0172  15.3846
    15.4813  15.7074  15.7407  15.8232  16.0222  16.1194  16.3628  16.4119

     occupation numbers 
     1.0000   1.0000   1.0000   1.0000   1.0000   1.0000   1.0000   1.0000
     1.0000   1.0000   1.0000   1.0000   1.0000   1.0000   1.0000   1.0000
     1.0000   1.0000   1.0000   1.0000   1.0000   1.0000   1.0000   1.0000
     1.0000   1.0000   1.0000   1.0000   1.0000   1.0000   1.0000   1.0000
     1.0000   1.0000   1.0000   1.0000   1.0000   1.0000   1.0000   1.0000
     1.0000   1.0000   1.0000   1.0000   1.0000   1.0000   1.0000   1.0000
     0.0000   0.0000   0.0000   0.0000   0.0000   0.0000   0.0000   0.0000
     0.0000   0.0000   0.0000   0.0000   0.0000   0.0000   0.0000   0.0000

          k = 0.0833 0.2079 0.2406 ( 20613 PWs)   bands (ev):

   -65.2148 -65.2135 -65.1799 -65.1746 -34.0112 -34.0105 -33.9973 -33.9956
   -33.9780 -33.9766 -29.5203 -29.4932 -29.4685 -29.4341 -29.3772 -29.3528
    -8.7761  -8.0506  -7.8723  -7.6668  -7.4777  -7.3545  -7.2786  -7.0097
     3.5537   3.6255   3.8869   4.1081   4.1632   4.2744   5.0002   5.0707
     5.3757   5.6354   5.8166   6.3617   6.4528   6.6714   6.7822   7.1286
     7.2054   7.4396   7.6097   7.7920   7.9083   8.0460   8.4126   8.4689
    12.2468  12.6125  12.7903  12.9905  13.1250  13.2692  15.1013  15.3511
    15.5261  15.6687  15.7970  15.8679  16.0381  16.1561  16.2731  16.4168

     occupation numbers 
     1.0000   1.0000   1.0000   1.0000   1.0000   1.0000   1.0000   1.0000
     1.0000   1.0000   1.0000   1.0000   1.0000   1.0000   1.0000   1.0000
     1.0000   1.0000   1.0000   1.0000   1.0000   1.0000   1.0000   1.0000
     1.0000   1.0000   1.0000   1.0000   1.0000   1.0000   1.0000   1.0000
     1.0000   1.0000   1.0000   1.0000   1.0000   1.0000   1.0000   1.0000
     1.0000   1.0000   1.0000   1.0000   1.0000   1.0000   1.0000   1.0000
     0.0000   0.0000   0.0000   0.0000   0.0000   0.0000   0.0000   0.0000
     0.0000   0.0000   0.0000   0.0000   0.0000   0.0000   0.0000   0.0000

          k = 0.0833 0.2079 0.4000 ( 20597 PWs)   bands (ev):

   -65.2143 -65.2139 -65.1782 -65.1763 -34.0118 -34.0116 -33.9957 -33.9952
   -33.9778 -33.9772 -29.5156 -29.5059 -29.4591 -29.4472 -29.3637 -29.3553
    -8.4868  -8.2037  -7.8753  -7.8013  -7.4552  -7.4230  -7.1835  -7.0851
     3.4952   3.6453   3.8545   3.9725   4.3806   4.7005   4.8952   5.1420
     5.3790   5.6672   5.8396   6.0483   6.3342   6.4132   6.8765   7.1337
     7.1927   7.4015   7.6084   7.7402   8.0585   8.1811   8.3385   8.3999
    12.3835  12.6483  12.8037  12.9869  13.0837  13.1177  15.1703  15.3139
    15.5496  15.6664  15.8162  15.8989  15.9397  16.0255  16.2800  16.3590

     occupation numbers 
     1.0000   1.0000   1.0000   1.0000   1.0000   1.0000   1.0000   1.0000
     1.0000   1.0000   1.0000   1.0000   1.0000   1.0000   1.0000   1.0000
     1.0000   1.0000   1.0000   1.0000   1.0000   1.0000   1.0000   1.0000
     1.0000   1.0000   1.0000   1.0000   1.0000   1.0000   1.0000   1.0000
     1.0000   1.0000   1.0000   1.0000   1.0000   1.0000   1.0000   1.0000
     1.0000   1.0000   1.0000   1.0000   1.0000   1.0000   1.0000   1.0000
     0.0000   0.0000   0.0000   0.0000   0.0000   0.0000   0.0000   0.0000
     0.0000   0.0000   0.0000   0.0000   0.0000   0.0000   0.0000   0.0000

          k = 0.0833 0.2079-0.3969 ( 20600 PWs)   bands (ev):

   -65.2143 -65.2139 -65.1782 -65.1763 -34.0118 -34.0116 -33.9957 -33.9952
   -33.9778 -33.9772 -29.5156 -29.5059 -29.4590 -29.4473 -29.3636 -29.3554
    -8.4980  -8.1713  -7.8855  -7.7729  -7.5233  -7.3863  -7.2256  -7.0552
     3.4700   3.6960   3.7557   4.0783   4.4110   4.7379   4.9635   5.0108
     5.4752   5.7209   5.8322   5.9665   6.0982   6.5362   6.8823   7.1643
     7.1996   7.3574   7.5795   7.7826   8.0775   8.1655   8.2667   8.4728
    12.4213  12.5920  12.8092  12.9712  13.0484  13.0842  15.0928  15.3938
    15.6035  15.6213  15.8332  15.9182  15.9523  16.0458  16.2485  16.4091

     occupation numbers 
     1.0000   1.0000   1.0000   1.0000   1.0000   1.0000   1.0000   1.0000
     1.0000   1.0000   1.0000   1.0000   1.0000   1.0000   1.0000   1.0000
     1.0000   1.0000   1.0000   1.0000   1.0000   1.0000   1.0000   1.0000
     1.0000   1.0000   1.0000   1.0000   1.0000   1.0000   1.0000   1.0000
     1.0000   1.0000   1.0000   1.0000   1.0000   1.0000   1.0000   1.0000
     1.0000   1.0000   1.0000   1.0000   1.0000   1.0000   1.0000   1.0000
     0.0000   0.0000   0.0000   0.0000   0.0000   0.0000   0.0000   0.0000
     0.0000   0.0000   0.0000   0.0000   0.0000   0.0000   0.0000   0.0000

          k = 0.0833 0.2079-0.2375 ( 20634 PWs)   bands (ev):

   -65.2148 -65.2135 -65.1798 -65.1746 -34.0112 -34.0105 -33.9973 -33.9956
   -33.9780 -33.9766 -29.5203 -29.4932 -29.4685 -29.4343 -29.3771 -29.3529
    -8.7802  -7.9991  -7.8589  -7.6371  -7.5497  -7.4170  -7.2603  -6.9924
     3.4841   3.6146   3.9146   4.1265   4.2616   4.4092   4.9542   5.1833
     5.3492   5.5582   5.7965   6.1878   6.4251   6.7032   6.7797   7.1494
     7.2362   7.4195   7.5380   7.8406   7.8832   8.0613   8.4103   8.5085
    12.2708  12.5950  12.6965  12.9419  13.1623  13.1782  15.0218  15.4451
    15.5494  15.6702  15.7891  15.9228  16.0229  16.1722  16.2562  16.5770

     occupation numbers 
     1.0000   1.0000   1.0000   1.0000   1.0000   1.0000   1.0000   1.0000
     1.0000   1.0000   1.0000   1.0000   1.0000   1.0000   1.0000   1.0000
     1.0000   1.0000   1.0000   1.0000   1.0000   1.0000   1.0000   1.0000
     1.0000   1.0000   1.0000   1.0000   1.0000   1.0000   1.0000   1.0000
     1.0000   1.0000   1.0000   1.0000   1.0000   1.0000   1.0000   1.0000
     1.0000   1.0000   1.0000   1.0000   1.0000   1.0000   1.0000   1.0000
     0.0000   0.0000   0.0000   0.0000   0.0000   0.0000   0.0000   0.0000
     0.0000   0.0000   0.0000   0.0000   0.0000   0.0000   0.0000   0.0000

          k = 0.0833 0.2079-0.0781 ( 20623 PWs)   bands (ev):

   -65.2151 -65.2133 -65.1808 -65.1736 -34.0105 -34.0092 -33.9990 -33.9962
   -33.9780 -33.9762 -29.5214 -29.4825 -29.4753 -29.4220 -29.3911 -29.3534
    -8.9432  -7.9902  -7.7614  -7.6458  -7.5631  -7.3997  -7.1798  -6.9834
     3.4290   3.6169   3.8839   4.0278   4.1145   4.6502   4.8640   5.2906
     5.3158   5.5771   5.7822   6.0215   6.4289   6.7092   6.9051   7.2337
     7.3252   7.4845   7.5817   7.7680   7.8130   8.0960   8.4702   8.5218
    12.1608  12.4516  12.7108  12.9824  13.2425  13.3329  14.9840  15.4556
    15.4952  15.6446  15.7689  15.8507  16.0108  16.1395  16.3172  16.4315

     occupation numbers 
     1.0000   1.0000   1.0000   1.0000   1.0000   1.0000   1.0000   1.0000
     1.0000   1.0000   1.0000   1.0000   1.0000   1.0000   1.0000   1.0000
     1.0000   1.0000   1.0000   1.0000   1.0000   1.0000   1.0000   1.0000
     1.0000   1.0000   1.0000   1.0000   1.0000   1.0000   1.0000   1.0000
     1.0000   1.0000   1.0000   1.0000   1.0000   1.0000   1.0000   1.0000
     1.0000   1.0000   1.0000   1.0000   1.0000   1.0000   1.0000   1.0000
     0.0000   0.0000   0.0000   0.0000   0.0000   0.0000   0.0000   0.0000
     0.0000   0.0000   0.0000   0.0000   0.0000   0.0000   0.0000   0.0000

          k = 0.0833 0.3465 0.0813 ( 20609 PWs)   bands (ev):

   -65.2151 -65.2133 -65.1808 -65.1737 -34.0104 -34.0091 -33.9991 -33.9962
   -33.9780 -33.9762 -29.5210 -29.4818 -29.4747 -29.4222 -29.3922 -29.3537
    -8.8207  -8.1844  -7.8061  -7.5927  -7.5661  -7.3870  -7.1648  -6.9533
     3.6856   3.7569   3.8289   3.9343   4.2080   4.5894   4.6752   5.1028
     5.2779   5.6824   5.8022   6.0418   6.6490   6.7130   7.0106   7.1026
     7.2974   7.4560   7.5855   7.7099   7.8019   7.8866   8.4089   8.4432
    12.1350  12.5985  12.7522  13.0383  13.1799  13.3840  15.0301  15.4738
    15.5063  15.7060  15.7296  15.7985  16.2491  16.3414  16.4359  16.5309

     occupation numbers 
     1.0000   1.0000   1.0000   1.0000   1.0000   1.0000   1.0000   1.0000
     1.0000   1.0000   1.0000   1.0000   1.0000   1.0000   1.0000   1.0000
     1.0000   1.0000   1.0000   1.0000   1.0000   1.0000   1.0000   1.0000
     1.0000   1.0000   1.0000   1.0000   1.0000   1.0000   1.0000   1.0000
     1.0000   1.0000   1.0000   1.0000   1.0000   1.0000   1.0000   1.0000
     1.0000   1.0000   1.0000   1.0000   1.0000   1.0000   1.0000   1.0000
     0.0000   0.0000   0.0000   0.0000   0.0000   0.0000   0.0000   0.0000
     0.0000   0.0000   0.0000   0.0000   0.0000   0.0000   0.0000   0.0000

          k = 0.0833 0.3465 0.2406 ( 20598 PWs)   bands (ev):

   -65.2148 -65.2135 -65.1799 -65.1747 -34.0112 -34.0105 -33.9973 -33.9955
   -33.9780 -33.9766 -29.5205 -29.4933 -29.4680 -29.4345 -29.3773 -29.3525
    -8.6745  -8.1859  -7.8555  -7.6147  -7.4978  -7.3869  -7.3108  -6.9746
     3.5203   3.6631   3.8916   4.1901   4.3473   4.4435   4.8296   5.2543
     5.4046   5.5748   5.6794   6.0201   6.5739   6.6463   6.8989   7.2068
     7.2904   7.3969   7.4802   7.6418   7.7823   8.0145   8.3736   8.3856
    12.2043  12.6868  12.8935  13.0083  13.1268  13.2340  15.2435  15.4476
    15.5101  15.6823  15.7525  15.8114  16.1065  16.2832  16.4068  16.4310

     occupation numbers 
     1.0000   1.0000   1.0000   1.0000   1.0000   1.0000   1.0000   1.0000
     1.0000   1.0000   1.0000   1.0000   1.0000   1.0000   1.0000   1.0000
     1.0000   1.0000   1.0000   1.0000   1.0000   1.0000   1.0000   1.0000
     1.0000   1.0000   1.0000   1.0000   1.0000   1.0000   1.0000   1.0000
     1.0000   1.0000   1.0000   1.0000   1.0000   1.0000   1.0000   1.0000
     1.0000   1.0000   1.0000   1.0000   1.0000   1.0000   1.0000   1.0000
     0.0000   0.0000   0.0000   0.0000   0.0000   0.0000   0.0000   0.0000
     0.0000   0.0000   0.0000   0.0000   0.0000   0.0000   0.0000   0.0000

          k = 0.0833 0.3465 0.4000 ( 20598 PWs)   bands (ev):

   -65.2143 -65.2138 -65.1782 -65.1763 -34.0118 -34.0117 -33.9956 -33.9951
   -33.9778 -33.9772 -29.5164 -29.5066 -29.4588 -29.4473 -29.3631 -29.3545
    -8.4305  -8.2449  -7.8175  -7.7423  -7.5336  -7.5124  -7.1828  -7.0657
     3.5228   3.5870   3.9208   3.9395   4.5832   4.9050   5.0023   5.1312
     5.4256   5.6346   5.7229   6.1014   6.2313   6.3881   6.7684   7.0400
     7.1568   7.3384   7.5951   7.6444   7.9946   8.1728   8.2876   8.3088
    12.3302  12.6687  12.8466  13.0181  13.0938  13.1949  15.3419  15.4587
    15.5558  15.6983  15.8137  15.8517  15.9430  16.1151  16.3033  16.3551

     occupation numbers 
     1.0000   1.0000   1.0000   1.0000   1.0000   1.0000   1.0000   1.0000
     1.0000   1.0000   1.0000   1.0000   1.0000   1.0000   1.0000   1.0000
     1.0000   1.0000   1.0000   1.0000   1.0000   1.0000   1.0000   1.0000
     1.0000   1.0000   1.0000   1.0000   1.0000   1.0000   1.0000   1.0000
     1.0000   1.0000   1.0000   1.0000   1.0000   1.0000   1.0000   1.0000
     1.0000   1.0000   1.0000   1.0000   1.0000   1.0000   1.0000   1.0000
     0.0000   0.0000   0.0000   0.0000   0.0000   0.0000   0.0000   0.0000
     0.0000   0.0000   0.0000   0.0000   0.0000   0.0000   0.0000   0.0000

          k = 0.0833 0.3465-0.3969 ( 20589 PWs)   bands (ev):

   -65.2143 -65.2138 -65.1782 -65.1763 -34.0119 -34.0117 -33.9957 -33.9951
   -33.9777 -33.9772 -29.5164 -29.5066 -29.4588 -29.4474 -29.3630 -29.3546
    -8.4363  -8.2024  -7.8696  -7.7202  -7.5812  -7.4542  -7.2361  -7.0333
     3.4585   3.7708   3.8571   3.9630   4.5666   4.8103   5.0062   5.1250
     5.4725   5.6307   5.8147   5.9459   6.2290   6.5546   6.7735   6.8720
     7.2146   7.3318   7.5898   7.6660   8.0380   8.0577   8.2465   8.4249
    12.4297  12.5429  12.8095  12.9831  13.0988  13.1708  15.2426  15.4456
    15.6484  15.6681  15.8323  15.8635  16.0351  16.1062  16.2700  16.3405

     occupation numbers 
     1.0000   1.0000   1.0000   1.0000   1.0000   1.0000   1.0000   1.0000
     1.0000   1.0000   1.0000   1.0000   1.0000   1.0000   1.0000   1.0000
     1.0000   1.0000   1.0000   1.0000   1.0000   1.0000   1.0000   1.0000
     1.0000   1.0000   1.0000   1.0000   1.0000   1.0000   1.0000   1.0000
     1.0000   1.0000   1.0000   1.0000   1.0000   1.0000   1.0000   1.0000
     1.0000   1.0000   1.0000   1.0000   1.0000   1.0000   1.0000   1.0000
     0.0000   0.0000   0.0000   0.0000   0.0000   0.0000   0.0000   0.0000
     0.0000   0.0000   0.0000   0.0000   0.0000   0.0000   0.0000   0.0000

          k = 0.0833 0.3465-0.2375 ( 20609 PWs)   bands (ev):

   -65.2148 -65.2135 -65.1798 -65.1747 -34.0112 -34.0106 -33.9973 -33.9956
   -33.9780 -33.9766 -29.5205 -29.4932 -29.4680 -29.4346 -29.3772 -29.3526
    -8.6717  -8.1347  -7.8738  -7.6408  -7.5048  -7.4303  -7.2932  -6.9589
     3.5092   3.7909   3.8580   4.2717   4.3545   4.4769   4.7275   5.1514
     5.2387   5.6925   5.7693   6.0260   6.6016   6.6795   6.8419   7.1805
     7.2643   7.3734   7.5201   7.6397   7.8201   7.9191   8.3854   8.4471
    12.2219  12.6743  12.8500  12.9130  13.0632  13.2134  15.0795  15.4454
    15.5846  15.7322  15.8165  15.8295  16.1172  16.1958  16.3902  16.4625

     occupation numbers 
     1.0000   1.0000   1.0000   1.0000   1.0000   1.0000   1.0000   1.0000
     1.0000   1.0000   1.0000   1.0000   1.0000   1.0000   1.0000   1.0000
     1.0000   1.0000   1.0000   1.0000   1.0000   1.0000   1.0000   1.0000
     1.0000   1.0000   1.0000   1.0000   1.0000   1.0000   1.0000   1.0000
     1.0000   1.0000   1.0000   1.0000   1.0000   1.0000   1.0000   1.0000
     1.0000   1.0000   1.0000   1.0000   1.0000   1.0000   1.0000   1.0000
     0.0000   0.0000   0.0000   0.0000   0.0000   0.0000   0.0000   0.0000
     0.0000   0.0000   0.0000   0.0000   0.0000   0.0000   0.0000   0.0000

          k = 0.0833 0.3465-0.0781 ( 20629 PWs)   bands (ev):

   -65.2151 -65.2133 -65.1807 -65.1737 -34.0104 -34.0091 -33.9991 -33.9962
   -33.9780 -33.9762 -29.5210 -29.4817 -29.4747 -29.4223 -29.3921 -29.3537
    -8.8192  -8.1692  -7.7654  -7.6574  -7.5792  -7.3809  -7.1590  -6.9485
     3.6526   3.7623   3.9092   4.0148   4.1381   4.5007   4.8617   5.0705
     5.0978   5.6906   5.8892   5.9881   6.6980   6.7611   6.9381   7.1477
     7.2860   7.4557   7.5523   7.6775   7.7301   7.9695   8.4255   8.4465
    12.1163  12.5984  12.7615  12.9881  13.1680  13.3538  14.9585  15.4850
    15.5307  15.7093  15.7851  15.8011  16.2108  16.2774  16.4226  16.5874

     occupation numbers 
     1.0000   1.0000   1.0000   1.0000   1.0000   1.0000   1.0000   1.0000
     1.0000   1.0000   1.0000   1.0000   1.0000   1.0000   1.0000   1.0000
     1.0000   1.0000   1.0000   1.0000   1.0000   1.0000   1.0000   1.0000
     1.0000   1.0000   1.0000   1.0000   1.0000   1.0000   1.0000   1.0000
     1.0000   1.0000   1.0000   1.0000   1.0000   1.0000   1.0000   1.0000
     1.0000   1.0000   1.0000   1.0000   1.0000   1.0000   1.0000   1.0000
     0.0000   0.0000   0.0000   0.0000   0.0000   0.0000   0.0000   0.0000
     0.0000   0.0000   0.0000   0.0000   0.0000   0.0000   0.0000   0.0000

          k = 0.2500 0.0693 0.0844 ( 20584 PWs)   bands (ev):

   -65.2151 -65.2133 -65.1808 -65.1736 -34.0106 -34.0092 -33.9989 -33.9962
   -33.9780 -33.9762 -29.5215 -29.4832 -29.4764 -29.4219 -29.3900 -29.3531
    -8.9123  -7.9072  -7.8596  -7.6584  -7.4782  -7.3451  -7.1756  -7.1321
     3.5205   3.5860   3.8126   3.9843   4.1474   4.5334   4.9134   5.0421
     5.1468   5.7106   5.9736   6.2198   6.4318   6.6863   6.8382   7.1538
     7.3785   7.4958   7.6588   7.8622   7.8965   8.1650   8.2935   8.6121
    12.2308  12.4358  12.7387  13.0088  13.1687  13.5428  15.1165  15.3575
    15.4340  15.6121  15.7599  15.7996  16.0913  16.1281  16.3043  16.3813

     occupation numbers 
     1.0000   1.0000   1.0000   1.0000   1.0000   1.0000   1.0000   1.0000
     1.0000   1.0000   1.0000   1.0000   1.0000   1.0000   1.0000   1.0000
     1.0000   1.0000   1.0000   1.0000   1.0000   1.0000   1.0000   1.0000
     1.0000   1.0000   1.0000   1.0000   1.0000   1.0000   1.0000   1.0000
     1.0000   1.0000   1.0000   1.0000   1.0000   1.0000   1.0000   1.0000
     1.0000   1.0000   1.0000   1.0000   1.0000   1.0000   1.0000   1.0000
     0.0000   0.0000   0.0000   0.0000   0.0000   0.0000   0.0000   0.0000
     0.0000   0.0000   0.0000   0.0000   0.0000   0.0000   0.0000   0.0000

          k = 0.2500 0.0693 0.2438 ( 20572 PWs)   bands (ev):

   -65.2148 -65.2135 -65.1798 -65.1746 -34.0112 -34.0104 -33.9973 -33.9956
   -33.9780 -33.9767 -29.5199 -29.4931 -29.4696 -29.4341 -29.3770 -29.3531
    -8.7364  -7.9392  -7.9175  -7.7760  -7.4806  -7.3376  -7.1807  -7.1139
     3.6207   3.7759   3.8632   3.9360   4.1275   4.3466   4.5253   4.7627
     5.3865   5.9273   6.2866   6.3901   6.4186   6.5660   6.6572   7.1654
     7.2531   7.5055   7.7814   7.9049   7.9433   7.9728   8.4375   8.5052
    12.2889  12.5042  12.7889  12.9920  13.1343  13.4591  15.0501  15.2042
    15.4456  15.6000  15.8226  15.8861  15.9846  16.0710  16.2825  16.4245

     occupation numbers 
     1.0000   1.0000   1.0000   1.0000   1.0000   1.0000   1.0000   1.0000
     1.0000   1.0000   1.0000   1.0000   1.0000   1.0000   1.0000   1.0000
     1.0000   1.0000   1.0000   1.0000   1.0000   1.0000   1.0000   1.0000
     1.0000   1.0000   1.0000   1.0000   1.0000   1.0000   1.0000   1.0000
     1.0000   1.0000   1.0000   1.0000   1.0000   1.0000   1.0000   1.0000
     1.0000   1.0000   1.0000   1.0000   1.0000   1.0000   1.0000   1.0000
     0.0000   0.0000   0.0000   0.0000   0.0000   0.0000   0.0000   0.0000
     0.0000   0.0000   0.0000   0.0000   0.0000   0.0000   0.0000   0.0000

          k = 0.2500 0.0693 0.4032 ( 20572 PWs)   bands (ev):

   -65.2144 -65.2139 -65.1780 -65.1762 -34.0117 -34.0115 -33.9957 -33.9952
   -33.9778 -33.9773 -29.5147 -29.5051 -29.4599 -29.4474 -29.3643 -29.3560
    -8.4262  -8.1393  -7.9250  -7.8492  -7.5243  -7.3984  -7.1408  -7.1007
     3.5007   3.6412   3.8180   4.0589   4.3159   4.5136   4.7396   4.8164
     5.5467   5.6816   6.0626   6.1221   6.2541   6.3018   7.0357   7.1796
     7.2896   7.5627   7.8088   7.8611   7.9199   8.1074   8.4259   8.4853
    12.4516  12.4936  12.7830  12.9684  13.0776  13.2632  15.0355  15.2435
    15.4604  15.5517  15.7358  15.8605  15.9480  16.1187  16.3584  16.4086

     occupation numbers 
     1.0000   1.0000   1.0000   1.0000   1.0000   1.0000   1.0000   1.0000
     1.0000   1.0000   1.0000   1.0000   1.0000   1.0000   1.0000   1.0000
     1.0000   1.0000   1.0000   1.0000   1.0000   1.0000   1.0000   1.0000
     1.0000   1.0000   1.0000   1.0000   1.0000   1.0000   1.0000   1.0000
     1.0000   1.0000   1.0000   1.0000   1.0000   1.0000   1.0000   1.0000
     1.0000   1.0000   1.0000   1.0000   1.0000   1.0000   1.0000   1.0000
     0.0000   0.0000   0.0000   0.0000   0.0000   0.0000   0.0000   0.0000
     0.0000   0.0000   0.0000   0.0000   0.0000   0.0000   0.0000   0.0000

          k = 0.2500 0.0693-0.3938 ( 20593 PWs)   bands (ev):

   -65.2144 -65.2139 -65.1781 -65.1760 -34.0117 -34.0115 -33.9958 -33.9953
   -33.9778 -33.9773 -29.5148 -29.5051 -29.4596 -29.4478 -29.3640 -29.3562
    -8.4715  -8.0553  -7.8974  -7.8141  -7.5455  -7.4983  -7.1465  -7.0849
     3.4036   3.5413   3.8690   4.0708   4.5169   4.7347   4.8701   5.0058
     5.3083   5.6539   5.8730   5.9805   6.0204   6.4200   6.9808   7.3444
     7.3940   7.5792   7.6317   7.7872   7.9629   8.2097   8.2843   8.5805
    12.3789  12.6027  12.7316  12.9148  13.0188  13.2434  15.0444  15.3481
    15.4805  15.5950  15.7648  15.7903  15.9865  16.2020  16.2454  16.5531

     occupation numbers 
     1.0000   1.0000   1.0000   1.0000   1.0000   1.0000   1.0000   1.0000
     1.0000   1.0000   1.0000   1.0000   1.0000   1.0000   1.0000   1.0000
     1.0000   1.0000   1.0000   1.0000   1.0000   1.0000   1.0000   1.0000
     1.0000   1.0000   1.0000   1.0000   1.0000   1.0000   1.0000   1.0000
     1.0000   1.0000   1.0000   1.0000   1.0000   1.0000   1.0000   1.0000
     1.0000   1.0000   1.0000   1.0000   1.0000   1.0000   1.0000   1.0000
     0.0000   0.0000   0.0000   0.0000   0.0000   0.0000   0.0000   0.0000
     0.0000   0.0000   0.0000   0.0000   0.0000   0.0000   0.0000   0.0000

          k = 0.2500 0.0693-0.2344 ( 20627 PWs)   bands (ev):

   -65.2148 -65.2135 -65.1798 -65.1744 -34.0112 -34.0105 -33.9973 -33.9957
   -33.9780 -33.9767 -29.5200 -29.4932 -29.4693 -29.4343 -29.3768 -29.3532
    -8.7590  -7.8991  -7.7519  -7.6802  -7.6310  -7.5096  -7.1862  -7.0839
     3.3732   3.4769   4.0448   4.2571   4.2966   4.4260   5.0428   5.1615
     5.3834   5.4672   5.7478   5.9283   6.4879   6.5895   6.7273   7.0740
     7.5003   7.6072   7.6551   7.8071   7.8917   8.0117   8.4693   8.5954
    12.3300  12.5417  12.6396  12.7460  13.1689  13.4192  15.0829  15.3666
    15.5589  15.6414  15.7277  15.9047  15.9907  16.1668  16.2771  16.5817

     occupation numbers 
     1.0000   1.0000   1.0000   1.0000   1.0000   1.0000   1.0000   1.0000
     1.0000   1.0000   1.0000   1.0000   1.0000   1.0000   1.0000   1.0000
     1.0000   1.0000   1.0000   1.0000   1.0000   1.0000   1.0000   1.0000
     1.0000   1.0000   1.0000   1.0000   1.0000   1.0000   1.0000   1.0000
     1.0000   1.0000   1.0000   1.0000   1.0000   1.0000   1.0000   1.0000
     1.0000   1.0000   1.0000   1.0000   1.0000   1.0000   1.0000   1.0000
     0.0000   0.0000   0.0000   0.0000   0.0000   0.0000   0.0000   0.0000
     0.0000   0.0000   0.0000   0.0000   0.0000   0.0000   0.0000   0.0000

          k = 0.2500 0.0693-0.0750 ( 20593 PWs)   bands (ev):

   -65.2151 -65.2133 -65.1808 -65.1736 -34.0106 -34.0092 -33.9989 -33.9962
   -33.9780 -33.9762 -29.5216 -29.4833 -29.4762 -29.4220 -29.3899 -29.3531
    -8.9192  -7.8970  -7.7643  -7.6146  -7.5792  -7.4090  -7.1742  -7.1204
     3.3735   3.5159   3.8054   4.0879   4.4503   4.6672   4.8674   5.1693
     5.4096   5.5168   5.6464   6.0958   6.3693   6.6458   6.8048   7.1333
     7.4401   7.4930   7.7015   7.7568   7.9345   8.1111   8.4518   8.6058
    12.2869  12.4507  12.5747  12.8937  13.2100  13.5282  15.1375  15.4384
    15.5211  15.5838  15.7288  15.8588  16.0116  16.1395  16.2932  16.4181

     occupation numbers 
     1.0000   1.0000   1.0000   1.0000   1.0000   1.0000   1.0000   1.0000
     1.0000   1.0000   1.0000   1.0000   1.0000   1.0000   1.0000   1.0000
     1.0000   1.0000   1.0000   1.0000   1.0000   1.0000   1.0000   1.0000
     1.0000   1.0000   1.0000   1.0000   1.0000   1.0000   1.0000   1.0000
     1.0000   1.0000   1.0000   1.0000   1.0000   1.0000   1.0000   1.0000
     1.0000   1.0000   1.0000   1.0000   1.0000   1.0000   1.0000   1.0000
     0.0000   0.0000   0.0000   0.0000   0.0000   0.0000   0.0000   0.0000
     0.0000   0.0000   0.0000   0.0000   0.0000   0.0000   0.0000   0.0000

          k = 0.2500 0.2079 0.0844 ( 20594 PWs)   bands (ev):

   -65.2151 -65.2133 -65.1807 -65.1737 -34.0105 -34.0091 -33.9990 -33.9962
   -33.9780 -33.9763 -29.5213 -29.4826 -29.4758 -29.4222 -29.3911 -29.3534
    -8.8375  -8.0167  -7.8827  -7.6051  -7.5277  -7.3471  -7.1788  -7.0837
     3.4981   3.7096   3.7712   4.0370   4.2516   4.5325   4.8561   5.1660
     5.2487   5.5075   5.9682   6.2111   6.3314   6.7506   6.8803   7.1188
     7.2982   7.5199   7.5699   7.8093   7.9318   8.0927   8.2583   8.5157
    12.2098  12.5291  12.6989  13.0555  13.2091  13.5279  15.1146  15.3758
    15.4956  15.5871  15.7253  15.8203  16.0556  16.1394  16.3085  16.5919

     occupation numbers 
     1.0000   1.0000   1.0000   1.0000   1.0000   1.0000   1.0000   1.0000
     1.0000   1.0000   1.0000   1.0000   1.0000   1.0000   1.0000   1.0000
     1.0000   1.0000   1.0000   1.0000   1.0000   1.0000   1.0000   1.0000
     1.0000   1.0000   1.0000   1.0000   1.0000   1.0000   1.0000   1.0000
     1.0000   1.0000   1.0000   1.0000   1.0000   1.0000   1.0000   1.0000
     1.0000   1.0000   1.0000   1.0000   1.0000   1.0000   1.0000   1.0000
     0.0000   0.0000   0.0000   0.0000   0.0000   0.0000   0.0000   0.0000
     0.0000   0.0000   0.0000   0.0000   0.0000   0.0000   0.0000   0.0000

          k = 0.2500 0.2079 0.2438 ( 20584 PWs)   bands (ev):

   -65.2148 -65.2135 -65.1798 -65.1746 -34.0112 -34.0105 -33.9973 -33.9956
   -33.9780 -33.9767 -29.5202 -29.4932 -29.4691 -29.4345 -29.3772 -29.3528
    -8.6776  -8.0618  -7.9150  -7.6935  -7.4667  -7.3528  -7.2443  -7.0817
     3.4810   3.6570   4.0221   4.0600   4.1681   4.3990   4.7349   5.0890
     5.2200   5.6198   6.0403   6.3863   6.4940   6.6302   6.7985   7.1707
     7.2965   7.3898   7.6776   7.8468   7.8948   7.9596   8.3333   8.4376
    12.2474  12.6092  12.8148  13.0366  13.0980  13.4608  15.0695  15.3374
    15.4372  15.5651  15.7481  15.8640  15.9666  16.1021  16.4022  16.5415

     occupation numbers 
     1.0000   1.0000   1.0000   1.0000   1.0000   1.0000   1.0000   1.0000
     1.0000   1.0000   1.0000   1.0000   1.0000   1.0000   1.0000   1.0000
     1.0000   1.0000   1.0000   1.0000   1.0000   1.0000   1.0000   1.0000
     1.0000   1.0000   1.0000   1.0000   1.0000   1.0000   1.0000   1.0000
     1.0000   1.0000   1.0000   1.0000   1.0000   1.0000   1.0000   1.0000
     1.0000   1.0000   1.0000   1.0000   1.0000   1.0000   1.0000   1.0000
     0.0000   0.0000   0.0000   0.0000   0.0000   0.0000   0.0000   0.0000
     0.0000   0.0000   0.0000   0.0000   0.0000   0.0000   0.0000   0.0000

          k = 0.2500 0.2079 0.4032 ( 20568 PWs)   bands (ev):

   -65.2143 -65.2139 -65.1780 -65.1762 -34.0118 -34.0116 -33.9957 -33.9952
   -33.9778 -33.9773 -29.5156 -29.5058 -29.4597 -29.4476 -29.3637 -29.3552
    -8.3992  -8.1654  -7.9387  -7.7982  -7.5136  -7.4080  -7.1716  -7.1207
     3.4276   3.6531   3.8435   4.1109   4.2698   4.6261   4.8470   5.2065
     5.2813   5.6010   5.9059   6.1947   6.3066   6.4894   6.8645   7.1771
     7.2822   7.5859   7.6622   7.8107   7.8697   8.0425   8.2984   8.4415
    12.3817  12.6074  12.8184  12.9606  13.0481  13.2957  14.9910  15.3559
    15.4151  15.5961  15.7387  15.8716  15.9692  16.0770  16.4117  16.4636

     occupation numbers 
     1.0000   1.0000   1.0000   1.0000   1.0000   1.0000   1.0000   1.0000
     1.0000   1.0000   1.0000   1.0000   1.0000   1.0000   1.0000   1.0000
     1.0000   1.0000   1.0000   1.0000   1.0000   1.0000   1.0000   1.0000
     1.0000   1.0000   1.0000   1.0000   1.0000   1.0000   1.0000   1.0000
     1.0000   1.0000   1.0000   1.0000   1.0000   1.0000   1.0000   1.0000
     1.0000   1.0000   1.0000   1.0000   1.0000   1.0000   1.0000   1.0000
     0.0000   0.0000   0.0000   0.0000   0.0000   0.0000   0.0000   0.0000
     0.0000   0.0000   0.0000   0.0000   0.0000   0.0000   0.0000   0.0000

          k = 0.2500 0.2079-0.3938 ( 20612 PWs)   bands (ev):

   -65.2143 -65.2139 -65.1780 -65.1761 -34.0118 -34.0116 -33.9957 -33.9952
   -33.9778 -33.9773 -29.5156 -29.5058 -29.4594 -29.4479 -29.3635 -29.3554
    -8.4253  -8.0840  -7.9496  -7.7700  -7.5603  -7.4464  -7.2203  -7.0680
     3.4155   3.6575   3.8431   4.0802   4.4160   4.7202   4.8467   5.0697
     5.4693   5.6976   5.8505   6.0039   6.0655   6.6290   6.8660   7.1658
     7.3727   7.4635   7.6573   7.7826   7.8750   8.1083   8.2050   8.5413
    12.3853  12.5803  12.8065  12.9395  13.0413  13.1634  14.9968  15.2946
    15.4711  15.6461  15.8015  15.8698  15.9666  16.1950  16.3359  16.4510

     occupation numbers 
     1.0000   1.0000   1.0000   1.0000   1.0000   1.0000   1.0000   1.0000
     1.0000   1.0000   1.0000   1.0000   1.0000   1.0000   1.0000   1.0000
     1.0000   1.0000   1.0000   1.0000   1.0000   1.0000   1.0000   1.0000
     1.0000   1.0000   1.0000   1.0000   1.0000   1.0000   1.0000   1.0000
     1.0000   1.0000   1.0000   1.0000   1.0000   1.0000   1.0000   1.0000
     1.0000   1.0000   1.0000   1.0000   1.0000   1.0000   1.0000   1.0000
     0.0000   0.0000   0.0000   0.0000   0.0000   0.0000   0.0000   0.0000
     0.0000   0.0000   0.0000   0.0000   0.0000   0.0000   0.0000   0.0000

          k = 0.2500 0.2079-0.2344 ( 20611 PWs)   bands (ev):

   -65.2148 -65.2135 -65.1797 -65.1745 -34.0112 -34.0105 -33.9973 -33.9956
   -33.9780 -33.9766 -29.5203 -29.4932 -29.4689 -29.4347 -29.3770 -29.3529
    -8.6875  -7.9761  -7.8414  -7.6620  -7.6096  -7.4651  -7.2251  -7.0437
     3.4281   3.6403   3.9306   4.2126   4.3793   4.4676   4.8260   5.1265
     5.3923   5.6069   5.7262   6.0679   6.4795   6.6875   6.7874   7.1033
     7.3236   7.4875   7.6178   7.7901   7.8852   7.9484   8.3649   8.5381
    12.2497  12.6010  12.7342  12.8316  13.1597  13.3039  15.0246  15.2989
    15.5493  15.6969  15.7702  15.8979  15.9512  16.2192  16.3133  16.5534

     occupation numbers 
     1.0000   1.0000   1.0000   1.0000   1.0000   1.0000   1.0000   1.0000
     1.0000   1.0000   1.0000   1.0000   1.0000   1.0000   1.0000   1.0000
     1.0000   1.0000   1.0000   1.0000   1.0000   1.0000   1.0000   1.0000
     1.0000   1.0000   1.0000   1.0000   1.0000   1.0000   1.0000   1.0000
     1.0000   1.0000   1.0000   1.0000   1.0000   1.0000   1.0000   1.0000
     1.0000   1.0000   1.0000   1.0000   1.0000   1.0000   1.0000   1.0000
     0.0000   0.0000   0.0000   0.0000   0.0000   0.0000   0.0000   0.0000
     0.0000   0.0000   0.0000   0.0000   0.0000   0.0000   0.0000   0.0000

          k = 0.2500 0.2079-0.0750 ( 20629 PWs)   bands (ev):

   -65.2151 -65.2133 -65.1807 -65.1736 -34.0105 -34.0092 -33.9990 -33.9962
   -33.9780 -33.9762 -29.5213 -29.4826 -29.4757 -29.4224 -29.3910 -29.3534
    -8.8401  -7.9973  -7.7677  -7.6725  -7.5975  -7.3748  -7.1659  -7.0719
     3.4425   3.6450   3.8412   4.1816   4.2719   4.5572   4.8412   5.2032
     5.4525   5.5923   5.6953   5.9627   6.3727   6.7226   6.9199   7.0804
     7.3253   7.4987   7.6170   7.7777   7.8510   8.1174   8.3720   8.5001
    12.2113  12.5485  12.6174  12.9498  13.2310  13.4783  15.0559  15.3695
    15.5486  15.6944  15.7557  15.8378  15.9806  16.1820  16.2834  16.6161

     occupation numbers 
     1.0000   1.0000   1.0000   1.0000   1.0000   1.0000   1.0000   1.0000
     1.0000   1.0000   1.0000   1.0000   1.0000   1.0000   1.0000   1.0000
     1.0000   1.0000   1.0000   1.0000   1.0000   1.0000   1.0000   1.0000
     1.0000   1.0000   1.0000   1.0000   1.0000   1.0000   1.0000   1.0000
     1.0000   1.0000   1.0000   1.0000   1.0000   1.0000   1.0000   1.0000
     1.0000   1.0000   1.0000   1.0000   1.0000   1.0000   1.0000   1.0000
     0.0000   0.0000   0.0000   0.0000   0.0000   0.0000   0.0000   0.0000
     0.0000   0.0000   0.0000   0.0000   0.0000   0.0000   0.0000   0.0000

          k = 0.2500 0.3465 0.0844 ( 20617 PWs)   bands (ev):

   -65.2151 -65.2133 -65.1806 -65.1737 -34.0104 -34.0091 -33.9991 -33.9962
   -33.9780 -33.9763 -29.5210 -29.4820 -29.4751 -29.4226 -29.3921 -29.3536
    -8.7393  -8.1552  -7.8727  -7.5889  -7.5580  -7.3645  -7.1545  -7.0569
     3.4342   3.7854   3.8601   4.0735   4.4096   4.5412   4.7664   5.1160
     5.4764   5.5528   5.8211   5.8500   6.6388   6.7567   6.8767   6.9877
     7.1983   7.4243   7.6738   7.6898   8.0117   8.0452   8.2312   8.3939
    12.1810  12.6451  12.7022  13.0067  13.3338  13.4524  15.1306  15.3307
    15.5650  15.6148  15.7443  15.8141  16.0087  16.1669  16.3654  16.5720

     occupation numbers 
     1.0000   1.0000   1.0000   1.0000   1.0000   1.0000   1.0000   1.0000
     1.0000   1.0000   1.0000   1.0000   1.0000   1.0000   1.0000   1.0000
     1.0000   1.0000   1.0000   1.0000   1.0000   1.0000   1.0000   1.0000
     1.0000   1.0000   1.0000   1.0000   1.0000   1.0000   1.0000   1.0000
     1.0000   1.0000   1.0000   1.0000   1.0000   1.0000   1.0000   1.0000
     1.0000   1.0000   1.0000   1.0000   1.0000   1.0000   1.0000   1.0000
     0.0000   0.0000   0.0000   0.0000   0.0000   0.0000   0.0000   0.0000
     0.0000   0.0000   0.0000   0.0000   0.0000   0.0000   0.0000   0.0000

          k = 0.2500 0.3465 0.2438 ( 20601 PWs)   bands (ev):

   -65.2148 -65.2135 -65.1797 -65.1746 -34.0112 -34.0106 -33.9973 -33.9956
   -33.9780 -33.9767 -29.5205 -29.4933 -29.4685 -29.4348 -29.3773 -29.3525
    -8.6010  -8.1759  -7.8926  -7.6564  -7.4527  -7.3708  -7.2946  -7.0607
     3.3691   3.5822   4.1105   4.1214   4.3185   4.6133   4.9068   5.1292
     5.3344   5.5233   5.6701   6.0476   6.6185   6.7284   6.9290   7.0702
     7.3551   7.4587   7.5487   7.6941   7.8468   8.0332   8.2216   8.3341
    12.2192  12.7196  12.8048  13.0471  13.1550  13.4048  15.1711  15.3415
    15.4879  15.5270  15.7572  15.8148  15.8753  16.2343  16.4255  16.5561

     occupation numbers 
     1.0000   1.0000   1.0000   1.0000   1.0000   1.0000   1.0000   1.0000
     1.0000   1.0000   1.0000   1.0000   1.0000   1.0000   1.0000   1.0000
     1.0000   1.0000   1.0000   1.0000   1.0000   1.0000   1.0000   1.0000
     1.0000   1.0000   1.0000   1.0000   1.0000   1.0000   1.0000   1.0000
     1.0000   1.0000   1.0000   1.0000   1.0000   1.0000   1.0000   1.0000
     1.0000   1.0000   1.0000   1.0000   1.0000   1.0000   1.0000   1.0000
     0.0000   0.0000   0.0000   0.0000   0.0000   0.0000   0.0000   0.0000
     0.0000   0.0000   0.0000   0.0000   0.0000   0.0000   0.0000   0.0000

          k = 0.2500 0.3465 0.4032 ( 20602 PWs)   bands (ev):

   -65.2143 -65.2138 -65.1780 -65.1761 -34.0119 -34.0117 -33.9956 -33.9951
   -33.9778 -33.9773 -29.5163 -29.5065 -29.4594 -29.4477 -29.3631 -29.3545
    -8.3626  -8.2184  -7.8754  -7.7952  -7.4981  -7.4512  -7.1886  -7.1372
     3.3678   3.5551   3.9593   4.1168   4.4368   4.7737   5.0345   5.0807
     5.3742   5.6307   5.6745   6.1825   6.2523   6.5385   6.9394   7.2299
     7.2460   7.4212   7.6032   7.7077   7.8991   7.9912   8.1613   8.3814
    12.3243  12.7318  12.8448  12.9035  13.0851  13.2856  15.0616  15.2941
    15.4391  15.5580  15.8028  15.8307  15.9782  16.1720  16.4016  16.4656

     occupation numbers 
     1.0000   1.0000   1.0000   1.0000   1.0000   1.0000   1.0000   1.0000
     1.0000   1.0000   1.0000   1.0000   1.0000   1.0000   1.0000   1.0000
     1.0000   1.0000   1.0000   1.0000   1.0000   1.0000   1.0000   1.0000
     1.0000   1.0000   1.0000   1.0000   1.0000   1.0000   1.0000   1.0000
     1.0000   1.0000   1.0000   1.0000   1.0000   1.0000   1.0000   1.0000
     1.0000   1.0000   1.0000   1.0000   1.0000   1.0000   1.0000   1.0000
     0.0000   0.0000   0.0000   0.0000   0.0000   0.0000   0.0000   0.0000
     0.0000   0.0000   0.0000   0.0000   0.0000   0.0000   0.0000   0.0000

          k = 0.2500 0.3465-0.3938 ( 20589 PWs)   bands (ev):

   -65.2143 -65.2138 -65.1779 -65.1761 -34.0119 -34.0117 -33.9957 -33.9951
   -33.9778 -33.9773 -29.5163 -29.5065 -29.4593 -29.4479 -29.3629 -29.3547
    -8.3758  -8.1053  -7.9668  -7.7929  -7.5273  -7.4161  -7.2861  -7.0639
     3.4131   3.6527   3.9917   4.0655   4.3956   4.6522   4.9232   5.1567
     5.4042   5.6935   5.8817   5.9458   6.3178   6.7174   6.8386   6.9975
     7.4098   7.4313   7.5744   7.6811   7.8211   7.9390   8.1735   8.5131
    12.4152  12.5133  12.8811  12.9701  13.0397  13.1237  15.0325  15.1946
    15.4766  15.6172  15.8230  15.8577  16.0953  16.2176  16.2768  16.4218

     occupation numbers 
     1.0000   1.0000   1.0000   1.0000   1.0000   1.0000   1.0000   1.0000
     1.0000   1.0000   1.0000   1.0000   1.0000   1.0000   1.0000   1.0000
     1.0000   1.0000   1.0000   1.0000   1.0000   1.0000   1.0000   1.0000
     1.0000   1.0000   1.0000   1.0000   1.0000   1.0000   1.0000   1.0000
     1.0000   1.0000   1.0000   1.0000   1.0000   1.0000   1.0000   1.0000
     1.0000   1.0000   1.0000   1.0000   1.0000   1.0000   1.0000   1.0000
     0.0000   0.0000   0.0000   0.0000   0.0000   0.0000   0.0000   0.0000
     0.0000   0.0000   0.0000   0.0000   0.0000   0.0000   0.0000   0.0000

          k = 0.2500 0.3465-0.2344 ( 20600 PWs)   bands (ev):

   -65.2148 -65.2135 -65.1796 -65.1746 -34.0112 -34.0106 -33.9973 -33.9956
   -33.9780 -33.9766 -29.5205 -29.4932 -29.4685 -29.4351 -29.3771 -29.3526
    -8.5942  -8.0723  -7.8967  -7.6954  -7.5592  -7.4422  -7.2399  -7.0199
     3.5247   3.6539   3.9912   4.2540   4.3280   4.5241   4.7106   5.1357
     5.2805   5.5969   5.8223   6.0988   6.5214   6.8210   6.8713   7.0879
     7.2398   7.4749   7.5849   7.6505   7.7866   7.8727   8.3085   8.4796
    12.1978  12.6751  12.8300  12.8968  13.1465  13.1664  15.0067  15.2164
    15.5936  15.6726  15.8055  15.8708  16.0098  16.1316  16.3650  16.5090

     occupation numbers 
     1.0000   1.0000   1.0000   1.0000   1.0000   1.0000   1.0000   1.0000
     1.0000   1.0000   1.0000   1.0000   1.0000   1.0000   1.0000   1.0000
     1.0000   1.0000   1.0000   1.0000   1.0000   1.0000   1.0000   1.0000
     1.0000   1.0000   1.0000   1.0000   1.0000   1.0000   1.0000   1.0000
     1.0000   1.0000   1.0000   1.0000   1.0000   1.0000   1.0000   1.0000
     1.0000   1.0000   1.0000   1.0000   1.0000   1.0000   1.0000   1.0000
     0.0000   0.0000   0.0000   0.0000   0.0000   0.0000   0.0000   0.0000
     0.0000   0.0000   0.0000   0.0000   0.0000   0.0000   0.0000   0.0000

          k = 0.2500 0.3465-0.0750 ( 20640 PWs)   bands (ev):

   -65.2151 -65.2133 -65.1806 -65.1737 -34.0104 -34.0091 -33.9991 -33.9962
   -33.9780 -33.9762 -29.5210 -29.4819 -29.4752 -29.4228 -29.3920 -29.3537
    -8.7357  -8.1297  -7.7571  -7.7243  -7.6078  -7.3638  -7.1366  -7.0425
     3.4964   3.8080   3.8882   4.1308   4.2822   4.5091   4.8439   5.0702
     5.4069   5.6098   5.7429   5.9750   6.5926   6.7419   6.9320   7.0726
     7.0933   7.3544   7.6412   7.7453   7.9163   8.1199   8.2886   8.3765
    12.1441  12.6713  12.6993  12.9266  13.2965  13.3796  14.9963  15.3129
    15.6000  15.7461  15.7902  15.8322  15.9983  16.1023  16.3259  16.6329

     occupation numbers 
     1.0000   1.0000   1.0000   1.0000   1.0000   1.0000   1.0000   1.0000
     1.0000   1.0000   1.0000   1.0000   1.0000   1.0000   1.0000   1.0000
     1.0000   1.0000   1.0000   1.0000   1.0000   1.0000   1.0000   1.0000
     1.0000   1.0000   1.0000   1.0000   1.0000   1.0000   1.0000   1.0000
     1.0000   1.0000   1.0000   1.0000   1.0000   1.0000   1.0000   1.0000
     1.0000   1.0000   1.0000   1.0000   1.0000   1.0000   1.0000   1.0000
     0.0000   0.0000   0.0000   0.0000   0.0000   0.0000   0.0000   0.0000
     0.0000   0.0000   0.0000   0.0000   0.0000   0.0000   0.0000   0.0000

          k = 0.4167 0.0693 0.0875 ( 20580 PWs)   bands (ev):

   -65.2150 -65.2133 -65.1808 -65.1737 -34.0106 -34.0092 -33.9989 -33.9962
   -33.9780 -33.9763 -29.5214 -29.4832 -29.4768 -29.4223 -29.3900 -29.3531
    -8.7664  -7.9395  -7.9166  -7.6790  -7.4955  -7.3173  -7.2543  -7.1225
     3.5656   3.6706   3.7686   4.2001   4.3128   4.5194   4.7038   5.0065
     5.1724   5.5447   5.8040   6.3496   6.5628   6.7116   6.8429   7.1166
     7.3274   7.5363   7.5891   7.6549   7.7919   8.1513   8.4254   8.6428
    12.3181  12.5430  12.6480  13.0154  13.1364  13.6116  15.2575  15.3144
    15.4394  15.6139  15.7186  15.7640  16.1211  16.2922  16.3700  16.4957

     occupation numbers 
     1.0000   1.0000   1.0000   1.0000   1.0000   1.0000   1.0000   1.0000
     1.0000   1.0000   1.0000   1.0000   1.0000   1.0000   1.0000   1.0000
     1.0000   1.0000   1.0000   1.0000   1.0000   1.0000   1.0000   1.0000
     1.0000   1.0000   1.0000   1.0000   1.0000   1.0000   1.0000   1.0000
     1.0000   1.0000   1.0000   1.0000   1.0000   1.0000   1.0000   1.0000
     1.0000   1.0000   1.0000   1.0000   1.0000   1.0000   1.0000   1.0000
     0.0000   0.0000   0.0000   0.0000   0.0000   0.0000   0.0000   0.0000
     0.0000   0.0000   0.0000   0.0000   0.0000   0.0000   0.0000   0.0000

          k = 0.4167 0.0693 0.2469 ( 20589 PWs)   bands (ev):

   -65.2148 -65.2135 -65.1797 -65.1745 -34.0112 -34.0104 -33.9973 -33.9956
   -33.9781 -33.9767 -29.5198 -29.4931 -29.4700 -29.4345 -29.3769 -29.3531
    -8.6041  -7.9620  -7.8892  -7.7670  -7.6135  -7.3791  -7.1606  -7.1256
     3.5391   3.7371   3.9963   4.0474   4.1975   4.4061   4.5952   4.7643
     5.3861   5.7635   6.1021   6.2968   6.3725   6.5500   6.8055   7.2580
     7.3615   7.4553   7.7045   7.7755   7.9038   8.0026   8.4656   8.5456
    12.2936  12.4933  12.7593  13.0130  13.1408  13.5365  15.1242  15.2328
    15.4661  15.5917  15.7199  15.8323  16.0457  16.2315  16.3900  16.4610

     occupation numbers 
     1.0000   1.0000   1.0000   1.0000   1.0000   1.0000   1.0000   1.0000
     1.0000   1.0000   1.0000   1.0000   1.0000   1.0000   1.0000   1.0000
     1.0000   1.0000   1.0000   1.0000   1.0000   1.0000   1.0000   1.0000
     1.0000   1.0000   1.0000   1.0000   1.0000   1.0000   1.0000   1.0000
     1.0000   1.0000   1.0000   1.0000   1.0000   1.0000   1.0000   1.0000
     1.0000   1.0000   1.0000   1.0000   1.0000   1.0000   1.0000   1.0000
     0.0000   0.0000   0.0000   0.0000   0.0000   0.0000   0.0000   0.0000
     0.0000   0.0000   0.0000   0.0000   0.0000   0.0000   0.0000   0.0000

          k = 0.4167 0.0693 0.4063 ( 20587 PWs)   bands (ev):

   -65.2144 -65.2139 -65.1779 -65.1761 -34.0117 -34.0115 -33.9958 -33.9953
   -33.9779 -33.9774 -29.5147 -29.5050 -29.4603 -29.4479 -29.3642 -29.3560
    -8.3216  -8.0456  -7.9302  -7.8277  -7.6813  -7.5042  -7.1122  -7.0925
     3.5485   3.6695   3.7493   3.8778   4.3646   4.7627   4.8003   4.9725
     5.3596   5.7483   5.8167   6.0927   6.2051   6.3329   7.0215   7.2199
     7.4770   7.5984   7.7559   7.8007   7.9958   8.0146   8.4223   8.4830
    12.3663  12.3880  12.8432  13.0015  13.1589  13.3441  15.1175  15.2450
    15.4578  15.5201  15.7054  15.8286  16.0352  16.2563  16.3368  16.4571

     occupation numbers 
     1.0000   1.0000   1.0000   1.0000   1.0000   1.0000   1.0000   1.0000
     1.0000   1.0000   1.0000   1.0000   1.0000   1.0000   1.0000   1.0000
     1.0000   1.0000   1.0000   1.0000   1.0000   1.0000   1.0000   1.0000
     1.0000   1.0000   1.0000   1.0000   1.0000   1.0000   1.0000   1.0000
     1.0000   1.0000   1.0000   1.0000   1.0000   1.0000   1.0000   1.0000
     1.0000   1.0000   1.0000   1.0000   1.0000   1.0000   1.0000   1.0000
     0.0000   0.0000   0.0000   0.0000   0.0000   0.0000   0.0000   0.0000
     0.0000   0.0000   0.0000   0.0000   0.0000   0.0000   0.0000   0.0000

          k = 0.4167 0.0693-0.3907 ( 20589 PWs)   bands (ev):

   -65.2144 -65.2139 -65.1780 -65.1760 -34.0117 -34.0115 -33.9958 -33.9953
   -33.9779 -33.9774 -29.5147 -29.5050 -29.4601 -29.4481 -29.3640 -29.3561
    -8.3502  -8.0106  -7.8785  -7.8277  -7.6478  -7.6016  -7.1168  -7.0868
     3.4799   3.5734   3.8125   3.9043   4.6482   4.7131   4.9055   5.0474
     5.3200   5.5072   5.8873   5.9225   6.0954   6.4359   7.0738   7.2229
     7.5062   7.5894   7.6654   7.8018   7.9815   8.0954   8.3444   8.5439
    12.3097  12.4676  12.7953  12.9949  13.0937  13.3643  15.1486  15.2583
    15.4741  15.5528  15.7358  15.8178  16.0555  16.2591  16.3816  16.4614

     occupation numbers 
     1.0000   1.0000   1.0000   1.0000   1.0000   1.0000   1.0000   1.0000
     1.0000   1.0000   1.0000   1.0000   1.0000   1.0000   1.0000   1.0000
     1.0000   1.0000   1.0000   1.0000   1.0000   1.0000   1.0000   1.0000
     1.0000   1.0000   1.0000   1.0000   1.0000   1.0000   1.0000   1.0000
     1.0000   1.0000   1.0000   1.0000   1.0000   1.0000   1.0000   1.0000
     1.0000   1.0000   1.0000   1.0000   1.0000   1.0000   1.0000   1.0000
     0.0000   0.0000   0.0000   0.0000   0.0000   0.0000   0.0000   0.0000
     0.0000   0.0000   0.0000   0.0000   0.0000   0.0000   0.0000   0.0000

          k = 0.4167 0.0693-0.2313 ( 20619 PWs)   bands (ev):

   -65.2148 -65.2135 -65.1797 -65.1744 -34.0112 -34.0105 -33.9973 -33.9957
   -33.9781 -33.9767 -29.5199 -29.4931 -29.4699 -29.4346 -29.3768 -29.3532
    -8.6196  -7.9424  -7.7895  -7.7161  -7.6936  -7.4682  -7.1637  -7.1176
     3.4423   3.5574   3.9488   4.2360   4.3889   4.5887   4.7416   5.0164
     5.2646   5.5740   5.8283   6.0279   6.4056   6.6389   6.8859   7.0815
     7.3695   7.6165   7.6781   7.7819   7.9062   7.9857   8.4753   8.5766
    12.3166  12.5575  12.6115  12.9021  13.1448  13.5324  15.1571  15.2650
    15.5649  15.6656  15.6812  15.8421  16.1017  16.2458  16.4036  16.4657

     occupation numbers 
     1.0000   1.0000   1.0000   1.0000   1.0000   1.0000   1.0000   1.0000
     1.0000   1.0000   1.0000   1.0000   1.0000   1.0000   1.0000   1.0000
     1.0000   1.0000   1.0000   1.0000   1.0000   1.0000   1.0000   1.0000
     1.0000   1.0000   1.0000   1.0000   1.0000   1.0000   1.0000   1.0000
     1.0000   1.0000   1.0000   1.0000   1.0000   1.0000   1.0000   1.0000
     1.0000   1.0000   1.0000   1.0000   1.0000   1.0000   1.0000   1.0000
     0.0000   0.0000   0.0000   0.0000   0.0000   0.0000   0.0000   0.0000
     0.0000   0.0000   0.0000   0.0000   0.0000   0.0000   0.0000   0.0000

          k = 0.4167 0.0693-0.0719 ( 20589 PWs)   bands (ev):

   -65.2150 -65.2133 -65.1808 -65.1737 -34.0106 -34.0092 -33.9989 -33.9962
   -33.9780 -33.9762 -29.5214 -29.4833 -29.4767 -29.4224 -29.3899 -29.3531
    -8.7712  -7.9368  -7.8789  -7.6609  -7.5358  -7.3467  -7.2380  -7.1276
     3.5042   3.6100   3.7313   4.3404   4.4971   4.5899   4.6562   5.0642
     5.2871   5.4235   5.6576   6.2398   6.5037   6.7323   6.8386   7.0024
     7.4203   7.5472   7.6031   7.7120   7.7692   8.1234   8.4969   8.6175
    12.4399  12.4487  12.5781  12.9413  13.1618  13.6064  15.2568  15.3064
    15.5151  15.6779  15.7175  15.7488  16.1414  16.3030  16.3393  16.4772

     occupation numbers 
     1.0000   1.0000   1.0000   1.0000   1.0000   1.0000   1.0000   1.0000
     1.0000   1.0000   1.0000   1.0000   1.0000   1.0000   1.0000   1.0000
     1.0000   1.0000   1.0000   1.0000   1.0000   1.0000   1.0000   1.0000
     1.0000   1.0000   1.0000   1.0000   1.0000   1.0000   1.0000   1.0000
     1.0000   1.0000   1.0000   1.0000   1.0000   1.0000   1.0000   1.0000
     1.0000   1.0000   1.0000   1.0000   1.0000   1.0000   1.0000   1.0000
     0.0000   0.0000   0.0000   0.0000   0.0000   0.0000   0.0000   0.0000
     0.0000   0.0000   0.0000   0.0000   0.0000   0.0000   0.0000   0.0000

          k = 0.4167 0.2079 0.0875 ( 20617 PWs)   bands (ev):

   -65.2150 -65.2133 -65.1806 -65.1737 -34.0105 -34.0091 -33.9990 -33.9962
   -33.9781 -33.9763 -29.5212 -29.4827 -29.4762 -29.4227 -29.3910 -29.3534
    -8.7104  -8.0296  -7.9137  -7.6284  -7.5471  -7.3263  -7.2366  -7.1078
     3.3612   3.7284   3.8671   4.3052   4.3989   4.6021   4.7592   5.0330
     5.3093   5.3683   6.0008   6.1442   6.3962   6.5889   6.8164   7.0015
     7.4612   7.5344   7.5775   7.6899   7.8096   8.0863   8.3870   8.5772
    12.2860  12.5537  12.6619  13.0546  13.1017  13.6768  15.1735  15.2812
    15.5428  15.6131  15.6840  15.8165  16.0176  16.1319  16.3490  16.6119

     occupation numbers 
     1.0000   1.0000   1.0000   1.0000   1.0000   1.0000   1.0000   1.0000
     1.0000   1.0000   1.0000   1.0000   1.0000   1.0000   1.0000   1.0000
     1.0000   1.0000   1.0000   1.0000   1.0000   1.0000   1.0000   1.0000
     1.0000   1.0000   1.0000   1.0000   1.0000   1.0000   1.0000   1.0000
     1.0000   1.0000   1.0000   1.0000   1.0000   1.0000   1.0000   1.0000
     1.0000   1.0000   1.0000   1.0000   1.0000   1.0000   1.0000   1.0000
     0.0000   0.0000   0.0000   0.0000   0.0000   0.0000   0.0000   0.0000
     0.0000   0.0000   0.0000   0.0000   0.0000   0.0000   0.0000   0.0000

          k = 0.4167 0.2079 0.2469 ( 20606 PWs)   bands (ev):

   -65.2148 -65.2135 -65.1796 -65.1745 -34.0112 -34.0105 -33.9973 -33.9956
   -33.9781 -33.9767 -29.5202 -29.4932 -29.4695 -29.4349 -29.3771 -29.3528
    -8.5620  -8.0624  -7.8922  -7.7105  -7.5772  -7.3795  -7.2064  -7.1185
     3.3768   3.7942   3.9265   4.1459   4.2278   4.5110   4.7410   5.0798
     5.2202   5.5723   5.9168   6.3025   6.4953   6.7363   6.8417   7.0914
     7.2934   7.4978   7.6271   7.7603   7.8203   8.0066   8.3835   8.4828
    12.2696  12.5636  12.7703  13.0092  13.0696  13.5857  15.0282  15.2629
    15.4715  15.5288  15.6889  15.8600  15.9797  16.1951  16.4157  16.5143

     occupation numbers 
     1.0000   1.0000   1.0000   1.0000   1.0000   1.0000   1.0000   1.0000
     1.0000   1.0000   1.0000   1.0000   1.0000   1.0000   1.0000   1.0000
     1.0000   1.0000   1.0000   1.0000   1.0000   1.0000   1.0000   1.0000
     1.0000   1.0000   1.0000   1.0000   1.0000   1.0000   1.0000   1.0000
     1.0000   1.0000   1.0000   1.0000   1.0000   1.0000   1.0000   1.0000
     1.0000   1.0000   1.0000   1.0000   1.0000   1.0000   1.0000   1.0000
     0.0000   0.0000   0.0000   0.0000   0.0000   0.0000   0.0000   0.0000
     0.0000   0.0000   0.0000   0.0000   0.0000   0.0000   0.0000   0.0000

          k = 0.4167 0.2079 0.4063 ( 20582 PWs)   bands (ev):

   -65.2143 -65.2139 -65.1778 -65.1760 -34.0118 -34.0116 -33.9957 -33.9952
   -33.9779 -33.9774 -29.5155 -29.5057 -29.4601 -29.4481 -29.3636 -29.3553
    -8.3081  -8.1039  -7.9325  -7.8296  -7.5956  -7.4685  -7.1563  -7.1272
     3.4543   3.7323   3.7845   3.9277   4.2529   4.7552   4.8872   4.9998
     5.4298   5.6582   5.8767   6.1306   6.3431   6.5580   6.9562   7.1517
     7.3230   7.5700   7.6713   7.7957   7.9154   8.0113   8.3058   8.4250
    12.3611  12.4756  12.8119  12.9371  13.1226  13.3836  14.9775  15.1930
    15.3826  15.4533  15.7504  15.8359  16.0641  16.2252  16.3388  16.4470

     occupation numbers 
     1.0000   1.0000   1.0000   1.0000   1.0000   1.0000   1.0000   1.0000
     1.0000   1.0000   1.0000   1.0000   1.0000   1.0000   1.0000   1.0000
     1.0000   1.0000   1.0000   1.0000   1.0000   1.0000   1.0000   1.0000
     1.0000   1.0000   1.0000   1.0000   1.0000   1.0000   1.0000   1.0000
     1.0000   1.0000   1.0000   1.0000   1.0000   1.0000   1.0000   1.0000
     1.0000   1.0000   1.0000   1.0000   1.0000   1.0000   1.0000   1.0000
     0.0000   0.0000   0.0000   0.0000   0.0000   0.0000   0.0000   0.0000
     0.0000   0.0000   0.0000   0.0000   0.0000   0.0000   0.0000   0.0000

          k = 0.4167 0.2079-0.3907 ( 20596 PWs)   bands (ev):

   -65.2143 -65.2139 -65.1778 -65.1759 -34.0118 -34.0116 -33.9957 -33.9952
   -33.9779 -33.9774 -29.5155 -29.5057 -29.4600 -29.4482 -29.3635 -29.3553
    -8.3247  -8.0603  -7.9255  -7.8310  -7.5731  -7.5343  -7.1783  -7.0987
     3.4758   3.6930   3.7596   3.9428   4.4383   4.6087   4.9072   4.9958
     5.4965   5.8107   5.8650   5.9523   6.2371   6.6179   6.9993   7.0635
     7.4255   7.4802   7.6525   7.7548   7.9451   8.0652   8.2421   8.4878
    12.3361  12.5136  12.7514  12.9543  13.1174  13.3227  15.0441  15.1091
    15.3940  15.4999  15.7610  15.8429  16.0855  16.2796  16.3241  16.4122

     occupation numbers 
     1.0000   1.0000   1.0000   1.0000   1.0000   1.0000   1.0000   1.0000
     1.0000   1.0000   1.0000   1.0000   1.0000   1.0000   1.0000   1.0000
     1.0000   1.0000   1.0000   1.0000   1.0000   1.0000   1.0000   1.0000
     1.0000   1.0000   1.0000   1.0000   1.0000   1.0000   1.0000   1.0000
     1.0000   1.0000   1.0000   1.0000   1.0000   1.0000   1.0000   1.0000
     1.0000   1.0000   1.0000   1.0000   1.0000   1.0000   1.0000   1.0000
     0.0000   0.0000   0.0000   0.0000   0.0000   0.0000   0.0000   0.0000
     0.0000   0.0000   0.0000   0.0000   0.0000   0.0000   0.0000   0.0000

          k = 0.4167 0.2079-0.2313 ( 20605 PWs)   bands (ev):

   -65.2148 -65.2135 -65.1796 -65.1744 -34.0112 -34.0105 -33.9973 -33.9956
   -33.9781 -33.9767 -29.5202 -29.4932 -29.4695 -29.4351 -29.3770 -29.3528
    -8.5688  -8.0316  -7.8103  -7.7118  -7.6566  -7.4382  -7.2029  -7.0971
     3.3843   3.7301   3.9264   4.1672   4.3354   4.6084   4.7470   5.0168
     5.4083   5.5843   5.7466   6.2252   6.3975   6.7323   6.9364   7.0398
     7.2552   7.3977   7.6170   7.7737   7.9029   8.0213   8.3777   8.5259
    12.2683  12.6066  12.6698  12.9015  13.1063  13.5187  15.0912  15.1744
    15.4955  15.6172  15.7141  15.8657  16.0243  16.2383  16.3182  16.5166

     occupation numbers 
     1.0000   1.0000   1.0000   1.0000   1.0000   1.0000   1.0000   1.0000
     1.0000   1.0000   1.0000   1.0000   1.0000   1.0000   1.0000   1.0000
     1.0000   1.0000   1.0000   1.0000   1.0000   1.0000   1.0000   1.0000
     1.0000   1.0000   1.0000   1.0000   1.0000   1.0000   1.0000   1.0000
     1.0000   1.0000   1.0000   1.0000   1.0000   1.0000   1.0000   1.0000
     1.0000   1.0000   1.0000   1.0000   1.0000   1.0000   1.0000   1.0000
     0.0000   0.0000   0.0000   0.0000   0.0000   0.0000   0.0000   0.0000
     0.0000   0.0000   0.0000   0.0000   0.0000   0.0000   0.0000   0.0000

          k = 0.4167 0.2079-0.0719 ( 20613 PWs)   bands (ev):

   -65.2150 -65.2133 -65.1806 -65.1737 -34.0105 -34.0091 -33.9990 -33.9962
   -33.9781 -33.9763 -29.5212 -29.4827 -29.4762 -29.4228 -29.3909 -29.3534
    -8.7123  -8.0251  -7.8648  -7.6257  -7.6051  -7.3495  -7.2154  -7.1062
     3.3570   3.7084   3.8699   4.3277   4.4892   4.5631   4.7453   5.1309
     5.3428   5.4299   5.7546   6.1671   6.3885   6.5809   6.8241   6.9987
     7.3701   7.5034   7.5764   7.7525   7.8678   8.0654   8.4532   8.5413
    12.3061  12.5243  12.6488  12.9481  13.1563  13.6505  15.1899  15.2324
    15.5467  15.6868  15.7433  15.8096  15.9860  16.1874  16.2494  16.6218

     occupation numbers 
     1.0000   1.0000   1.0000   1.0000   1.0000   1.0000   1.0000   1.0000
     1.0000   1.0000   1.0000   1.0000   1.0000   1.0000   1.0000   1.0000
     1.0000   1.0000   1.0000   1.0000   1.0000   1.0000   1.0000   1.0000
     1.0000   1.0000   1.0000   1.0000   1.0000   1.0000   1.0000   1.0000
     1.0000   1.0000   1.0000   1.0000   1.0000   1.0000   1.0000   1.0000
     1.0000   1.0000   1.0000   1.0000   1.0000   1.0000   1.0000   1.0000
     0.0000   0.0000   0.0000   0.0000   0.0000   0.0000   0.0000   0.0000
     0.0000   0.0000   0.0000   0.0000   0.0000   0.0000   0.0000   0.0000

          k = 0.4167 0.3465 0.0875 ( 20629 PWs)   bands (ev):

   -65.2150 -65.2133 -65.1805 -65.1737 -34.0104 -34.0091 -33.9992 -33.9962
   -33.9781 -33.9763 -29.5210 -29.4821 -29.4755 -29.4231 -29.3920 -29.3536
    -8.6437  -8.1016  -7.9223  -7.6149  -7.5812  -7.3462  -7.1801  -7.1184
     3.2074   3.8606   3.9231   4.3750   4.4137   4.5864   4.8936   5.1987
     5.3272   5.5434   5.6715   6.0133   6.4044   6.6018   6.7602   6.8662
     7.2283   7.5592   7.6303   7.7215   7.8823   8.1640   8.3234   8.4909
    12.2151  12.6276  12.7099  12.9605  13.1649  13.7061  15.1231  15.2440
    15.5351  15.6109  15.7479  15.8582  15.9321  16.0452  16.3167  16.5711

     occupation numbers 
     1.0000   1.0000   1.0000   1.0000   1.0000   1.0000   1.0000   1.0000
     1.0000   1.0000   1.0000   1.0000   1.0000   1.0000   1.0000   1.0000
     1.0000   1.0000   1.0000   1.0000   1.0000   1.0000   1.0000   1.0000
     1.0000   1.0000   1.0000   1.0000   1.0000   1.0000   1.0000   1.0000
     1.0000   1.0000   1.0000   1.0000   1.0000   1.0000   1.0000   1.0000
     1.0000   1.0000   1.0000   1.0000   1.0000   1.0000   1.0000   1.0000
     0.0000   0.0000   0.0000   0.0000   0.0000   0.0000   0.0000   0.0000
     0.0000   0.0000   0.0000   0.0000   0.0000   0.0000   0.0000   0.0000

          k = 0.4167 0.3465 0.2469 ( 20632 PWs)   bands (ev):

   -65.2148 -65.2135 -65.1795 -65.1745 -34.0112 -34.0106 -33.9973 -33.9956
   -33.9781 -33.9767 -29.5205 -29.4933 -29.4691 -29.4354 -29.3772 -29.3525
    -8.5131  -8.1343  -7.8974  -7.7017  -7.5058  -7.4155  -7.2251  -7.1234
     3.2460   3.7391   4.0275   4.2413   4.2733   4.5994   4.9593   5.0376
     5.3692   5.5274   5.6652   6.1420   6.6274   6.7793   6.8647   7.0406
     7.3079   7.3851   7.5661   7.6922   7.8703   8.0480   8.2903   8.3809
    12.2463  12.6536  12.7762  12.9459  13.0644  13.6016  14.9994  15.2199
    15.4242  15.4564  15.7589  15.8559  15.9306  16.1634  16.4259  16.5309

     occupation numbers 
     1.0000   1.0000   1.0000   1.0000   1.0000   1.0000   1.0000   1.0000
     1.0000   1.0000   1.0000   1.0000   1.0000   1.0000   1.0000   1.0000
     1.0000   1.0000   1.0000   1.0000   1.0000   1.0000   1.0000   1.0000
     1.0000   1.0000   1.0000   1.0000   1.0000   1.0000   1.0000   1.0000
     1.0000   1.0000   1.0000   1.0000   1.0000   1.0000   1.0000   1.0000
     1.0000   1.0000   1.0000   1.0000   1.0000   1.0000   1.0000   1.0000
     0.0000   0.0000   0.0000   0.0000   0.0000   0.0000   0.0000   0.0000
     0.0000   0.0000   0.0000   0.0000   0.0000   0.0000   0.0000   0.0000

          k = 0.4167 0.3465 0.4063 ( 20602 PWs)   bands (ev):

   -65.2143 -65.2138 -65.1778 -65.1759 -34.0119 -34.0117 -33.9957 -33.9952
   -33.9779 -33.9773 -29.5163 -29.5064 -29.4599 -29.4483 -29.3630 -29.3545
    -8.2942  -8.1617  -7.8968  -7.8433  -7.5080  -7.4580  -7.2048  -7.1613
     3.3935   3.6682   3.8200   3.9500   4.4409   4.6881   4.9034   5.0795
     5.3136   5.7445   5.8722   6.1928   6.3969   6.7552   6.9596   7.1742
     7.1820   7.4503   7.6095   7.7871   7.8611   7.9516   8.2067   8.3495
    12.3605  12.5814  12.7492  12.8684  13.1089  13.4062  14.9196  15.0626
    15.3408  15.3650  15.7922  15.8398  16.1004  16.2256  16.3522  16.3936

     occupation numbers 
     1.0000   1.0000   1.0000   1.0000   1.0000   1.0000   1.0000   1.0000
     1.0000   1.0000   1.0000   1.0000   1.0000   1.0000   1.0000   1.0000
     1.0000   1.0000   1.0000   1.0000   1.0000   1.0000   1.0000   1.0000
     1.0000   1.0000   1.0000   1.0000   1.0000   1.0000   1.0000   1.0000
     1.0000   1.0000   1.0000   1.0000   1.0000   1.0000   1.0000   1.0000
     1.0000   1.0000   1.0000   1.0000   1.0000   1.0000   1.0000   1.0000
     0.0000   0.0000   0.0000   0.0000   0.0000   0.0000   0.0000   0.0000
     0.0000   0.0000   0.0000   0.0000   0.0000   0.0000   0.0000   0.0000

          k = 0.4167 0.3465-0.3907 ( 20610 PWs)   bands (ev):

   -65.2143 -65.2138 -65.1777 -65.1759 -34.0119 -34.0118 -33.9957 -33.9951
   -33.9779 -33.9774 -29.5163 -29.5064 -29.4598 -29.4484 -29.3629 -29.3546
    -8.3020  -8.1037  -7.9347  -7.8424  -7.5055  -7.4880  -7.2352  -7.1203
     3.5224   3.6255   3.7875   3.9448   4.3887   4.6760   4.8722   5.0368
     5.3997   5.7551   5.9649   6.1500   6.4616   6.7494   6.9631   6.9958
     7.2914   7.3805   7.6376   7.7531   7.7934   8.0474   8.1187   8.4493
    12.3570  12.5461  12.7554  12.8571  13.1705  13.2730  14.9551  14.9733
    15.3331  15.4429  15.7983  15.8383  16.1823  16.2708  16.2910  16.3336

     occupation numbers 
     1.0000   1.0000   1.0000   1.0000   1.0000   1.0000   1.0000   1.0000
     1.0000   1.0000   1.0000   1.0000   1.0000   1.0000   1.0000   1.0000
     1.0000   1.0000   1.0000   1.0000   1.0000   1.0000   1.0000   1.0000
     1.0000   1.0000   1.0000   1.0000   1.0000   1.0000   1.0000   1.0000
     1.0000   1.0000   1.0000   1.0000   1.0000   1.0000   1.0000   1.0000
     1.0000   1.0000   1.0000   1.0000   1.0000   1.0000   1.0000   1.0000
     0.0000   0.0000   0.0000   0.0000   0.0000   0.0000   0.0000   0.0000
     0.0000   0.0000   0.0000   0.0000   0.0000   0.0000   0.0000   0.0000

          k = 0.4167 0.3465-0.2313 ( 20623 PWs)   bands (ev):

   -65.2148 -65.2135 -65.1794 -65.1745 -34.0112 -34.0106 -33.9973 -33.9956
   -33.9781 -33.9767 -29.5205 -29.4932 -29.4691 -29.4355 -29.3771 -29.3525
    -8.5089  -8.0949  -7.8573  -7.7202  -7.6057  -7.4373  -7.2039  -7.0959
     3.3410   3.7743   4.0138   4.2207   4.2976   4.4165   4.9345   5.1066
     5.3304   5.5790   5.7578   6.2675   6.4700   6.8483   6.9489   7.0168
     7.1938   7.2790   7.5033   7.6671   7.9270   8.0982   8.2449   8.4697
    12.2167  12.6878  12.7287  12.8651  13.0842  13.4829  15.0269  15.0579
    15.4740  15.5558  15.7607  15.8685  16.0534  16.1851  16.2549  16.5176

     occupation numbers 
     1.0000   1.0000   1.0000   1.0000   1.0000   1.0000   1.0000   1.0000
     1.0000   1.0000   1.0000   1.0000   1.0000   1.0000   1.0000   1.0000
     1.0000   1.0000   1.0000   1.0000   1.0000   1.0000   1.0000   1.0000
     1.0000   1.0000   1.0000   1.0000   1.0000   1.0000   1.0000   1.0000
     1.0000   1.0000   1.0000   1.0000   1.0000   1.0000   1.0000   1.0000
     1.0000   1.0000   1.0000   1.0000   1.0000   1.0000   1.0000   1.0000
     0.0000   0.0000   0.0000   0.0000   0.0000   0.0000   0.0000   0.0000
     0.0000   0.0000   0.0000   0.0000   0.0000   0.0000   0.0000   0.0000

          k = 0.4167 0.3465-0.0719 ( 20652 PWs)   bands (ev):

   -65.2150 -65.2133 -65.1804 -65.1737 -34.0104 -34.0091 -33.9992 -33.9962
   -33.9781 -33.9763 -29.5210 -29.4821 -29.4756 -29.4232 -29.3919 -29.3537
    -8.6415  -8.0956  -7.8710  -7.6534  -7.6227  -7.3554  -7.1629  -7.1097
     3.2391   3.8715   3.9466   4.3474   4.4322   4.5005   4.9108   5.2045
     5.3770   5.5292   5.6641   6.0301   6.4635   6.5617   6.7773   6.8657
     7.1862   7.3764   7.6519   7.8193   7.9423   8.1286   8.3908   8.4413
    12.1962  12.6419  12.7160  12.8818  13.1808  13.6615  15.1280  15.1517
    15.5584  15.7036  15.7669  15.8643  15.9359  16.0573  16.2217  16.6670

     occupation numbers 
     1.0000   1.0000   1.0000   1.0000   1.0000   1.0000   1.0000   1.0000
     1.0000   1.0000   1.0000   1.0000   1.0000   1.0000   1.0000   1.0000
     1.0000   1.0000   1.0000   1.0000   1.0000   1.0000   1.0000   1.0000
     1.0000   1.0000   1.0000   1.0000   1.0000   1.0000   1.0000   1.0000
     1.0000   1.0000   1.0000   1.0000   1.0000   1.0000   1.0000   1.0000
     1.0000   1.0000   1.0000   1.0000   1.0000   1.0000   1.0000   1.0000
     0.0000   0.0000   0.0000   0.0000   0.0000   0.0000   0.0000   0.0000
     0.0000   0.0000   0.0000   0.0000   0.0000   0.0000   0.0000   0.0000

     the Fermi energy is    11.2227 ev

!    total energy              =   -1002.57326833 Ry
     estimated scf accuracy    <          5.9E-11 Ry
     smearing contrib. (-TS)   =       0.00000000 Ry
     internal energy E=F+TS    =   -1002.57326833 Ry

     The total energy is F=E-TS. E is the sum of the following terms:
     one-electron contribution =    -393.44786556 Ry
     hartree contribution      =     249.82316792 Ry
     xc contribution           =    -204.44945464 Ry
     ewald contribution        =    -654.59497581 Ry
     Hubbard energy            =       0.09585976 Ry

     total magnetization       =    10.00 Bohr mag/cell
     absolute magnetization    =    10.03 Bohr mag/cell

     convergence has been achieved in  12 iterations

     Writing all to output data dir ./tmp/MnWO4/MnWO4.save/ :
     XML data file, charge density, pseudopotentials, collected wavefunctions
 
     init_run     :      6.13s CPU      6.24s WALL (       1 calls)
     electrons    :    198.35s CPU    200.15s WALL (       1 calls)

     Called by init_run:
     wfcinit      :      6.03s CPU      6.12s WALL (       1 calls)
     wfcinit:atom :      0.04s CPU      0.04s WALL (     108 calls)
     wfcinit:wfcr :      4.64s CPU      4.71s WALL (     108 calls)
     potinit      :      0.02s CPU      0.02s WALL (       1 calls)
     hinit0       :      0.02s CPU      0.02s WALL (       1 calls)

     Called by electrons:
     c_bands      :    178.44s CPU    179.91s WALL (      12 calls)
     sum_band     :     19.50s CPU     19.74s WALL (      12 calls)
     v_of_rho     :      0.20s CPU      0.21s WALL (      13 calls)
     v_h          :      0.01s CPU      0.01s WALL (      13 calls)
     v_xc         :      0.20s CPU      0.20s WALL (      13 calls)
     mix_rho      :      0.21s CPU      0.22s WALL (      12 calls)

     Called by c_bands:
     init_us_2    :      4.19s CPU      4.26s WALL (    2808 calls)
     cegterg      :    164.39s CPU    165.63s WALL (    1296 calls)

     Called by sum_band:
     sum_band:wei :      0.09s CPU      0.09s WALL (      12 calls)
     sum_band:loo :     18.37s CPU     18.55s WALL (      12 calls)
     sum_band:buf :      0.44s CPU      0.45s WALL (    1296 calls)
     sum_band:ini :      1.67s CPU      1.68s WALL (    1296 calls)

     Called by *egterg:
     cdiaghg      :     19.37s CPU     19.45s WALL (    6122 calls)
     cegterg:over :      8.66s CPU      8.72s WALL (    4826 calls)
     cegterg:upda :      5.76s CPU      5.80s WALL (    4826 calls)
     cegterg:last :     10.42s CPU     10.48s WALL (    2933 calls)
     h_psi        :    119.62s CPU    120.69s WALL (    6230 calls)
     g_psi        :      0.41s CPU      0.42s WALL (    4826 calls)

     Called by h_psi:
     h_psi:calbec :     13.79s CPU     13.87s WALL (    6230 calls)
     vloc_psi     :     86.00s CPU     86.88s WALL (    6230 calls)
     add_vuspsi   :     13.95s CPU     14.03s WALL (    6230 calls)
     vhpsi        :      5.21s CPU      5.24s WALL (    6230 calls)

     General routines
     calbec       :     19.08s CPU     19.23s WALL (   13864 calls)
     fft          :      0.08s CPU      0.09s WALL (     245 calls)
     ffts         :      0.12s CPU      0.12s WALL (     333 calls)
     fftw         :     95.29s CPU     96.24s WALL (  542274 calls)
 
     Parallel routines

     Hubbard U routines
     new_ns       :      1.00s CPU      1.06s WALL (      12 calls)
     vhpsi        :      5.21s CPU      5.24s WALL (    6230 calls)
 
     PWSCF        :   3m25.30s CPU   3m31.47s WALL

 
   This run was terminated on:  14:17:15  15Oct2025            

=------------------------------------------------------------------------------=
   JOB DONE.
=------------------------------------------------------------------------------=
