
     Program PWSCF v.7.4.1 starts on 19Nov2025 at  6:18:27 
        Git branch: heads/qe-7.4.1
        Last git commit: 500de340b820e1cb8c05f2d8bb8fced102f377c1-dirty
        Last git commit date: Fri Feb 7 14:59:05 2025 +0000
        Last git commit subject: Merge branch 'qe-7.4.1' into 'master'

     This program is part of the open-source Quantum ESPRESSO suite
     for quantum simulation of materials; please cite
         "P. Giannozzi et al., J. Phys.:Condens. Matter 21 395502 (2009);
         "P. Giannozzi et al., J. Phys.:Condens. Matter 29 465901 (2017);
         "P. Giannozzi et al., J. Chem. Phys. 152 154105 (2020);
          URL http://www.quantum-espresso.org", 
     in publications or presentations arising from this work. More details at
     http://www.quantum-espresso.org/quote

     Parallel version (MPI), running on    16 processors

     MPI processes distributed on     1 nodes
     685399 MiB available memory on the printing compute node when the environment starts
 
     Reading input from inputs_FM/MnFeWO4_FM.in

     Current dimensions of program PWSCF are:
     Max number of different atomic species (ntypx) = 10
     Max number of k-points (npk) =  40000
     Max angular momentum in pseudopotentials (lmaxx) =  4
     Message from routine setup:
     using ibrav=0 with symmetry is DISCOURAGED, use correct ibrav instead
 
     R & G space division:  proc/nbgrp/npool/nimage =      16
     Subspace diagonalization in iterative solution of the eigenvalue problem:
     a serial algorithm will be used

 
     Parallelization info
     --------------------
     sticks:   dense  smooth     PW     G-vecs:    dense   smooth      PW
     Min         218     218     59                 9482     9482    1345
     Max         219     219     60                 9485     9485    1350
     Sum        3489    3489    945               151731   151731   21541
 
     Using Slab Decomposition
 


     bravais-lattice index     =            0
     lattice parameter (alat)  =       8.6340  a.u.
     unit-cell volume          =     854.2798 (a.u.)^3
     number of atoms/cell      =           12
     number of atomic types    =            4
     number of electrons       =       107.00
     number of Kohn-Sham states=           65
     kinetic-energy cutoff     =     120.0000  Ry
     charge density cutoff     =     480.0000  Ry
     scf convergence threshold =      1.0E-09
     mixing beta               =       0.7000
     number of iterations used =            8  local-TF  mixing
     Exchange-correlation= PBESOL
                           (   1   4  10   8   0   0   0)
     Hubbard projectors: ortho-atomic
     Hubbard parameters of DFT+U (Dudarev formulation) in eV:
     U(Mn-3d) =  4.6500
     U(Fe-3d) =  7.0800

     Internal variables: lda_plus_u = T, lda_plus_u_kind = 0

     celldm(1)=   8.634048  celldm(2)=   0.000000  celldm(3)=   0.000000
     celldm(4)=   0.000000  celldm(5)=   0.000000  celldm(6)=   0.000000

     crystal axes: (cart. coord. in units of alat)
               a(1) = (   1.000000   0.000000   0.000209 )  
               a(2) = (   0.000000   1.228353   0.000000 )  
               a(3) = (  -0.011509   0.000000   1.080520 )  

     reciprocal axes: (cart. coord. in units 2 pi/alat)
               b(1) = (  0.999998  0.000000  0.010652 )  
               b(2) = (  0.000000  0.814098  0.000000 )  
               b(3) = ( -0.000194  0.000000  0.925479 )  


     PseudoPot. # 1 for Mn read from file:
     pseudo_dojo_pbesol/Mn.upf
     MD5 check sum: ef44e22c4884c1dd3870421f9f7ffd72
     Pseudo is Norm-conserving + core correction, Zval = 15.0
     Generated using ONCVPSP code by D. R. Hamann
     Using radial grid of 1448 points,  6 beta functions with: 
                l(1) =   0
                l(2) =   0
                l(3) =   1
                l(4) =   1
                l(5) =   2
                l(6) =   2

     PseudoPot. # 2 for Fe read from file:
     pseudo_dojo_pbesol/Fe.upf
     MD5 check sum: d1f1a3649ace7f41c554fadafcf9d57b
     Pseudo is Norm-conserving + core correction, Zval = 16.0
     Generated using ONCVPSP code by D. R. Hamann
     Using radial grid of 1426 points,  6 beta functions with: 
                l(1) =   0
                l(2) =   0
                l(3) =   1
                l(4) =   1
                l(5) =   2
                l(6) =   2

     PseudoPot. # 3 for W  read from file:
     pseudo_dojo_pbesol/W.upf
     MD5 check sum: b5ac44390825a9169ccdba7091ec60d0
     Pseudo is Norm-conserving + core correction, Zval = 14.0
     Generated using ONCVPSP code by D. R. Hamann
     Using radial grid of 1396 points,  8 beta functions with: 
                l(1) =   0
                l(2) =   0
                l(3) =   1
                l(4) =   1
                l(5) =   2
                l(6) =   2
                l(7) =   3
                l(8) =   3

     PseudoPot. # 4 for O  read from file:
     pseudo_dojo_pbesol/O.upf
     MD5 check sum: f226cbcd508cec715ff87a8f75a1dfba
     Pseudo is Norm-conserving + core correction, Zval =  6.0
     Generated using ONCVPSP code by D. R. Hamann
     Using radial grid of  936 points,  5 beta functions with: 
                l(1) =   0
                l(2) =   0
                l(3) =   1
                l(4) =   1
                l(5) =   2

     atomic species   valence    mass     pseudopotential
     Mn               15.00    54.93805     Mn( 1.00)
     Fe               16.00    55.84500     Fe( 1.00)
     W                14.00   183.84000     W ( 1.00)
     O                 6.00    15.99940     O ( 1.00)

     Starting magnetic structure 
     atomic species   magnetization
     Mn              0.200
     Fe              0.200
     W               0.000
     O               0.000

      2 Sym. Ops. (no inversion) found ( 1 have fractional translation)


                                    s                        frac. trans.

      isym =  1     identity                                     

 cryst.   s( 1) = (     1          0          0      )
                  (     0          1          0      )
                  (     0          0          1      )

 cart.    s( 1) = (  1.0000000  0.0000000  0.0000000 )
                  (  0.0000000  1.0000000  0.0000000 )
                  (  0.0000000  0.0000000  1.0000000 )


      isym =  2     180 deg rotation - cart. axis [0,1,0]        

 cryst.   s( 2) = (    -1          0          0      )    f =(  0.0000000 )
                  (     0          1          0      )       (  0.0000000 )
                  (     0          0         -1      )       ( -0.5000000 )

 cart.    s( 2) = ( -1.0000000  0.0000000 -0.0000000 )    f =(  0.0057547 )
                  (  0.0000000  1.0000000  0.0000000 )       (  0.0000000 )
                  (  0.0000000  0.0000000 -1.0000000 )       ( -0.5402598 )


   Cartesian axes

     site n.     atom                  positions (alat units)
         1        Mn     tau(   1) = (   0.4913679   0.8322135   0.8104943  )
         2        Fe     tau(   2) = (   0.4971226   0.3961397   0.2702346  )
         3        W      tau(   3) = (  -0.0086321   0.2195482   0.8103896  )
         4        W      tau(   4) = (  -0.0028774   1.0088049   0.2701299  )
         5        O      tau(   5) = (   0.2445678   0.4604749   0.9694086  )
         6        O      tau(   6) = (   0.7381680   0.4604749   0.6515801  )
         7        O      tau(   7) = (   0.7439228   0.7678782   0.1113203  )
         8        O      tau(   8) = (   0.2503225   0.7678782   0.4291489  )
         9        O      tau(   9) = (   0.2021510   1.0993871   1.0150294  )
        10        O      tau(  10) = (   0.7805849   1.0993871   0.6059593  )
        11        O      tau(  11) = (   0.7863396   0.1289660   0.0656995  )
        12        O      tau(  12) = (   0.2079057   0.1289660   0.4747697  )

   Crystallographic axes

     site n.     atom                  positions (cryst. coord.)
         1        Mn     tau(   1) = (  0.5000000  0.6775034  0.7500000  )
         2        Fe     tau(   2) = (  0.5000000  0.3224966  0.2500000  )
         3        W      tau(   3) = (  0.0000000  0.1787338  0.7500000  )
         4        W      tau(   4) = (  0.0000000  0.8212662  0.2500000  )
         5        O      tau(   5) = (  0.2548931  0.3748717  0.8971196  )
         6        O      tau(   6) = (  0.7451069  0.3748717  0.6028804  )
         7        O      tau(   7) = (  0.7451069  0.6251283  0.1028804  )
         8        O      tau(   8) = (  0.2548931  0.6251283  0.3971196  )
         9        O      tau(   9) = (  0.2129623  0.8950090  0.9393489  )
        10        O      tau(  10) = (  0.7870377  0.8950090  0.5606511  )
        11        O      tau(  11) = (  0.7870377  0.1049910  0.0606511  )
        12        O      tau(  12) = (  0.2129623  0.1049910  0.4393489  )

     number of k points=    54  Marzari-Vanderbilt smearing, width (Ry)=  0.0200
                       cart. coord. in units 2pi/alat
        k(    1) = (   0.0833170   0.0678415   0.0780109), wk =   0.0185185
        k(    2) = (   0.0832847   0.0678415   0.2322573), wk =   0.0185185
        k(    3) = (   0.0832524   0.0678415   0.3865038), wk =   0.0185185
        k(    4) = (   0.0834139   0.0678415  -0.3847285), wk =   0.0185185
        k(    5) = (   0.0833816   0.0678415  -0.2304820), wk =   0.0185185
        k(    6) = (   0.0833493   0.0678415  -0.0762356), wk =   0.0185185
        k(    7) = (   0.0833170   0.2035245   0.0780109), wk =   0.0185185
        k(    8) = (   0.0832847   0.2035245   0.2322573), wk =   0.0185185
        k(    9) = (   0.0832524   0.2035245   0.3865038), wk =   0.0185185
        k(   10) = (   0.0834139   0.2035245  -0.3847285), wk =   0.0185185
        k(   11) = (   0.0833816   0.2035245  -0.2304820), wk =   0.0185185
        k(   12) = (   0.0833493   0.2035245  -0.0762356), wk =   0.0185185
        k(   13) = (   0.0833170   0.3392076   0.0780109), wk =   0.0185185
        k(   14) = (   0.0832847   0.3392076   0.2322573), wk =   0.0185185
        k(   15) = (   0.0832524   0.3392076   0.3865038), wk =   0.0185185
        k(   16) = (   0.0834139   0.3392076  -0.3847285), wk =   0.0185185
        k(   17) = (   0.0833816   0.3392076  -0.2304820), wk =   0.0185185
        k(   18) = (   0.0833493   0.3392076  -0.0762356), wk =   0.0185185
        k(   19) = (   0.2499833   0.0678415   0.0797862), wk =   0.0185185
        k(   20) = (   0.2499510   0.0678415   0.2340326), wk =   0.0185185
        k(   21) = (   0.2499187   0.0678415   0.3882791), wk =   0.0185185
        k(   22) = (   0.2500802   0.0678415  -0.3829532), wk =   0.0185185
        k(   23) = (   0.2500479   0.0678415  -0.2287067), wk =   0.0185185
        k(   24) = (   0.2500156   0.0678415  -0.0744603), wk =   0.0185185
        k(   25) = (   0.2499833   0.2035245   0.0797862), wk =   0.0185185
        k(   26) = (   0.2499510   0.2035245   0.2340326), wk =   0.0185185
        k(   27) = (   0.2499187   0.2035245   0.3882791), wk =   0.0185185
        k(   28) = (   0.2500802   0.2035245  -0.3829532), wk =   0.0185185
        k(   29) = (   0.2500479   0.2035245  -0.2287067), wk =   0.0185185
        k(   30) = (   0.2500156   0.2035245  -0.0744603), wk =   0.0185185
        k(   31) = (   0.2499833   0.3392076   0.0797862), wk =   0.0185185
        k(   32) = (   0.2499510   0.3392076   0.2340326), wk =   0.0185185
        k(   33) = (   0.2499187   0.3392076   0.3882791), wk =   0.0185185
        k(   34) = (   0.2500802   0.3392076  -0.3829532), wk =   0.0185185
        k(   35) = (   0.2500479   0.3392076  -0.2287067), wk =   0.0185185
        k(   36) = (   0.2500156   0.3392076  -0.0744603), wk =   0.0185185
        k(   37) = (   0.4166496   0.0678415   0.0815614), wk =   0.0185185
        k(   38) = (   0.4166173   0.0678415   0.2358079), wk =   0.0185185
        k(   39) = (   0.4165850   0.0678415   0.3900543), wk =   0.0185185
        k(   40) = (   0.4167465   0.0678415  -0.3811779), wk =   0.0185185
        k(   41) = (   0.4167142   0.0678415  -0.2269315), wk =   0.0185185
        k(   42) = (   0.4166819   0.0678415  -0.0726850), wk =   0.0185185
        k(   43) = (   0.4166496   0.2035245   0.0815614), wk =   0.0185185
        k(   44) = (   0.4166173   0.2035245   0.2358079), wk =   0.0185185
        k(   45) = (   0.4165850   0.2035245   0.3900543), wk =   0.0185185
        k(   46) = (   0.4167465   0.2035245  -0.3811779), wk =   0.0185185
        k(   47) = (   0.4167142   0.2035245  -0.2269315), wk =   0.0185185
        k(   48) = (   0.4166819   0.2035245  -0.0726850), wk =   0.0185185
        k(   49) = (   0.4166496   0.3392076   0.0815614), wk =   0.0185185
        k(   50) = (   0.4166173   0.3392076   0.2358079), wk =   0.0185185
        k(   51) = (   0.4165850   0.3392076   0.3900543), wk =   0.0185185
        k(   52) = (   0.4167465   0.3392076  -0.3811779), wk =   0.0185185
        k(   53) = (   0.4167142   0.3392076  -0.2269315), wk =   0.0185185
        k(   54) = (   0.4166819   0.3392076  -0.0726850), wk =   0.0185185

                       cryst. coord.
        k(    1) = (   0.0833333   0.0833333   0.0833333), wk =   0.0185185
        k(    2) = (   0.0833333   0.0833333   0.2500000), wk =   0.0185185
        k(    3) = (   0.0833333   0.0833333   0.4166667), wk =   0.0185185
        k(    4) = (   0.0833333   0.0833333  -0.4166667), wk =   0.0185185
        k(    5) = (   0.0833333   0.0833333  -0.2500000), wk =   0.0185185
        k(    6) = (   0.0833333   0.0833333  -0.0833333), wk =   0.0185185
        k(    7) = (   0.0833333   0.2500000   0.0833333), wk =   0.0185185
        k(    8) = (   0.0833333   0.2500000   0.2500000), wk =   0.0185185
        k(    9) = (   0.0833333   0.2500000   0.4166667), wk =   0.0185185
        k(   10) = (   0.0833333   0.2500000  -0.4166667), wk =   0.0185185
        k(   11) = (   0.0833333   0.2500000  -0.2500000), wk =   0.0185185
        k(   12) = (   0.0833333   0.2500000  -0.0833333), wk =   0.0185185
        k(   13) = (   0.0833333   0.4166667   0.0833333), wk =   0.0185185
        k(   14) = (   0.0833333   0.4166667   0.2500000), wk =   0.0185185
        k(   15) = (   0.0833333   0.4166667   0.4166667), wk =   0.0185185
        k(   16) = (   0.0833333   0.4166667  -0.4166667), wk =   0.0185185
        k(   17) = (   0.0833333   0.4166667  -0.2500000), wk =   0.0185185
        k(   18) = (   0.0833333   0.4166667  -0.0833333), wk =   0.0185185
        k(   19) = (   0.2500000   0.0833333   0.0833333), wk =   0.0185185
        k(   20) = (   0.2500000   0.0833333   0.2500000), wk =   0.0185185
        k(   21) = (   0.2500000   0.0833333   0.4166667), wk =   0.0185185
        k(   22) = (   0.2500000   0.0833333  -0.4166667), wk =   0.0185185
        k(   23) = (   0.2500000   0.0833333  -0.2500000), wk =   0.0185185
        k(   24) = (   0.2500000   0.0833333  -0.0833333), wk =   0.0185185
        k(   25) = (   0.2500000   0.2500000   0.0833333), wk =   0.0185185
        k(   26) = (   0.2500000   0.2500000   0.2500000), wk =   0.0185185
        k(   27) = (   0.2500000   0.2500000   0.4166667), wk =   0.0185185
        k(   28) = (   0.2500000   0.2500000  -0.4166667), wk =   0.0185185
        k(   29) = (   0.2500000   0.2500000  -0.2500000), wk =   0.0185185
        k(   30) = (   0.2500000   0.2500000  -0.0833333), wk =   0.0185185
        k(   31) = (   0.2500000   0.4166667   0.0833333), wk =   0.0185185
        k(   32) = (   0.2500000   0.4166667   0.2500000), wk =   0.0185185
        k(   33) = (   0.2500000   0.4166667   0.4166667), wk =   0.0185185
        k(   34) = (   0.2500000   0.4166667  -0.4166667), wk =   0.0185185
        k(   35) = (   0.2500000   0.4166667  -0.2500000), wk =   0.0185185
        k(   36) = (   0.2500000   0.4166667  -0.0833333), wk =   0.0185185
        k(   37) = (   0.4166667   0.0833333   0.0833333), wk =   0.0185185
        k(   38) = (   0.4166667   0.0833333   0.2500000), wk =   0.0185185
        k(   39) = (   0.4166667   0.0833333   0.4166667), wk =   0.0185185
        k(   40) = (   0.4166667   0.0833333  -0.4166667), wk =   0.0185185
        k(   41) = (   0.4166667   0.0833333  -0.2500000), wk =   0.0185185
        k(   42) = (   0.4166667   0.0833333  -0.0833333), wk =   0.0185185
        k(   43) = (   0.4166667   0.2500000   0.0833333), wk =   0.0185185
        k(   44) = (   0.4166667   0.2500000   0.2500000), wk =   0.0185185
        k(   45) = (   0.4166667   0.2500000   0.4166667), wk =   0.0185185
        k(   46) = (   0.4166667   0.2500000  -0.4166667), wk =   0.0185185
        k(   47) = (   0.4166667   0.2500000  -0.2500000), wk =   0.0185185
        k(   48) = (   0.4166667   0.2500000  -0.0833333), wk =   0.0185185
        k(   49) = (   0.4166667   0.4166667   0.0833333), wk =   0.0185185
        k(   50) = (   0.4166667   0.4166667   0.2500000), wk =   0.0185185
        k(   51) = (   0.4166667   0.4166667   0.4166667), wk =   0.0185185
        k(   52) = (   0.4166667   0.4166667  -0.4166667), wk =   0.0185185
        k(   53) = (   0.4166667   0.4166667  -0.2500000), wk =   0.0185185
        k(   54) = (   0.4166667   0.4166667  -0.0833333), wk =   0.0185185

     Dense  grid:   151731 G-vectors     FFT dimensions: (  64,  75,  72)

     Dynamical RAM for                 wfc:       1.18 MB

     Dynamical RAM for     wfc (w. buffer):     128.11 MB

     Dynamical RAM for             U proj.:       0.18 MB

     Dynamical RAM for  U proj. (w. buff.):      19.71 MB

     Dynamical RAM for           str. fact:       0.58 MB

     Dynamical RAM for           local pot:       0.00 MB

     Dynamical RAM for          nlocal pot:       3.69 MB

     Dynamical RAM for                qrad:      16.87 MB

     Dynamical RAM for          rho,v,vnew:       1.97 MB

     Dynamical RAM for               rhoin:       0.66 MB

     Dynamical RAM for            rho*nmix:       4.63 MB

     Dynamical RAM for           G-vectors:       0.61 MB

     Dynamical RAM for          h,s,v(r/c):       0.77 MB

     Dynamical RAM for          <psi|beta>:       0.20 MB

     Dynamical RAM for                 psi:       2.35 MB

     Dynamical RAM for                hpsi:       2.35 MB

     Dynamical RAM for      wfcinit/wfcrot:       2.45 MB

     Estimated static dynamical RAM per process >     174.02 MB

     Estimated max dynamical RAM per process >     184.32 MB

     Estimated total dynamical RAM >       2.88 GB
     Generating pointlists ...
     new r_m :   0.1830 (alat units)  1.5802 (a.u.) for type    1
     new r_m :   0.1830 (alat units)  1.5802 (a.u.) for type    2
     new r_m :   0.1584 (alat units)  1.3676 (a.u.) for type    3
     new r_m :   0.1584 (alat units)  1.3676 (a.u.) for type    4

     Initial potential from superposition of free atoms

     starting charge     106.9982, renormalised to     107.0000

     HUBBARD ENERGY =    0.2081  (Ry)

     STARTING HUBBARD OCCUPATIONS:

     =================== HUBBARD OCCUPATIONS ===================
     ------------------------ ATOM    1 ------------------------
     Tr[ns(  1)] (up, down, total) =   5.00000  0.00000  5.00000
     Atomic magnetic moment for atom   1 =   5.00000
     SPIN  1
     eigenvalues:
       1.000  1.000  1.000  1.000  1.000
     eigenvectors (columns):
       1.000  0.000  0.000  0.000  0.000
       0.000  1.000  0.000  0.000  0.000
       0.000  0.000  1.000  0.000  0.000
       0.000  0.000  0.000  1.000  0.000
       0.000  0.000  0.000  0.000  1.000
     occupation matrix ns (before diag.):
       1.000  0.000  0.000  0.000  0.000
       0.000  1.000  0.000  0.000  0.000
       0.000  0.000  1.000  0.000  0.000
       0.000  0.000  0.000  1.000  0.000
       0.000  0.000  0.000  0.000  1.000
     SPIN  2
     eigenvalues:
       0.000  0.000  0.000  0.000  0.000
     eigenvectors (columns):
       1.000  0.000  0.000  0.000  0.000
       0.000  1.000  0.000  0.000  0.000
       0.000  0.000  1.000  0.000  0.000
       0.000  0.000  0.000  1.000  0.000
       0.000  0.000  0.000  0.000  1.000
     occupation matrix ns (before diag.):
       0.000  0.000  0.000  0.000  0.000
       0.000  0.000  0.000  0.000  0.000
       0.000  0.000  0.000  0.000  0.000
       0.000  0.000  0.000  0.000  0.000
       0.000  0.000  0.000  0.000  0.000
     ------------------------ ATOM    2 ------------------------
     Tr[ns(  2)] (up, down, total) =   5.00000  1.00000  6.00000
     Atomic magnetic moment for atom   2 =   4.00000
     SPIN  1
     eigenvalues:
       1.000  1.000  1.000  1.000  1.000
     eigenvectors (columns):
       1.000  0.000  0.000  0.000  0.000
       0.000  1.000  0.000  0.000  0.000
       0.000  0.000  1.000  0.000  0.000
       0.000  0.000  0.000  1.000  0.000
       0.000  0.000  0.000  0.000  1.000
     occupation matrix ns (before diag.):
       1.000  0.000  0.000  0.000  0.000
       0.000  1.000  0.000  0.000  0.000
       0.000  0.000  1.000  0.000  0.000
       0.000  0.000  0.000  1.000  0.000
       0.000  0.000  0.000  0.000  1.000
     SPIN  2
     eigenvalues:
       0.200  0.200  0.200  0.200  0.200
     eigenvectors (columns):
       1.000  0.000  0.000  0.000  0.000
       0.000  1.000  0.000  0.000  0.000
       0.000  0.000  1.000  0.000  0.000
       0.000  0.000  0.000  1.000  0.000
       0.000  0.000  0.000  0.000  1.000
     occupation matrix ns (before diag.):
       0.200  0.000  0.000  0.000  0.000
       0.000  0.200  0.000  0.000  0.000
       0.000  0.000  0.200  0.000  0.000
       0.000  0.000  0.000  0.200  0.000
       0.000  0.000  0.000  0.000  0.200

     Number of occupied Hubbard levels =   11.0000

     Atomic wfc used for Hubbard projectors are orthogonalized

     Starting wfcs are   72 randomized atomic wfcs

     total cpu time spent up to now is        6.2 secs

     per-process dynamical memory:   229.4 Mb

     Self-consistent Calculation

     iteration #  1     ecut=   120.00 Ry     beta= 0.70
     Davidson diagonalization with overlap

---- Real-time Memory Report at c_bands before calling an iterative solver
           255 MiB given to the printing process from OS
           224 MiB allocation reported by mallinfo(arena+hblkhd)
        671104 MiB available memory on the node where the printing process lives
------------------
     ethr =  1.00E-02,  avg # of iterations =  2.0

     =================== HUBBARD OCCUPATIONS ===================
     ------------------------ ATOM    1 ------------------------
     Tr[ns(  1)] (up, down, total) =   4.96013  0.30184  5.26197
     Atomic magnetic moment for atom   1 =   4.65828
     SPIN  1
     eigenvalues:
       0.985  0.986  0.996  0.996  0.997
     eigenvectors (columns):
      -0.000 -0.598  0.703  0.000 -0.385
       0.000  0.773  0.633  0.000 -0.043
       0.541 -0.000  0.000 -0.841  0.000
       0.000 -0.213  0.323  0.000  0.922
       0.841 -0.000 -0.000  0.541 -0.000
     occupation matrix ns (before diag.):
       0.992  0.005 -0.000 -0.002  0.000
       0.005  0.990 -0.000  0.002  0.000
      -0.000 -0.000  0.993 -0.000 -0.005
      -0.002  0.002 -0.000  0.996 -0.000
       0.000  0.000 -0.005 -0.000  0.989
     SPIN  2
     eigenvalues:
       0.034  0.046  0.046  0.085  0.090
     eigenvectors (columns):
      -0.116  0.814  0.000  0.000  0.569
       0.129  0.580  0.000  0.000 -0.804
      -0.000  0.000 -0.831  0.556  0.000
       0.985  0.020 -0.000 -0.000  0.172
       0.000 -0.000  0.556  0.831  0.000
     occupation matrix ns (before diag.):
       0.060 -0.020  0.000  0.006  0.000
      -0.020  0.074 -0.000 -0.008  0.000
       0.000 -0.000  0.058 -0.000  0.018
       0.006 -0.008 -0.000  0.036 -0.000
       0.000  0.000  0.018 -0.000  0.073
     ------------------------ ATOM    2 ------------------------
     Tr[ns(  2)] (up, down, total) =   4.97942  0.73923  5.71865
     Atomic magnetic moment for atom   2 =   4.24020
     SPIN  1
     eigenvalues:
       0.993  0.993  0.998  0.998  0.998
     eigenvectors (columns):
      -0.000 -0.594 -0.696  0.000  0.404
       0.000  0.777 -0.626  0.000  0.064
       0.552 -0.000 -0.000 -0.834 -0.000
       0.000 -0.208 -0.352  0.000 -0.913
       0.834 -0.000  0.000  0.552  0.000
     occupation matrix ns (before diag.):
       0.996  0.002 -0.000 -0.001  0.000
       0.002  0.995 -0.000  0.001  0.000
      -0.000 -0.000  0.996 -0.000 -0.002
      -0.001  0.001 -0.000  0.998 -0.000
       0.000  0.000 -0.002 -0.000  0.994
     SPIN  2
     eigenvalues:
       0.104  0.108  0.120  0.191  0.216
     eigenvectors (columns):
       0.000  0.434 -0.139 -0.000  0.890
      -0.000 -0.812  0.369 -0.000  0.453
       0.621 -0.000 -0.000 -0.784 -0.000
       0.000  0.391  0.919 -0.000 -0.047
       0.784 -0.000 -0.000  0.621  0.000
     occupation matrix ns (before diag.):
       0.194  0.043 -0.000 -0.006  0.000
       0.043  0.132 -0.000  0.002  0.000
      -0.000 -0.000  0.157  0.000 -0.042
      -0.006  0.002  0.000  0.119 -0.000
       0.000  0.000 -0.042 -0.000  0.137

     Number of occupied Hubbard levels =   10.9806

     HUBBARD ENERGY =    0.2212  (Ry)

     total cpu time spent up to now is       21.0 secs

     total energy              =   -1034.35254782 Ry
     estimated scf accuracy    <       4.07608138 Ry

     total magnetization       =     9.00 Bohr mag/cell
     absolute magnetization    =     9.37 Bohr mag/cell

     iteration #  2     ecut=   120.00 Ry     beta= 0.70
     Davidson diagonalization with overlap

---- Real-time Memory Report at c_bands before calling an iterative solver
           263 MiB given to the printing process from OS
           230 MiB allocation reported by mallinfo(arena+hblkhd)
        668674 MiB available memory on the node where the printing process lives
------------------
     ethr =  3.81E-03,  avg # of iterations =  2.0

     =================== HUBBARD OCCUPATIONS ===================
     ------------------------ ATOM    1 ------------------------
     Tr[ns(  1)] (up, down, total) =   4.93081  0.32494  5.25575
     Atomic magnetic moment for atom   1 =   4.60587
     SPIN  1
     eigenvalues:
       0.973  0.974  0.994  0.995  0.995
     eigenvectors (columns):
       0.578 -0.000 -0.816  0.000  0.000
      -0.787 -0.000 -0.558  0.000 -0.263
      -0.000  0.524 -0.000 -0.852 -0.000
       0.215  0.000  0.152  0.000 -0.965
      -0.000  0.852  0.000  0.524  0.000
     occupation matrix ns (before diag.):
       0.987  0.010 -0.000 -0.003  0.000
       0.010  0.981 -0.000  0.004  0.000
      -0.000 -0.000  0.989 -0.000 -0.009
      -0.003  0.004 -0.000  0.994 -0.000
       0.000  0.000 -0.009 -0.000  0.980
     SPIN  2
     eigenvalues:
       0.035  0.036  0.038  0.105  0.111
     eigenvectors (columns):
      -0.000 -0.835  0.143  0.000  0.532
      -0.000 -0.467  0.327  0.000 -0.821
      -0.824  0.000  0.000  0.567  0.000
       0.000  0.292  0.934 -0.000  0.206
       0.567 -0.000 -0.000  0.824 -0.000
     occupation matrix ns (before diag.):
       0.058 -0.033  0.000  0.008  0.000
      -0.033  0.087 -0.000 -0.012  0.000
       0.000 -0.000  0.057 -0.000  0.033
       0.008 -0.012 -0.000  0.041 -0.000
       0.000  0.000  0.033 -0.000  0.082
     ------------------------ ATOM    2 ------------------------
     Tr[ns(  2)] (up, down, total) =   4.97499  0.66647  5.64146
     Atomic magnetic moment for atom   2 =   4.30852
     SPIN  1
     eigenvalues:
       0.991  0.991  0.998  0.998  0.998
     eigenvectors (columns):
       0.579 -0.000  0.791  0.000 -0.196
      -0.787 -0.000  0.605  0.000  0.118
      -0.000  0.539  0.000 -0.842  0.000
       0.212  0.000  0.086  0.000  0.973
      -0.000  0.842 -0.000  0.539 -0.000
     occupation matrix ns (before diag.):
       0.995  0.003 -0.000 -0.001  0.000
       0.003  0.993 -0.000  0.001  0.000
      -0.000 -0.000  0.996 -0.000 -0.003
      -0.001  0.001 -0.000  0.998 -0.000
       0.000  0.000 -0.003 -0.000  0.993
     SPIN  2
     eigenvalues:
       0.050  0.099  0.126  0.129  0.264
     eigenvectors (columns):
       0.017  0.000  0.000  0.440 -0.898
      -0.269  0.000 -0.000 -0.863 -0.428
      -0.000  0.988  0.151 -0.000  0.000
      -0.963 -0.000  0.000  0.248  0.104
      -0.000 -0.151  0.988 -0.000 -0.000
     occupation matrix ns (before diag.):
       0.238  0.052 -0.000 -0.011  0.000
       0.052  0.148 -0.000 -0.026  0.000
      -0.000 -0.000  0.099 -0.000  0.004
      -0.011 -0.026 -0.000  0.057 -0.000
       0.000  0.000  0.004 -0.000  0.125

     Number of occupied Hubbard levels =   10.8972

     HUBBARD ENERGY =    0.2161  (Ry)

     total cpu time spent up to now is       35.9 secs

     total energy              =   -1035.10276793 Ry
     estimated scf accuracy    <       0.19175670 Ry

     total magnetization       =     9.05 Bohr mag/cell
     absolute magnetization    =     9.57 Bohr mag/cell

     iteration #  3     ecut=   120.00 Ry     beta= 0.70
     Davidson diagonalization with overlap

---- Real-time Memory Report at c_bands before calling an iterative solver
           264 MiB given to the printing process from OS
           231 MiB allocation reported by mallinfo(arena+hblkhd)
        671107 MiB available memory on the node where the printing process lives
------------------
     ethr =  1.79E-04,  avg # of iterations =  6.6

     =================== HUBBARD OCCUPATIONS ===================
     ------------------------ ATOM    1 ------------------------
     Tr[ns(  1)] (up, down, total) =   4.92927  0.28646  5.21573
     Atomic magnetic moment for atom   1 =   4.64281
     SPIN  1
     eigenvalues:
       0.972  0.973  0.994  0.995  0.995
     eigenvectors (columns):
      -0.582 -0.000 -0.813  0.000 -0.034
       0.786 -0.000 -0.572  0.000  0.235
       0.000  0.530 -0.000 -0.848  0.000
      -0.211  0.000  0.110  0.000  0.971
       0.000  0.848  0.000  0.530 -0.000
     occupation matrix ns (before diag.):
       0.987  0.010 -0.000 -0.003  0.000
       0.010  0.981 -0.000  0.004  0.000
      -0.000 -0.000  0.989 -0.000 -0.010
      -0.003  0.004 -0.000  0.994 -0.000
       0.000  0.000 -0.010 -0.000  0.979
     SPIN  2
     eigenvalues:
       0.029  0.030  0.033  0.095  0.099
     eigenvectors (columns):
       0.839  0.000  0.111  0.000 -0.532
       0.483  0.000  0.297  0.000  0.824
       0.000 -0.820  0.000  0.573 -0.000
      -0.249 -0.000  0.948 -0.000 -0.196
      -0.000  0.573 -0.000  0.820 -0.000
     occupation matrix ns (before diag.):
       0.049 -0.030  0.000  0.008  0.000
      -0.030  0.077 -0.000 -0.010  0.000
       0.000 -0.000  0.051 -0.000  0.031
       0.008 -0.010 -0.000  0.035 -0.000
       0.000  0.000  0.031 -0.000  0.074
     ------------------------ ATOM    2 ------------------------
     Tr[ns(  2)] (up, down, total) =   4.97717  1.16968  6.14685
     Atomic magnetic moment for atom   2 =   3.80749
     SPIN  1
     eigenvalues:
       0.992  0.992  0.998  0.998  0.998
     eigenvectors (columns):
      -0.581 -0.000 -0.353 -0.733  0.000
       0.786 -0.000 -0.478 -0.393  0.000
       0.000  0.550 -0.000 -0.000 -0.835
      -0.212  0.000 -0.804  0.555 -0.000
       0.000  0.835  0.000  0.000  0.550
     occupation matrix ns (before diag.):
       0.996  0.003 -0.000 -0.001  0.000
       0.003  0.994 -0.000  0.001  0.000
      -0.000 -0.000  0.996 -0.000 -0.003
      -0.001  0.001 -0.000  0.998 -0.000
       0.000  0.000 -0.003 -0.000  0.994
     SPIN  2
     eigenvalues:
       0.043  0.043  0.123  0.127  0.834
     eigenvectors (columns):
       0.006 -0.000 -0.000  0.477  0.879
      -0.263  0.000  0.000 -0.847  0.461
       0.000  0.854 -0.521 -0.000 -0.000
      -0.965  0.000  0.000  0.234 -0.120
      -0.000 -0.521 -0.854 -0.000  0.000
     occupation matrix ns (before diag.):
       0.673  0.287 -0.000 -0.074  0.000
       0.287  0.272 -0.000 -0.061  0.000
      -0.000 -0.000  0.065  0.000  0.036
      -0.074 -0.061  0.000  0.059 -0.000
       0.000  0.000  0.036 -0.000  0.102

     Number of occupied Hubbard levels =   11.3626

     HUBBARD ENERGY =    0.2233  (Ry)

     total cpu time spent up to now is       53.2 secs

     total energy              =   -1035.19993580 Ry
     estimated scf accuracy    <       0.18397526 Ry

     total magnetization       =     9.00 Bohr mag/cell
     absolute magnetization    =     9.09 Bohr mag/cell

     iteration #  4     ecut=   120.00 Ry     beta= 0.70
     Davidson diagonalization with overlap

---- Real-time Memory Report at c_bands before calling an iterative solver
           265 MiB given to the printing process from OS
           232 MiB allocation reported by mallinfo(arena+hblkhd)
        668542 MiB available memory on the node where the printing process lives
------------------
     ethr =  1.72E-04,  avg # of iterations =  1.2

     =================== HUBBARD OCCUPATIONS ===================
     ------------------------ ATOM    1 ------------------------
     Tr[ns(  1)] (up, down, total) =   4.92850  0.27744  5.20594
     Atomic magnetic moment for atom   1 =   4.65105
     SPIN  1
     eigenvalues:
       0.972  0.973  0.994  0.995  0.995
     eigenvectors (columns):
      -0.582 -0.000 -0.812  0.000 -0.039
       0.786 -0.000 -0.574  0.000  0.231
       0.000  0.530 -0.000 -0.848  0.000
      -0.210  0.000  0.104  0.000  0.972
       0.000  0.848  0.000  0.530 -0.000
     occupation matrix ns (before diag.):
       0.986  0.010 -0.000 -0.003  0.000
       0.010  0.980 -0.000  0.004  0.000
      -0.000 -0.000  0.989 -0.000 -0.010
      -0.003  0.004 -0.000  0.994 -0.000
       0.000  0.000 -0.010 -0.000  0.979
     SPIN  2
     eigenvalues:
       0.028  0.028  0.032  0.093  0.096
     eigenvectors (columns):
      -0.000  0.838  0.129  0.000 -0.531
      -0.000  0.476  0.304  0.000  0.825
      -0.820 -0.000  0.000  0.572 -0.000
       0.000 -0.268  0.944 -0.000 -0.194
       0.572  0.000  0.000  0.820 -0.000
     occupation matrix ns (before diag.):
       0.047 -0.030  0.000  0.008  0.000
      -0.030  0.075 -0.000 -0.010  0.000
       0.000 -0.000  0.049 -0.000  0.031
       0.008 -0.010 -0.000  0.034 -0.000
       0.000  0.000  0.031 -0.000  0.072
     ------------------------ ATOM    2 ------------------------
     Tr[ns(  2)] (up, down, total) =   4.97646  1.25753  6.23399
     Atomic magnetic moment for atom   2 =   3.71893
     SPIN  1
     eigenvalues:
       0.991  0.992  0.998  0.998  0.998
     eigenvectors (columns):
      -0.584  0.000 -0.674 -0.452  0.000
       0.785 -0.000 -0.611 -0.103  0.000
       0.000  0.550 -0.000 -0.000 -0.835
      -0.207  0.000 -0.415  0.886 -0.000
       0.000  0.835  0.000  0.000  0.550
     occupation matrix ns (before diag.):
       0.996  0.003 -0.000 -0.001  0.000
       0.003  0.994 -0.000  0.001  0.000
      -0.000 -0.000  0.996 -0.000 -0.003
      -0.001  0.001 -0.000  0.998 -0.000
       0.000  0.000 -0.003 -0.000  0.993
     SPIN  2
     eigenvalues:
       0.032  0.038  0.112  0.113  0.962
     eigenvectors (columns):
      -0.000 -0.003  0.000  0.485  0.874
      -0.000  0.261 -0.000 -0.844  0.469
      -0.840  0.000  0.543 -0.000 -0.000
       0.000  0.965  0.000  0.230 -0.124
       0.543 -0.000  0.840 -0.000  0.000
     occupation matrix ns (before diag.):
       0.762  0.348 -0.000 -0.092  0.000
       0.348  0.295 -0.000 -0.069  0.000
      -0.000 -0.000  0.056  0.000  0.036
      -0.092 -0.069  0.000  0.056 -0.000
       0.000  0.000  0.036 -0.000  0.089

     Number of occupied Hubbard levels =   11.4399

     HUBBARD ENERGY =    0.1330  (Ry)

     total cpu time spent up to now is       65.0 secs

     total energy              =   -1035.25232736 Ry
     estimated scf accuracy    <       0.15793965 Ry

     total magnetization       =     9.00 Bohr mag/cell
     absolute magnetization    =     9.02 Bohr mag/cell

     iteration #  5     ecut=   120.00 Ry     beta= 0.70
     Davidson diagonalization with overlap

---- Real-time Memory Report at c_bands before calling an iterative solver
           265 MiB given to the printing process from OS
           232 MiB allocation reported by mallinfo(arena+hblkhd)
        667718 MiB available memory on the node where the printing process lives
------------------
     ethr =  1.48E-04,  avg # of iterations =  2.0

     =================== HUBBARD OCCUPATIONS ===================
     ------------------------ ATOM    1 ------------------------
     Tr[ns(  1)] (up, down, total) =   4.92444  0.27078  5.19522
     Atomic magnetic moment for atom   1 =   4.65366
     SPIN  1
     eigenvalues:
       0.970  0.971  0.994  0.995  0.995
     eigenvectors (columns):
      -0.579 -0.000 -0.815  0.000 -0.032
       0.787 -0.000 -0.569  0.000  0.239
       0.000  0.526 -0.000 -0.850  0.000
      -0.213  0.000  0.113  0.000  0.970
       0.000  0.850  0.000  0.526 -0.000
     occupation matrix ns (before diag.):
       0.986  0.011 -0.000 -0.003  0.000
       0.011  0.979 -0.000  0.004  0.000
      -0.000 -0.000  0.988 -0.000 -0.010
      -0.003  0.004 -0.000  0.994 -0.000
       0.000  0.000 -0.010 -0.000  0.978
     SPIN  2
     eigenvalues:
       0.026  0.027  0.031  0.092  0.094
     eigenvectors (columns):
      -0.000  0.838  0.129  0.000 -0.530
      -0.000  0.475  0.304  0.000  0.826
      -0.820 -0.000  0.000  0.572 -0.000
       0.000 -0.268  0.944 -0.000 -0.194
       0.572  0.000  0.000  0.820 -0.000
     occupation matrix ns (before diag.):
       0.046 -0.029  0.000  0.007  0.000
      -0.029  0.073 -0.000 -0.010  0.000
       0.000 -0.000  0.048 -0.000  0.031
       0.007 -0.010 -0.000  0.033 -0.000
       0.000  0.000  0.031 -0.000  0.070
     ------------------------ ATOM    2 ------------------------
     Tr[ns(  2)] (up, down, total) =   4.96712  1.20692  6.17404
     Atomic magnetic moment for atom   2 =   3.76020
     SPIN  1
     eigenvalues:
       0.988  0.989  0.995  0.998  0.998
     eigenvectors (columns):
       0.607 -0.000  0.794  0.000 -0.023
      -0.777 -0.000  0.599  0.000  0.193
      -0.000  0.560  0.000 -0.828  0.000
       0.167  0.000 -0.100  0.000  0.981
      -0.000  0.828 -0.000  0.560 -0.000
     occupation matrix ns (before diag.):
       0.992  0.004 -0.000 -0.001  0.000
       0.004  0.991 -0.000  0.001  0.000
      -0.000 -0.000  0.995 -0.000 -0.004
      -0.001  0.001 -0.000  0.997 -0.000
       0.000  0.000 -0.004 -0.000  0.992
     SPIN  2
     eigenvalues:
       0.023  0.028  0.085  0.087  0.983
     eigenvectors (columns):
      -0.000 -0.011  0.502 -0.000  0.865
      -0.000  0.293 -0.825  0.000  0.483
      -0.842  0.000  0.000  0.539 -0.000
       0.000  0.956  0.259 -0.000 -0.138
       0.539  0.000  0.000  0.842  0.000
     occupation matrix ns (before diag.):
       0.756  0.375 -0.000 -0.107  0.000
       0.375  0.289 -0.000 -0.076  0.000
      -0.000 -0.000  0.042  0.000  0.029
      -0.107 -0.076  0.000  0.050 -0.000
       0.000  0.000  0.029 -0.000  0.069

     Number of occupied Hubbard levels =   11.3693

     HUBBARD ENERGY =    0.1169  (Ry)

     total cpu time spent up to now is       78.7 secs

     total energy              =   -1035.27150334 Ry
     estimated scf accuracy    <       0.00463324 Ry

     total magnetization       =     9.00 Bohr mag/cell
     absolute magnetization    =     9.02 Bohr mag/cell

     iteration #  6     ecut=   120.00 Ry     beta= 0.70
     Davidson diagonalization with overlap

---- Real-time Memory Report at c_bands before calling an iterative solver
           266 MiB given to the printing process from OS
           233 MiB allocation reported by mallinfo(arena+hblkhd)
        672760 MiB available memory on the node where the printing process lives
------------------
     c_bands:  1 eigenvalues not converged
     c_bands:  1 eigenvalues not converged
     c_bands:  1 eigenvalues not converged
     c_bands:  1 eigenvalues not converged
     c_bands:  1 eigenvalues not converged
     c_bands:  1 eigenvalues not converged
     c_bands:  1 eigenvalues not converged
     c_bands:  1 eigenvalues not converged
     c_bands:  1 eigenvalues not converged
     c_bands:  1 eigenvalues not converged
     ethr =  4.33E-06,  avg # of iterations = 13.1

     =================== HUBBARD OCCUPATIONS ===================
     ------------------------ ATOM    1 ------------------------
     Tr[ns(  1)] (up, down, total) =   4.92545  0.26872  5.19417
     Atomic magnetic moment for atom   1 =   4.65673
     SPIN  1
     eigenvalues:
       0.971  0.972  0.994  0.995  0.995
     eigenvectors (columns):
      -0.579 -0.000 -0.814  0.000 -0.043
       0.787 -0.000 -0.572  0.000  0.231
       0.000  0.529 -0.000 -0.849  0.000
      -0.213  0.000  0.100  0.000  0.972
       0.000  0.849  0.000  0.529 -0.000
     occupation matrix ns (before diag.):
       0.986  0.011 -0.000 -0.003  0.000
       0.011  0.980 -0.000  0.004  0.000
      -0.000 -0.000  0.988 -0.000 -0.010
      -0.003  0.004 -0.000  0.994 -0.000
       0.000  0.000 -0.010 -0.000  0.978
     SPIN  2
     eigenvalues:
       0.026  0.027  0.031  0.091  0.094
     eigenvectors (columns):
      -0.000 -0.838  0.134  0.000  0.529
      -0.000 -0.473  0.306  0.000 -0.826
      -0.820  0.000  0.000  0.572  0.000
       0.000  0.273  0.942 -0.000  0.193
       0.572 -0.000  0.000  0.820  0.000
     occupation matrix ns (before diag.):
       0.046 -0.029  0.000  0.007  0.000
      -0.029  0.073 -0.000 -0.009  0.000
       0.000 -0.000  0.047 -0.000  0.030
       0.007 -0.009 -0.000  0.033 -0.000
       0.000  0.000  0.030 -0.000  0.070
     ------------------------ ATOM    2 ------------------------
     Tr[ns(  2)] (up, down, total) =   4.96578  1.19958  6.16536
     Atomic magnetic moment for atom   2 =   3.76621
     SPIN  1
     eigenvalues:
       0.987  0.989  0.995  0.998  0.998
     eigenvectors (columns):
       0.613 -0.000  0.789  0.000 -0.034
      -0.773 -0.000  0.609  0.000  0.176
      -0.000  0.568  0.000 -0.823  0.000
       0.160  0.000 -0.082  0.000  0.984
      -0.000  0.823 -0.000  0.568 -0.000
     occupation matrix ns (before diag.):
       0.992  0.003 -0.000 -0.001  0.000
       0.003  0.990 -0.000  0.001  0.000
      -0.000 -0.000  0.995 -0.000 -0.004
      -0.001  0.001 -0.000  0.997 -0.000
       0.000  0.000 -0.004 -0.000  0.991
     SPIN  2
     eigenvalues:
       0.022  0.027  0.081  0.084  0.984
     eigenvectors (columns):
      -0.000 -0.009  0.507 -0.000  0.862
      -0.000  0.301 -0.821  0.000  0.486
      -0.843  0.000  0.000  0.538 -0.000
       0.000  0.954  0.263 -0.000 -0.146
       0.538 -0.000  0.000  0.843  0.000
     occupation matrix ns (before diag.):
       0.752  0.378 -0.000 -0.113  0.000
       0.378  0.290 -0.000 -0.079  0.000
      -0.000 -0.000  0.040  0.000  0.028
      -0.113 -0.079  0.000  0.051 -0.000
       0.000  0.000  0.028 -0.000  0.066

     Number of occupied Hubbard levels =   11.3595

     HUBBARD ENERGY =    0.1200  (Ry)

     total cpu time spent up to now is      103.4 secs

     total energy              =   -1035.27288681 Ry
     estimated scf accuracy    <       0.00115061 Ry

     total magnetization       =     9.00 Bohr mag/cell
     absolute magnetization    =     9.02 Bohr mag/cell

     iteration #  7     ecut=   120.00 Ry     beta= 0.70
     Davidson diagonalization with overlap

---- Real-time Memory Report at c_bands before calling an iterative solver
           266 MiB given to the printing process from OS
           233 MiB allocation reported by mallinfo(arena+hblkhd)
        670068 MiB available memory on the node where the printing process lives
------------------
     c_bands:  1 eigenvalues not converged
     c_bands:  1 eigenvalues not converged
     c_bands:  1 eigenvalues not converged
     c_bands:  1 eigenvalues not converged
     ethr =  1.08E-06,  avg # of iterations =  3.0

     =================== HUBBARD OCCUPATIONS ===================
     ------------------------ ATOM    1 ------------------------
     Tr[ns(  1)] (up, down, total) =   4.92646  0.26977  5.19623
     Atomic magnetic moment for atom   1 =   4.65669
     SPIN  1
     eigenvalues:
       0.971  0.972  0.994  0.995  0.995
     eigenvectors (columns):
      -0.579 -0.000 -0.815  0.000 -0.042
       0.787 -0.000 -0.571  0.000  0.232
       0.000  0.530 -0.000 -0.848  0.000
      -0.213  0.000  0.101  0.000  0.972
       0.000  0.848  0.000  0.530 -0.000
     occupation matrix ns (before diag.):
       0.986  0.010 -0.000 -0.003  0.000
       0.010  0.980 -0.000  0.004  0.000
      -0.000 -0.000  0.988 -0.000 -0.010
      -0.003  0.004 -0.000  0.994 -0.000
       0.000  0.000 -0.010 -0.000  0.978
     SPIN  2
     eigenvalues:
       0.026  0.027  0.031  0.091  0.094
     eigenvectors (columns):
      -0.000  0.837  0.135  0.000 -0.530
      -0.000  0.473  0.307  0.000  0.826
      -0.820 -0.000  0.000  0.572 -0.000
       0.000 -0.274  0.942 -0.000 -0.193
       0.572  0.000  0.000  0.820 -0.000
     occupation matrix ns (before diag.):
       0.046 -0.029  0.000  0.007  0.000
      -0.029  0.073 -0.000 -0.009  0.000
       0.000 -0.000  0.048 -0.000  0.031
       0.007 -0.009 -0.000  0.033 -0.000
       0.000  0.000  0.031 -0.000  0.070
     ------------------------ ATOM    2 ------------------------
     Tr[ns(  2)] (up, down, total) =   4.96677  1.20173  6.16849
     Atomic magnetic moment for atom   2 =   3.76504
     SPIN  1
     eigenvalues:
       0.988  0.989  0.995  0.998  0.998
     eigenvectors (columns):
       0.609 -0.000  0.792  0.000 -0.040
      -0.776 -0.000  0.606  0.000  0.174
      -0.000  0.568  0.000 -0.823  0.000
       0.162  0.000 -0.075  0.000  0.984
      -0.000  0.823 -0.000  0.568 -0.000
     occupation matrix ns (before diag.):
       0.992  0.003 -0.000 -0.001  0.000
       0.003  0.991 -0.000  0.001  0.000
      -0.000 -0.000  0.995 -0.000 -0.004
      -0.001  0.001 -0.000  0.997 -0.000
       0.000  0.000 -0.004 -0.000  0.992
     SPIN  2
     eigenvalues:
       0.022  0.027  0.082  0.085  0.985
     eigenvectors (columns):
      -0.000 -0.004  0.512 -0.000  0.859
      -0.000  0.306 -0.817  0.000  0.488
      -0.843  0.000  0.000  0.537 -0.000
       0.000  0.952  0.265 -0.000 -0.154
       0.537  0.000  0.000  0.843  0.000
     occupation matrix ns (before diag.):
       0.748  0.379 -0.000 -0.119  0.000
       0.379  0.292 -0.000 -0.084  0.000
      -0.000 -0.000  0.040  0.000  0.028
      -0.119 -0.084  0.000  0.054 -0.000
       0.000  0.000  0.028 -0.000  0.067

     Number of occupied Hubbard levels =   11.3647

     HUBBARD ENERGY =    0.1217  (Ry)

     total cpu time spent up to now is      117.7 secs

     total energy              =   -1035.27305956 Ry
     estimated scf accuracy    <       0.00018425 Ry

     total magnetization       =     9.00 Bohr mag/cell
     absolute magnetization    =     9.02 Bohr mag/cell

     iteration #  8     ecut=   120.00 Ry     beta= 0.70
     Davidson diagonalization with overlap

---- Real-time Memory Report at c_bands before calling an iterative solver
           267 MiB given to the printing process from OS
           234 MiB allocation reported by mallinfo(arena+hblkhd)
        668422 MiB available memory on the node where the printing process lives
------------------
     ethr =  1.72E-07,  avg # of iterations =  2.7

     =================== HUBBARD OCCUPATIONS ===================
     ------------------------ ATOM    1 ------------------------
     Tr[ns(  1)] (up, down, total) =   4.92698  0.27066  5.19764
     Atomic magnetic moment for atom   1 =   4.65632
     SPIN  1
     eigenvalues:
       0.971  0.972  0.994  0.995  0.995
     eigenvectors (columns):
       0.578 -0.000 -0.815  0.000  0.040
      -0.788 -0.000 -0.571  0.000 -0.233
      -0.000  0.530 -0.000 -0.848 -0.000
       0.213  0.000  0.103  0.000 -0.972
      -0.000  0.848  0.000  0.530  0.000
     occupation matrix ns (before diag.):
       0.986  0.010 -0.000 -0.003  0.000
       0.010  0.980 -0.000  0.004  0.000
      -0.000 -0.000  0.988 -0.000 -0.010
      -0.003  0.004 -0.000  0.994 -0.000
       0.000  0.000 -0.010 -0.000  0.979
     SPIN  2
     eigenvalues:
       0.026  0.027  0.031  0.092  0.094
     eigenvectors (columns):
      -0.000  0.837  0.136  0.000 -0.530
      -0.000  0.472  0.308  0.000  0.826
      -0.820 -0.000  0.000  0.572 -0.000
       0.000 -0.275  0.942 -0.000 -0.193
       0.572  0.000 -0.000  0.820 -0.000
     occupation matrix ns (before diag.):
       0.046 -0.029  0.000  0.007  0.000
      -0.029  0.073 -0.000 -0.010  0.000
       0.000 -0.000  0.048 -0.000  0.031
       0.007 -0.010 -0.000  0.033 -0.000
       0.000  0.000  0.031 -0.000  0.070
     ------------------------ ATOM    2 ------------------------
     Tr[ns(  2)] (up, down, total) =   4.96697  1.20229  6.16926
     Atomic magnetic moment for atom   2 =   3.76468
     SPIN  1
     eigenvalues:
       0.988  0.989  0.995  0.998  0.998
     eigenvectors (columns):
       0.606 -0.000  0.794 -0.000 -0.038
      -0.778 -0.000  0.603  0.000  0.175
      -0.000  0.567  0.000 -0.824  0.000
       0.162  0.000 -0.076  0.000  0.984
      -0.000  0.824 -0.000  0.567 -0.000
     occupation matrix ns (before diag.):
       0.992  0.003 -0.000 -0.001  0.000
       0.003  0.991 -0.000  0.001  0.000
      -0.000 -0.000  0.995 -0.000 -0.004
      -0.001  0.001 -0.000  0.997 -0.000
       0.000  0.000 -0.004 -0.000  0.992
     SPIN  2
     eigenvalues:
       0.022  0.027  0.083  0.085  0.985
     eigenvectors (columns):
      -0.000  0.003  0.517 -0.000  0.856
      -0.000  0.310 -0.814  0.000  0.491
      -0.843  0.000  0.000  0.538 -0.000
       0.000  0.951  0.264 -0.000 -0.163
       0.538  0.000  0.000  0.843  0.000
     occupation matrix ns (before diag.):
       0.743  0.379 -0.000 -0.126  0.000
       0.379  0.295 -0.000 -0.088  0.000
      -0.000 -0.000  0.041  0.000  0.029
      -0.126 -0.088  0.000  0.057 -0.000
       0.000  0.000  0.029 -0.000  0.067

     Number of occupied Hubbard levels =   11.3669

     HUBBARD ENERGY =    0.1208  (Ry)

     total cpu time spent up to now is      132.2 secs

     total energy              =   -1035.27314343 Ry
     estimated scf accuracy    <       0.00012260 Ry

     total magnetization       =     9.00 Bohr mag/cell
     absolute magnetization    =     9.02 Bohr mag/cell

     iteration #  9     ecut=   120.00 Ry     beta= 0.70
     Davidson diagonalization with overlap

---- Real-time Memory Report at c_bands before calling an iterative solver
           268 MiB given to the printing process from OS
           235 MiB allocation reported by mallinfo(arena+hblkhd)
        667604 MiB available memory on the node where the printing process lives
------------------
     c_bands:  1 eigenvalues not converged
     ethr =  1.15E-07,  avg # of iterations =  3.5

     =================== HUBBARD OCCUPATIONS ===================
     ------------------------ ATOM    1 ------------------------
     Tr[ns(  1)] (up, down, total) =   4.92728  0.27108  5.19836
     Atomic magnetic moment for atom   1 =   4.65620
     SPIN  1
     eigenvalues:
       0.971  0.972  0.994  0.995  0.995
     eigenvectors (columns):
      -0.578 -0.000 -0.815  0.000 -0.039
       0.788 -0.000 -0.570  0.000  0.234
       0.000  0.530 -0.000 -0.848  0.000
      -0.212  0.000  0.105  0.000  0.972
       0.000  0.848  0.000  0.530 -0.000
     occupation matrix ns (before diag.):
       0.986  0.010 -0.000 -0.003  0.000
       0.010  0.980 -0.000  0.004  0.000
      -0.000 -0.000  0.988 -0.000 -0.010
      -0.003  0.004 -0.000  0.994 -0.000
       0.000  0.000 -0.010 -0.000  0.979
     SPIN  2
     eigenvalues:
       0.026  0.027  0.031  0.092  0.094
     eigenvectors (columns):
      -0.000  0.837  0.137  0.000 -0.529
      -0.000  0.472  0.308  0.000  0.826
      -0.820 -0.000  0.000  0.572 -0.000
       0.000 -0.276  0.942 -0.000 -0.193
       0.572  0.000 -0.000  0.820 -0.000
     occupation matrix ns (before diag.):
       0.046 -0.029  0.000  0.007  0.000
      -0.029  0.073 -0.000 -0.010  0.000
       0.000 -0.000  0.048 -0.000  0.031
       0.007 -0.010 -0.000  0.033 -0.000
       0.000  0.000  0.031 -0.000  0.070
     ------------------------ ATOM    2 ------------------------
     Tr[ns(  2)] (up, down, total) =   4.96676  1.20139  6.16815
     Atomic magnetic moment for atom   2 =   3.76536
     SPIN  1
     eigenvalues:
       0.988  0.989  0.995  0.998  0.998
     eigenvectors (columns):
       0.604 -0.000  0.797 -0.000 -0.031
      -0.781 -0.000  0.599  0.000  0.179
      -0.000  0.566  0.000 -0.824  0.000
       0.161  0.000 -0.084  0.000  0.983
      -0.000  0.824 -0.000  0.566 -0.000
     occupation matrix ns (before diag.):
       0.992  0.003 -0.000 -0.001  0.000
       0.003  0.991 -0.000  0.001  0.000
      -0.000 -0.000  0.995 -0.000 -0.004
      -0.001  0.001 -0.000  0.997 -0.000
       0.000  0.000 -0.004 -0.000  0.992
     SPIN  2
     eigenvalues:
       0.022  0.027  0.082  0.085  0.985
     eigenvectors (columns):
      -0.000 -0.012  0.524 -0.000  0.852
      -0.000 -0.316 -0.810  0.000  0.494
      -0.842 -0.000  0.000  0.540 -0.000
       0.000 -0.949  0.263 -0.000 -0.175
       0.540 -0.000  0.000  0.842  0.000
     occupation matrix ns (before diag.):
       0.737  0.379 -0.000 -0.135  0.000
       0.379  0.297 -0.000 -0.094  0.000
      -0.000 -0.000  0.041  0.000  0.029
      -0.135 -0.094  0.000  0.060 -0.000
       0.000  0.000  0.029 -0.000  0.067

     Number of occupied Hubbard levels =   11.3665

     HUBBARD ENERGY =    0.1199  (Ry)

     total cpu time spent up to now is      146.1 secs

     total energy              =   -1035.27314341 Ry
     estimated scf accuracy    <       0.00006890 Ry

     total magnetization       =     9.00 Bohr mag/cell
     absolute magnetization    =     9.02 Bohr mag/cell

     iteration # 10     ecut=   120.00 Ry     beta= 0.70
     Davidson diagonalization with overlap

---- Real-time Memory Report at c_bands before calling an iterative solver
           268 MiB given to the printing process from OS
           235 MiB allocation reported by mallinfo(arena+hblkhd)
        667574 MiB available memory on the node where the printing process lives
------------------
     ethr =  6.44E-08,  avg # of iterations =  3.8

     =================== HUBBARD OCCUPATIONS ===================
     ------------------------ ATOM    1 ------------------------
     Tr[ns(  1)] (up, down, total) =   4.92731  0.27117  5.19848
     Atomic magnetic moment for atom   1 =   4.65613
     SPIN  1
     eigenvalues:
       0.971  0.972  0.994  0.995  0.995
     eigenvectors (columns):
       0.578 -0.000 -0.815  0.000  0.037
      -0.788 -0.000 -0.569  0.000 -0.235
      -0.000  0.530 -0.000 -0.848 -0.000
       0.212  0.000  0.107  0.000 -0.971
      -0.000  0.848  0.000  0.530  0.000
     occupation matrix ns (before diag.):
       0.986  0.010 -0.000 -0.003  0.000
       0.010  0.980 -0.000  0.004  0.000
      -0.000 -0.000  0.988 -0.000 -0.010
      -0.003  0.004 -0.000  0.994 -0.000
       0.000  0.000 -0.010 -0.000  0.979
     SPIN  2
     eigenvalues:
       0.026  0.027  0.031  0.092  0.094
     eigenvectors (columns):
      -0.000  0.837  0.138  0.000 -0.529
      -0.000  0.472  0.309  0.000  0.826
      -0.820 -0.000  0.000  0.572 -0.000
       0.000 -0.277  0.941 -0.000 -0.193
       0.572  0.000  0.000  0.820 -0.000
     occupation matrix ns (before diag.):
       0.046 -0.029  0.000  0.007  0.000
      -0.029  0.073 -0.000 -0.010  0.000
       0.000 -0.000  0.048 -0.000  0.031
       0.007 -0.010 -0.000  0.033 -0.000
       0.000  0.000  0.031 -0.000  0.070
     ------------------------ ATOM    2 ------------------------
     Tr[ns(  2)] (up, down, total) =   4.96664  1.20097  6.16762
     Atomic magnetic moment for atom   2 =   3.76567
     SPIN  1
     eigenvalues:
       0.988  0.989  0.995  0.998  0.998
     eigenvectors (columns):
       0.598 -0.000  0.801  0.000 -0.017
      -0.785 -0.000  0.590  0.000  0.188
      -0.000  0.564  0.000 -0.826  0.000
       0.161  0.000 -0.099  0.000  0.982
      -0.000  0.826 -0.000  0.564 -0.000
     occupation matrix ns (before diag.):
       0.992  0.003 -0.000 -0.001  0.000
       0.003  0.991 -0.000  0.001  0.000
      -0.000 -0.000  0.995 -0.000 -0.004
      -0.001  0.001 -0.000  0.997 -0.000
       0.000  0.000 -0.004 -0.000  0.992
     SPIN  2
     eigenvalues:
       0.022  0.027  0.082  0.085  0.985
     eigenvectors (columns):
      -0.000  0.029  0.534 -0.000  0.845
      -0.000  0.326 -0.804  0.000  0.497
      -0.840  0.000  0.000  0.542 -0.000
       0.000  0.945  0.261 -0.000 -0.197
       0.542  0.000  0.000  0.840  0.000
     occupation matrix ns (before diag.):
       0.726  0.379 -0.000 -0.152  0.000
       0.379  0.299 -0.000 -0.105  0.000
      -0.000 -0.000  0.041  0.000  0.029
      -0.152 -0.105  0.000  0.068 -0.000
       0.000  0.000  0.029 -0.000  0.067

     Number of occupied Hubbard levels =   11.3661

     HUBBARD ENERGY =    0.1197  (Ry)

     total cpu time spent up to now is      161.1 secs

     total energy              =   -1035.27335003 Ry
     estimated scf accuracy    <       0.00005114 Ry

     total magnetization       =     9.00 Bohr mag/cell
     absolute magnetization    =     9.02 Bohr mag/cell

     iteration # 11     ecut=   120.00 Ry     beta= 0.70
     Davidson diagonalization with overlap

---- Real-time Memory Report at c_bands before calling an iterative solver
           268 MiB given to the printing process from OS
           235 MiB allocation reported by mallinfo(arena+hblkhd)
        669991 MiB available memory on the node where the printing process lives
------------------
     ethr =  4.78E-08,  avg # of iterations =  3.6

     =================== HUBBARD OCCUPATIONS ===================
     ------------------------ ATOM    1 ------------------------
     Tr[ns(  1)] (up, down, total) =   4.92733  0.27123  5.19856
     Atomic magnetic moment for atom   1 =   4.65610
     SPIN  1
     eigenvalues:
       0.971  0.972  0.994  0.995  0.995
     eigenvectors (columns):
      -0.578 -0.000 -0.815  0.000 -0.036
       0.788 -0.000 -0.569  0.000  0.236
       0.000  0.530 -0.000 -0.848  0.000
      -0.212  0.000  0.108  0.000  0.971
       0.000  0.848  0.000  0.530 -0.000
     occupation matrix ns (before diag.):
       0.986  0.010 -0.000 -0.003  0.000
       0.010  0.980 -0.000  0.004  0.000
      -0.000 -0.000  0.988 -0.000 -0.010
      -0.003  0.004 -0.000  0.994 -0.000
       0.000  0.000 -0.010 -0.000  0.979
     SPIN  2
     eigenvalues:
       0.026  0.027  0.031  0.092  0.094
     eigenvectors (columns):
      -0.000  0.837  0.139  0.000 -0.529
      -0.000  0.471  0.309  0.000  0.826
      -0.820 -0.000  0.000  0.572 -0.000
       0.000 -0.278  0.941 -0.000 -0.193
       0.572  0.000 -0.000  0.820 -0.000
     occupation matrix ns (before diag.):
       0.046 -0.029  0.000  0.007  0.000
      -0.029  0.073 -0.000 -0.010  0.000
       0.000 -0.000  0.048 -0.000  0.031
       0.007 -0.010 -0.000  0.033 -0.000
       0.000  0.000  0.031 -0.000  0.071
     ------------------------ ATOM    2 ------------------------
     Tr[ns(  2)] (up, down, total) =   4.96663  1.20089  6.16752
     Atomic magnetic moment for atom   2 =   3.76575
     SPIN  1
     eigenvalues:
       0.988  0.989  0.995  0.998  0.998
     eigenvectors (columns):
       0.593 -0.000  0.805  0.000 -0.004
      -0.789 -0.000  0.582  0.000  0.196
      -0.000  0.562  0.000 -0.827  0.000
       0.161  0.000 -0.113  0.000  0.981
      -0.000  0.827 -0.000  0.562 -0.000
     occupation matrix ns (before diag.):
       0.992  0.003 -0.000 -0.001  0.000
       0.003  0.990 -0.000  0.001  0.000
      -0.000 -0.000  0.995 -0.000 -0.004
      -0.001  0.001 -0.000  0.997 -0.000
       0.000  0.000 -0.004 -0.000  0.992
     SPIN  2
     eigenvalues:
       0.022  0.027  0.082  0.085  0.985
     eigenvectors (columns):
      -0.000 -0.045  0.543  0.000  0.839
       0.000 -0.335 -0.799 -0.000  0.499
      -0.839 -0.000  0.000  0.545 -0.000
       0.000 -0.941  0.259 -0.000 -0.218
       0.545  0.000 -0.000  0.839  0.000
     occupation matrix ns (before diag.):
       0.717  0.377 -0.000 -0.167  0.000
       0.377  0.301 -0.000 -0.116  0.000
      -0.000 -0.000  0.041  0.000  0.029
      -0.167 -0.116  0.000  0.076 -0.000
       0.000  0.000  0.029 -0.000  0.066

     Number of occupied Hubbard levels =   11.3661

     HUBBARD ENERGY =    0.1194  (Ry)

     total cpu time spent up to now is      175.8 secs

     total energy              =   -1035.27297833 Ry
     estimated scf accuracy    <       0.00004253 Ry

     total magnetization       =     9.00 Bohr mag/cell
     absolute magnetization    =     9.02 Bohr mag/cell

     iteration # 12     ecut=   120.00 Ry     beta= 0.70
     Davidson diagonalization with overlap

---- Real-time Memory Report at c_bands before calling an iterative solver
           268 MiB given to the printing process from OS
           235 MiB allocation reported by mallinfo(arena+hblkhd)
        672696 MiB available memory on the node where the printing process lives
------------------
     ethr =  3.97E-08,  avg # of iterations =  4.5

     =================== HUBBARD OCCUPATIONS ===================
     ------------------------ ATOM    1 ------------------------
     Tr[ns(  1)] (up, down, total) =   4.92730  0.27124  5.19854
     Atomic magnetic moment for atom   1 =   4.65606
     SPIN  1
     eigenvalues:
       0.971  0.972  0.994  0.995  0.995
     eigenvectors (columns):
      -0.578 -0.000 -0.815  0.000 -0.035
       0.788 -0.000 -0.569  0.000  0.236
       0.000  0.530 -0.000 -0.848  0.000
      -0.212  0.000  0.109  0.000  0.971
       0.000  0.848  0.000  0.530 -0.000
     occupation matrix ns (before diag.):
       0.986  0.010 -0.000 -0.003  0.000
       0.010  0.980 -0.000  0.004  0.000
      -0.000 -0.000  0.988 -0.000 -0.010
      -0.003  0.004 -0.000  0.994 -0.000
       0.000  0.000 -0.010 -0.000  0.979
     SPIN  2
     eigenvalues:
       0.026  0.027  0.031  0.092  0.094
     eigenvectors (columns):
      -0.000  0.837  0.141  0.000 -0.529
      -0.000  0.470  0.310  0.000  0.826
      -0.820 -0.000  0.000  0.572 -0.000
       0.000 -0.281  0.940 -0.000 -0.193
       0.572  0.000 -0.000  0.820 -0.000
     occupation matrix ns (before diag.):
       0.046 -0.029  0.000  0.007  0.000
      -0.029  0.073 -0.000 -0.010  0.000
       0.000 -0.000  0.048 -0.000  0.031
       0.007 -0.010 -0.000  0.033 -0.000
       0.000  0.000  0.031 -0.000  0.071
     ------------------------ ATOM    2 ------------------------
     Tr[ns(  2)] (up, down, total) =   4.96673  1.20112  6.16785
     Atomic magnetic moment for atom   2 =   3.76561
     SPIN  1
     eigenvalues:
       0.988  0.989  0.995  0.998  0.998
     eigenvectors (columns):
      -0.585 -0.000 -0.811  0.022 -0.000
       0.795 -0.000 -0.567  0.214 -0.000
       0.000  0.559 -0.000 -0.000 -0.829
      -0.161  0.000  0.142  0.977 -0.000
       0.000  0.829  0.000  0.000  0.559
     occupation matrix ns (before diag.):
       0.993  0.003 -0.000 -0.001  0.000
       0.003  0.990 -0.000  0.001  0.000
      -0.000 -0.000  0.995 -0.000 -0.004
      -0.001  0.001 -0.000  0.997 -0.000
       0.000  0.000 -0.004 -0.000  0.992
     SPIN  2
     eigenvalues:
       0.022  0.027  0.082  0.085  0.985
     eigenvectors (columns):
       0.000 -0.078 -0.557 -0.000  0.827
      -0.000 -0.353  0.791 -0.000  0.500
       0.836 -0.000 -0.000  0.549 -0.000
      -0.000 -0.932 -0.253 -0.000 -0.258
      -0.549  0.000 -0.000  0.836  0.000
     occupation matrix ns (before diag.):
       0.699  0.372 -0.000 -0.197  0.000
       0.372  0.300 -0.000 -0.134  0.000
      -0.000 -0.000  0.041  0.000  0.029
      -0.197 -0.134  0.000  0.094 -0.000
       0.000  0.000  0.029 -0.000  0.066

     Number of occupied Hubbard levels =   11.3664

     HUBBARD ENERGY =    0.1207  (Ry)

     total cpu time spent up to now is      192.6 secs

     total energy              =   -1035.27373680 Ry
     estimated scf accuracy    <       0.00003113 Ry

     total magnetization       =     9.00 Bohr mag/cell
     absolute magnetization    =     9.02 Bohr mag/cell

     iteration # 13     ecut=   120.00 Ry     beta= 0.70
     Davidson diagonalization with overlap

---- Real-time Memory Report at c_bands before calling an iterative solver
           268 MiB given to the printing process from OS
           235 MiB allocation reported by mallinfo(arena+hblkhd)
        670897 MiB available memory on the node where the printing process lives
------------------
     ethr =  2.91E-08,  avg # of iterations =  3.7

     =================== HUBBARD OCCUPATIONS ===================
     ------------------------ ATOM    1 ------------------------
     Tr[ns(  1)] (up, down, total) =   4.92729  0.27122  5.19851
     Atomic magnetic moment for atom   1 =   4.65607
     SPIN  1
     eigenvalues:
       0.971  0.972  0.994  0.995  0.995
     eigenvectors (columns):
      -0.578 -0.000 -0.815  0.000 -0.036
       0.788 -0.000 -0.569  0.000  0.235
       0.000  0.530 -0.000 -0.848  0.000
      -0.212  0.000  0.108  0.000  0.971
       0.000  0.848  0.000  0.530 -0.000
     occupation matrix ns (before diag.):
       0.986  0.010 -0.000 -0.003  0.000
       0.010  0.980 -0.000  0.004  0.000
      -0.000 -0.000  0.988 -0.000 -0.010
      -0.003  0.004 -0.000  0.994 -0.000
       0.000  0.000 -0.010 -0.000  0.979
     SPIN  2
     eigenvalues:
       0.026  0.027  0.031  0.092  0.094
     eigenvectors (columns):
      -0.000  0.837  0.142  0.000 -0.529
      -0.000  0.470  0.311  0.000  0.826
      -0.820 -0.000  0.000  0.572 -0.000
       0.000 -0.282  0.940 -0.000 -0.194
       0.572  0.000 -0.000  0.820 -0.000
     occupation matrix ns (before diag.):
       0.046 -0.029  0.000  0.007  0.000
      -0.029  0.073 -0.000 -0.010  0.000
       0.000 -0.000  0.048 -0.000  0.031
       0.007 -0.010 -0.000  0.033 -0.000
       0.000  0.000  0.031 -0.000  0.071
     ------------------------ ATOM    2 ------------------------
     Tr[ns(  2)] (up, down, total) =   4.96675  1.20114  6.16789
     Atomic magnetic moment for atom   2 =   3.76560
     SPIN  1
     eigenvalues:
       0.988  0.989  0.995  0.998  0.998
     eigenvectors (columns):
      -0.582 -0.000 -0.813  0.036 -0.000
       0.797 -0.000 -0.561  0.224 -0.000
       0.000  0.557 -0.000 -0.000 -0.831
      -0.162  0.000  0.159  0.974 -0.000
       0.000  0.831  0.000  0.000  0.557
     occupation matrix ns (before diag.):
       0.993  0.003 -0.000 -0.001  0.000
       0.003  0.990 -0.000  0.002  0.000
      -0.000 -0.000  0.995 -0.000 -0.004
      -0.001  0.002 -0.000  0.997 -0.000
       0.000  0.000 -0.004 -0.000  0.992
     SPIN  2
     eigenvalues:
       0.022  0.027  0.081  0.085  0.985
     eigenvectors (columns):
      -0.000  0.094  0.561 -0.000  0.822
       0.000  0.364 -0.788  0.000  0.496
      -0.834  0.000  0.000  0.552 -0.000
       0.000  0.927  0.253 -0.000 -0.279
       0.552 -0.000  0.000  0.834  0.000
     occupation matrix ns (before diag.):
       0.692  0.366 -0.000 -0.212  0.000
       0.366  0.296 -0.000 -0.143  0.000
      -0.000 -0.000  0.042  0.000  0.029
      -0.212 -0.143  0.000  0.105 -0.000
       0.000  0.000  0.029 -0.000  0.066

     Number of occupied Hubbard levels =   11.3664

     HUBBARD ENERGY =    0.1179  (Ry)

     total cpu time spent up to now is      207.8 secs

     total energy              =   -1035.27313640 Ry
     estimated scf accuracy    <       0.00002571 Ry

     total magnetization       =     9.00 Bohr mag/cell
     absolute magnetization    =     9.02 Bohr mag/cell

     iteration # 14     ecut=   120.00 Ry     beta= 0.70
     Davidson diagonalization with overlap

---- Real-time Memory Report at c_bands before calling an iterative solver
           268 MiB given to the printing process from OS
           235 MiB allocation reported by mallinfo(arena+hblkhd)
        667563 MiB available memory on the node where the printing process lives
------------------
     ethr =  2.40E-08,  avg # of iterations =  4.7

     =================== HUBBARD OCCUPATIONS ===================
     ------------------------ ATOM    1 ------------------------
     Tr[ns(  1)] (up, down, total) =   4.92727  0.27124  5.19851
     Atomic magnetic moment for atom   1 =   4.65603
     SPIN  1
     eigenvalues:
       0.971  0.972  0.994  0.995  0.995
     eigenvectors (columns):
      -0.578 -0.000 -0.815  0.000 -0.036
       0.788 -0.000 -0.569  0.000  0.236
       0.000  0.530 -0.000 -0.848  0.000
      -0.212  0.000  0.108  0.000  0.971
       0.000  0.848  0.000  0.530 -0.000
     occupation matrix ns (before diag.):
       0.986  0.010 -0.000 -0.003  0.000
       0.010  0.980 -0.000  0.004  0.000
      -0.000 -0.000  0.988 -0.000 -0.010
      -0.003  0.004 -0.000  0.994 -0.000
       0.000  0.000 -0.010 -0.000  0.979
     SPIN  2
     eigenvalues:
       0.026  0.027  0.031  0.092  0.094
     eigenvectors (columns):
      -0.000  0.836  0.144  0.000 -0.529
      -0.000  0.469  0.312  0.000  0.826
      -0.821 -0.000  0.000  0.572 -0.000
       0.000 -0.284  0.939 -0.000 -0.194
       0.572  0.000  0.000  0.821 -0.000
     occupation matrix ns (before diag.):
       0.046 -0.029  0.000  0.007  0.000
      -0.029  0.073 -0.000 -0.010  0.000
       0.000 -0.000  0.048 -0.000  0.031
       0.007 -0.010 -0.000  0.033 -0.000
       0.000  0.000  0.031 -0.000  0.071
     ------------------------ ATOM    2 ------------------------
     Tr[ns(  2)] (up, down, total) =   4.96675  1.20089  6.16764
     Atomic magnetic moment for atom   2 =   3.76586
     SPIN  1
     eigenvalues:
       0.988  0.989  0.995  0.998  0.998
     eigenvectors (columns):
      -0.574 -0.000 -0.816  0.069 -0.000
       0.802 -0.000 -0.544  0.245 -0.000
       0.000  0.553 -0.000 -0.000 -0.833
      -0.162  0.000  0.196  0.967 -0.000
       0.000  0.833  0.000  0.000  0.553
     occupation matrix ns (before diag.):
       0.993  0.004 -0.000 -0.001  0.000
       0.004  0.990 -0.000  0.002  0.000
      -0.000 -0.000  0.995 -0.000 -0.004
      -0.001  0.002 -0.000  0.997 -0.000
       0.000  0.000 -0.004 -0.000  0.992
     SPIN  2
     eigenvalues:
       0.022  0.027  0.081  0.086  0.985
     eigenvectors (columns):
       0.000  0.131  0.572 -0.000  0.810
       0.000  0.382 -0.783 -0.000  0.491
      -0.830  0.000  0.000  0.557 -0.000
       0.000  0.915  0.245 -0.000 -0.321
       0.557 -0.000 -0.000  0.830  0.000
     occupation matrix ns (before diag.):
       0.673  0.357 -0.000 -0.242  0.000
       0.357  0.291 -0.000 -0.161  0.000
      -0.000 -0.000  0.042  0.000  0.029
      -0.242 -0.161  0.000  0.129 -0.000
       0.000  0.000  0.029 -0.000  0.066

     Number of occupied Hubbard levels =   11.3661

     HUBBARD ENERGY =    0.1223  (Ry)

     total cpu time spent up to now is      225.6 secs

     total energy              =   -1035.27410463 Ry
     estimated scf accuracy    <       0.00002861 Ry

     total magnetization       =     9.00 Bohr mag/cell
     absolute magnetization    =     9.02 Bohr mag/cell

     iteration # 15     ecut=   120.00 Ry     beta= 0.70
     Davidson diagonalization with overlap

---- Real-time Memory Report at c_bands before calling an iterative solver
           268 MiB given to the printing process from OS
           235 MiB allocation reported by mallinfo(arena+hblkhd)
        669983 MiB available memory on the node where the printing process lives
------------------
     ethr =  2.40E-08,  avg # of iterations =  4.0

     =================== HUBBARD OCCUPATIONS ===================
     ------------------------ ATOM    1 ------------------------
     Tr[ns(  1)] (up, down, total) =   4.92728  0.27126  5.19854
     Atomic magnetic moment for atom   1 =   4.65602
     SPIN  1
     eigenvalues:
       0.971  0.972  0.994  0.995  0.995
     eigenvectors (columns):
      -0.578 -0.000 -0.815  0.000 -0.036
       0.788 -0.000 -0.569  0.000  0.235
       0.000  0.530 -0.000 -0.848  0.000
      -0.212  0.000  0.107  0.000  0.971
       0.000  0.848  0.000  0.530 -0.000
     occupation matrix ns (before diag.):
       0.986  0.010 -0.000 -0.003  0.000
       0.010  0.980 -0.000  0.004  0.000
      -0.000 -0.000  0.988 -0.000 -0.010
      -0.003  0.004 -0.000  0.994 -0.000
       0.000  0.000 -0.010 -0.000  0.979
     SPIN  2
     eigenvalues:
       0.026  0.027  0.031  0.092  0.094
     eigenvectors (columns):
      -0.000  0.836  0.144  0.000 -0.529
      -0.000  0.469  0.312  0.000  0.826
      -0.821 -0.000  0.000  0.572 -0.000
       0.000 -0.284  0.939 -0.000 -0.194
       0.572  0.000 -0.000  0.821 -0.000
     occupation matrix ns (before diag.):
       0.046 -0.029  0.000  0.007  0.000
      -0.029  0.073 -0.000 -0.010  0.000
       0.000 -0.000  0.048 -0.000  0.031
       0.007 -0.010 -0.000  0.033 -0.000
       0.000  0.000  0.031 -0.000  0.071
     ------------------------ ATOM    2 ------------------------
     Tr[ns(  2)] (up, down, total) =   4.96678  1.20120  6.16798
     Atomic magnetic moment for atom   2 =   3.76558
     SPIN  1
     eigenvalues:
       0.988  0.989  0.995  0.998  0.998
     eigenvectors (columns):
      -0.579 -0.000 -0.813  0.066 -0.000
       0.799 -0.000 -0.549  0.244 -0.000
       0.000  0.553 -0.000 -0.000 -0.833
      -0.162  0.000  0.194  0.968 -0.000
       0.000  0.833  0.000  0.000  0.553
     occupation matrix ns (before diag.):
       0.993  0.004 -0.000 -0.001  0.000
       0.004  0.990 -0.000  0.002  0.000
      -0.000 -0.000  0.995 -0.000 -0.004
      -0.001  0.002 -0.000  0.997 -0.000
       0.000  0.000 -0.004 -0.000  0.992
     SPIN  2
     eigenvalues:
       0.022  0.027  0.081  0.086  0.985
     eigenvectors (columns):
      -0.000  0.128 -0.563 -0.000 -0.816
      -0.000  0.385  0.787 -0.000 -0.482
       0.831  0.000 -0.000  0.557  0.000
      -0.000  0.914 -0.253 -0.000  0.317
      -0.557 -0.000  0.000  0.831 -0.000
     occupation matrix ns (before diag.):
       0.682  0.353 -0.000 -0.240  0.000
       0.353  0.284 -0.000 -0.157  0.000
      -0.000 -0.000  0.042  0.000  0.029
      -0.240 -0.157  0.000  0.127 -0.000
       0.000  0.000  0.029 -0.000  0.066

     Number of occupied Hubbard levels =   11.3665

     HUBBARD ENERGY =    0.1215  (Ry)

     total cpu time spent up to now is      240.8 secs

     total energy              =   -1035.27401491 Ry
     estimated scf accuracy    <       0.00003239 Ry

     total magnetization       =     9.00 Bohr mag/cell
     absolute magnetization    =     9.02 Bohr mag/cell

     iteration # 16     ecut=   120.00 Ry     beta= 0.70
     Davidson diagonalization with overlap

---- Real-time Memory Report at c_bands before calling an iterative solver
           268 MiB given to the printing process from OS
           235 MiB allocation reported by mallinfo(arena+hblkhd)
        667550 MiB available memory on the node where the printing process lives
------------------
     ethr =  2.40E-08,  avg # of iterations =  3.8

     =================== HUBBARD OCCUPATIONS ===================
     ------------------------ ATOM    1 ------------------------
     Tr[ns(  1)] (up, down, total) =   4.92728  0.27128  5.19857
     Atomic magnetic moment for atom   1 =   4.65600
     SPIN  1
     eigenvalues:
       0.971  0.972  0.994  0.995  0.995
     eigenvectors (columns):
      -0.578 -0.000 -0.815  0.000 -0.036
       0.788 -0.000 -0.569  0.000  0.235
       0.000  0.530 -0.000 -0.848  0.000
      -0.212  0.000  0.108  0.000  0.971
       0.000  0.848  0.000  0.530 -0.000
     occupation matrix ns (before diag.):
       0.986  0.010 -0.000 -0.003  0.000
       0.010  0.980 -0.000  0.004  0.000
      -0.000 -0.000  0.988 -0.000 -0.010
      -0.003  0.004 -0.000  0.994 -0.000
       0.000  0.000 -0.010 -0.000  0.979
     SPIN  2
     eigenvalues:
       0.026  0.027  0.031  0.092  0.094
     eigenvectors (columns):
      -0.000  0.836  0.145  0.000 -0.529
      -0.000  0.469  0.313  0.000  0.826
      -0.821 -0.000  0.000  0.571 -0.000
       0.000 -0.285  0.939 -0.000 -0.194
       0.571  0.000 -0.000  0.821 -0.000
     occupation matrix ns (before diag.):
       0.046 -0.029  0.000  0.007  0.000
      -0.029  0.073 -0.000 -0.009  0.000
       0.000 -0.000  0.048 -0.000  0.031
       0.007 -0.009 -0.000  0.033 -0.000
       0.000  0.000  0.031 -0.000  0.071
     ------------------------ ATOM    2 ------------------------
     Tr[ns(  2)] (up, down, total) =   4.96678  1.20111  6.16788
     Atomic magnetic moment for atom   2 =   3.76567
     SPIN  1
     eigenvalues:
       0.988  0.989  0.995  0.998  0.998
     eigenvectors (columns):
      -0.577 -0.000 -0.813  0.082 -0.000
       0.800 -0.000 -0.543  0.255 -0.000
       0.000  0.551 -0.000 -0.000 -0.834
      -0.162  0.000  0.213  0.964 -0.000
       0.000  0.834  0.000  0.000  0.551
     occupation matrix ns (before diag.):
       0.993  0.004 -0.000 -0.001  0.000
       0.004  0.990 -0.000  0.002  0.000
      -0.000 -0.000  0.995 -0.000 -0.004
      -0.001  0.002 -0.000  0.997 -0.000
       0.000  0.000 -0.004 -0.000  0.992
     SPIN  2
     eigenvalues:
       0.022  0.027  0.081  0.086  0.985
     eigenvectors (columns):
      -0.000 -0.147  0.565 -0.000  0.812
      -0.000 -0.395 -0.786 -0.000  0.475
      -0.829 -0.000  0.000  0.559 -0.000
       0.000 -0.907  0.251 -0.000 -0.338
       0.559 -0.000 -0.000  0.829  0.000
     occupation matrix ns (before diag.):
       0.676  0.346 -0.000 -0.256  0.000
       0.346  0.277 -0.000 -0.165  0.000
      -0.000 -0.000  0.042  0.000  0.029
      -0.256 -0.165  0.000  0.140 -0.000
       0.000  0.000  0.029 -0.000  0.066

     Number of occupied Hubbard levels =   11.3664

     HUBBARD ENERGY =    0.1165  (Ry)

     total cpu time spent up to now is      256.4 secs

     total energy              =   -1035.27138316 Ry
     estimated scf accuracy    <       0.00002065 Ry

     total magnetization       =     9.00 Bohr mag/cell
     absolute magnetization    =     9.02 Bohr mag/cell

     iteration # 17     ecut=   120.00 Ry     beta= 0.70
     Davidson diagonalization with overlap

---- Real-time Memory Report at c_bands before calling an iterative solver
           268 MiB given to the printing process from OS
           235 MiB allocation reported by mallinfo(arena+hblkhd)
        672672 MiB available memory on the node where the printing process lives
------------------
     ethr =  1.93E-08,  avg # of iterations =  6.7

     =================== HUBBARD OCCUPATIONS ===================
     ------------------------ ATOM    1 ------------------------
     Tr[ns(  1)] (up, down, total) =   4.92730  0.27138  5.19867
     Atomic magnetic moment for atom   1 =   4.65592
     SPIN  1
     eigenvalues:
       0.971  0.972  0.994  0.995  0.995
     eigenvectors (columns):
      -0.578 -0.000 -0.815  0.000 -0.036
       0.788 -0.000 -0.569  0.000  0.236
       0.000  0.530 -0.000 -0.848  0.000
      -0.212  0.000  0.108  0.000  0.971
       0.000  0.848  0.000  0.530 -0.000
     occupation matrix ns (before diag.):
       0.986  0.010 -0.000 -0.003  0.000
       0.010  0.980 -0.000  0.004  0.000
      -0.000 -0.000  0.988 -0.000 -0.010
      -0.003  0.004 -0.000  0.994 -0.000
       0.000  0.000 -0.010 -0.000  0.979
     SPIN  2
     eigenvalues:
       0.026  0.027  0.031  0.092  0.094
     eigenvectors (columns):
      -0.000  0.835  0.149  0.000 -0.529
      -0.000  0.467  0.315  0.000  0.826
      -0.821 -0.000  0.000  0.571 -0.000
       0.000 -0.289  0.937 -0.000 -0.194
       0.571  0.000  0.000  0.821 -0.000
     occupation matrix ns (before diag.):
       0.046 -0.029  0.000  0.007  0.000
      -0.029  0.073 -0.000 -0.009  0.000
       0.000 -0.000  0.048 -0.000  0.031
       0.007 -0.009 -0.000  0.033 -0.000
       0.000  0.000  0.031 -0.000  0.071
     ------------------------ ATOM    2 ------------------------
     Tr[ns(  2)] (up, down, total) =   4.96677  1.20071  6.16747
     Atomic magnetic moment for atom   2 =   3.76606
     SPIN  1
     eigenvalues:
       0.988  0.989  0.995  0.998  0.998
     eigenvectors (columns):
      -0.574 -0.000 -0.806  0.144 -0.000
       0.803 -0.000 -0.519  0.293 -0.000
       0.000  0.545 -0.000 -0.000 -0.839
      -0.162  0.000  0.284  0.945 -0.000
       0.000  0.839  0.000  0.000  0.545
     occupation matrix ns (before diag.):
       0.993  0.004 -0.000 -0.000  0.000
       0.004  0.990 -0.000  0.002  0.000
      -0.000 -0.000  0.995 -0.000 -0.004
      -0.000  0.002 -0.000  0.997 -0.000
       0.000  0.000 -0.004 -0.000  0.991
     SPIN  2
     eigenvalues:
       0.022  0.027  0.081  0.086  0.985
     eigenvectors (columns):
       0.000 -0.211  0.563 -0.000  0.799
       0.000 -0.426 -0.789  0.000  0.443
      -0.823 -0.000  0.000  0.567 -0.000
       0.000 -0.880  0.247 -0.000 -0.406
       0.567  0.000  0.000  0.823  0.000
     occupation matrix ns (before diag.):
       0.655  0.315 -0.000 -0.304  0.000
       0.315  0.249 -0.000 -0.183  0.000
      -0.000 -0.000  0.043  0.000  0.030
      -0.304 -0.183  0.000  0.188 -0.000
       0.000  0.000  0.030 -0.000  0.065

     Number of occupied Hubbard levels =   11.3661

     HUBBARD ENERGY =    0.1239  (Ry)

     total cpu time spent up to now is      277.6 secs

     total energy              =   -1035.27217505 Ry
     estimated scf accuracy    <       0.00003102 Ry

     total magnetization       =     9.00 Bohr mag/cell
     absolute magnetization    =     9.02 Bohr mag/cell

     iteration # 18     ecut=   120.00 Ry     beta= 0.70
     Davidson diagonalization with overlap

---- Real-time Memory Report at c_bands before calling an iterative solver
           268 MiB given to the printing process from OS
           235 MiB allocation reported by mallinfo(arena+hblkhd)
        672530 MiB available memory on the node where the printing process lives
------------------
     ethr =  1.93E-08,  avg # of iterations =  6.0

     =================== HUBBARD OCCUPATIONS ===================
     ------------------------ ATOM    1 ------------------------
     Tr[ns(  1)] (up, down, total) =   4.92730  0.27133  5.19863
     Atomic magnetic moment for atom   1 =   4.65596
     SPIN  1
     eigenvalues:
       0.971  0.972  0.994  0.995  0.995
     eigenvectors (columns):
       0.578 -0.000 -0.815  0.000  0.036
      -0.788 -0.000 -0.569  0.000 -0.236
      -0.000  0.530 -0.000 -0.848 -0.000
       0.212  0.000  0.108  0.000 -0.971
      -0.000  0.848  0.000  0.530  0.000
     occupation matrix ns (before diag.):
       0.986  0.010 -0.000 -0.003  0.000
       0.010  0.980 -0.000  0.004  0.000
      -0.000 -0.000  0.988 -0.000 -0.010
      -0.003  0.004 -0.000  0.994 -0.000
       0.000  0.000 -0.010 -0.000  0.979
     SPIN  2
     eigenvalues:
       0.026  0.027  0.031  0.092  0.094
     eigenvectors (columns):
      -0.000  0.836  0.146  0.000 -0.529
      -0.000  0.468  0.313  0.000  0.826
      -0.821 -0.000  0.000  0.571 -0.000
       0.000 -0.286  0.939 -0.000 -0.194
       0.571  0.000  0.000  0.821 -0.000
     occupation matrix ns (before diag.):
       0.046 -0.029  0.000  0.007  0.000
      -0.029  0.073 -0.000 -0.009  0.000
       0.000 -0.000  0.048 -0.000  0.031
       0.007 -0.009 -0.000  0.033 -0.000
       0.000  0.000  0.031 -0.000  0.071
     ------------------------ ATOM    2 ------------------------
     Tr[ns(  2)] (up, down, total) =   4.96680  1.20112  6.16791
     Atomic magnetic moment for atom   2 =   3.76568
     SPIN  1
     eigenvalues:
       0.988  0.989  0.995  0.998  0.998
     eigenvectors (columns):
       0.580 -0.000  0.810  0.091 -0.000
      -0.799 -0.000  0.543  0.260 -0.000
      -0.000  0.550  0.000 -0.000 -0.835
       0.161  0.000 -0.223  0.961 -0.000
      -0.000  0.835 -0.000  0.000  0.550
     occupation matrix ns (before diag.):
       0.993  0.004 -0.000 -0.001  0.000
       0.004  0.990 -0.000  0.002  0.000
      -0.000 -0.000  0.995 -0.000 -0.004
      -0.001  0.002 -0.000  0.997 -0.000
       0.000  0.000 -0.004 -0.000  0.992
     SPIN  2
     eigenvalues:
       0.022  0.027  0.081  0.086  0.985
     eigenvectors (columns):
       0.000  0.158  0.556  0.000  0.816
      -0.000  0.399 -0.792 -0.000  0.463
      -0.828  0.000 -0.000  0.560 -0.000
       0.000  0.903  0.252 -0.000 -0.347
       0.560  0.000 -0.000  0.828  0.000
     occupation matrix ns (before diag.):
       0.681  0.338 -0.000 -0.263  0.000
       0.338  0.266 -0.000 -0.164  0.000
      -0.000 -0.000  0.042  0.000  0.029
      -0.263 -0.164  0.000  0.146 -0.000
       0.000  0.000  0.029 -0.000  0.066

     Number of occupied Hubbard levels =   11.3665

     HUBBARD ENERGY =    0.1222  (Ry)

     total cpu time spent up to now is      297.4 secs

     total energy              =   -1035.27308038 Ry
     estimated scf accuracy    <       0.00005357 Ry

     total magnetization       =     9.00 Bohr mag/cell
     absolute magnetization    =     9.02 Bohr mag/cell

     iteration # 19     ecut=   120.00 Ry     beta= 0.70
     Davidson diagonalization with overlap

---- Real-time Memory Report at c_bands before calling an iterative solver
           268 MiB given to the printing process from OS
           235 MiB allocation reported by mallinfo(arena+hblkhd)
        668467 MiB available memory on the node where the printing process lives
------------------
     ethr =  1.93E-08,  avg # of iterations =  5.3

     =================== HUBBARD OCCUPATIONS ===================
     ------------------------ ATOM    1 ------------------------
     Tr[ns(  1)] (up, down, total) =   4.92730  0.27138  5.19868
     Atomic magnetic moment for atom   1 =   4.65592
     SPIN  1
     eigenvalues:
       0.971  0.972  0.994  0.995  0.995
     eigenvectors (columns):
      -0.578 -0.000 -0.815  0.000 -0.036
       0.788 -0.000 -0.569  0.000  0.236
       0.000  0.530 -0.000 -0.848  0.000
      -0.212  0.000  0.108  0.000  0.971
       0.000  0.848  0.000  0.530 -0.000
     occupation matrix ns (before diag.):
       0.986  0.010 -0.000 -0.003  0.000
       0.010  0.980 -0.000  0.004  0.000
      -0.000 -0.000  0.988 -0.000 -0.010
      -0.003  0.004 -0.000  0.994 -0.000
       0.000  0.000 -0.010 -0.000  0.979
     SPIN  2
     eigenvalues:
       0.026  0.027  0.031  0.092  0.094
     eigenvectors (columns):
      -0.000  0.835  0.148  0.000 -0.529
      -0.000  0.467  0.315  0.000  0.826
      -0.821 -0.000  0.000  0.571 -0.000
       0.000 -0.289  0.938 -0.000 -0.194
       0.571  0.000  0.000  0.821 -0.000
     occupation matrix ns (before diag.):
       0.046 -0.029  0.000  0.007  0.000
      -0.029  0.073 -0.000 -0.009  0.000
       0.000 -0.000  0.048 -0.000  0.031
       0.007 -0.009 -0.000  0.033 -0.000
       0.000  0.000  0.031 -0.000  0.071
     ------------------------ ATOM    2 ------------------------
     Tr[ns(  2)] (up, down, total) =   4.96680  1.20096  6.16776
     Atomic magnetic moment for atom   2 =   3.76584
     SPIN  1
     eigenvalues:
       0.988  0.989  0.995  0.998  0.998
     eigenvectors (columns):
      -0.580 -0.000 -0.804  0.129 -0.000
       0.799 -0.000 -0.530  0.284 -0.000
       0.000  0.546 -0.000 -0.000 -0.837
      -0.160  0.000  0.268  0.950 -0.000
       0.000  0.837  0.000  0.000  0.546
     occupation matrix ns (before diag.):
       0.993  0.004 -0.000 -0.000  0.000
       0.004  0.991 -0.000  0.002  0.000
      -0.000 -0.000  0.995 -0.000 -0.004
      -0.000  0.002 -0.000  0.997 -0.000
       0.000  0.000 -0.004 -0.000  0.991
     SPIN  2
     eigenvalues:
       0.022  0.027  0.081  0.086  0.985
     eigenvectors (columns):
       0.000  0.200  0.552 -0.000  0.809
       0.000  0.422 -0.794 -0.000  0.438
       0.825  0.000  0.000  0.565 -0.000
      -0.000  0.884  0.254 -0.000 -0.392
      -0.565  0.000  0.000  0.825  0.000
     occupation matrix ns (before diag.):
       0.671  0.316 -0.000 -0.296  0.000
       0.316  0.245 -0.000 -0.175  0.000
      -0.000 -0.000  0.043  0.000  0.030
      -0.296 -0.175  0.000  0.178 -0.000
       0.000  0.000  0.030 -0.000  0.065

     Number of occupied Hubbard levels =   11.3664

     HUBBARD ENERGY =    0.1187  (Ry)

     total cpu time spent up to now is      316.2 secs

     total energy              =   -1035.27400644 Ry
     estimated scf accuracy    <       0.00001931 Ry

     total magnetization       =     9.00 Bohr mag/cell
     absolute magnetization    =     9.02 Bohr mag/cell

     iteration # 20     ecut=   120.00 Ry     beta= 0.70
     Davidson diagonalization with overlap

---- Real-time Memory Report at c_bands before calling an iterative solver
           268 MiB given to the printing process from OS
           235 MiB allocation reported by mallinfo(arena+hblkhd)
        668463 MiB available memory on the node where the printing process lives
------------------
     ethr =  1.80E-08,  avg # of iterations =  4.6

     =================== HUBBARD OCCUPATIONS ===================
     ------------------------ ATOM    1 ------------------------
     Tr[ns(  1)] (up, down, total) =   4.92730  0.27141  5.19871
     Atomic magnetic moment for atom   1 =   4.65589
     SPIN  1
     eigenvalues:
       0.971  0.972  0.994  0.995  0.995
     eigenvectors (columns):
      -0.578 -0.000 -0.815  0.000 -0.035
       0.788 -0.000 -0.569  0.000  0.236
       0.000  0.530 -0.000 -0.848  0.000
      -0.212  0.000  0.109  0.000  0.971
       0.000  0.848  0.000  0.530 -0.000
     occupation matrix ns (before diag.):
       0.986  0.010 -0.000 -0.003  0.000
       0.010  0.980 -0.000  0.004  0.000
      -0.000 -0.000  0.988 -0.000 -0.010
      -0.003  0.004 -0.000  0.994 -0.000
       0.000  0.000 -0.010 -0.000  0.979
     SPIN  2
     eigenvalues:
       0.026  0.027  0.031  0.092  0.094
     eigenvectors (columns):
      -0.000  0.835  0.150  0.000 -0.529
      -0.000  0.467  0.315  0.000  0.826
      -0.821 -0.000  0.000  0.571 -0.000
       0.000 -0.291  0.937 -0.000 -0.194
       0.571  0.000 -0.000  0.821 -0.000
     occupation matrix ns (before diag.):
       0.046 -0.029  0.000  0.008  0.000
      -0.029  0.073 -0.000 -0.009  0.000
       0.000 -0.000  0.048 -0.000  0.031
       0.008 -0.009 -0.000  0.033 -0.000
       0.000  0.000  0.031 -0.000  0.071
     ------------------------ ATOM    2 ------------------------
     Tr[ns(  2)] (up, down, total) =   4.96679  1.20077  6.16757
     Atomic magnetic moment for atom   2 =   3.76602
     SPIN  1
     eigenvalues:
       0.988  0.989  0.995  0.998  0.998
     eigenvectors (columns):
      -0.578 -0.000 -0.801  0.156 -0.000
       0.800 -0.000 -0.519  0.300 -0.000
       0.000  0.544 -0.000 -0.000 -0.839
      -0.160  0.000  0.298  0.941 -0.000
       0.000  0.839  0.000  0.000  0.544
     occupation matrix ns (before diag.):
       0.993  0.004 -0.000 -0.000  0.000
       0.004  0.991 -0.000  0.002  0.000
      -0.000 -0.000  0.995 -0.000 -0.004
      -0.000  0.002 -0.000  0.997 -0.000
       0.000  0.000 -0.004 -0.000  0.991
     SPIN  2
     eigenvalues:
       0.022  0.027  0.081  0.086  0.985
     eigenvectors (columns):
       0.000  0.226  0.553  0.000  0.802
       0.000  0.434 -0.794 -0.000  0.425
      -0.823  0.000 -0.000  0.569 -0.000
       0.000  0.872  0.252 -0.000 -0.419
       0.569 -0.000 -0.000  0.823  0.000
     occupation matrix ns (before diag.):
       0.659  0.303 -0.000 -0.315  0.000
       0.303  0.234 -0.000 -0.182  0.000
      -0.000 -0.000  0.043  0.000  0.030
      -0.315 -0.182  0.000  0.199 -0.000
       0.000  0.000  0.030 -0.000  0.065

     Number of occupied Hubbard levels =   11.3663

     HUBBARD ENERGY =    0.1200  (Ry)

     total cpu time spent up to now is      333.3 secs

     total energy              =   -1035.27450128 Ry
     estimated scf accuracy    <       0.00000370 Ry

     total magnetization       =     9.00 Bohr mag/cell
     absolute magnetization    =     9.02 Bohr mag/cell

     iteration # 21     ecut=   120.00 Ry     beta= 0.70
     Davidson diagonalization with overlap

---- Real-time Memory Report at c_bands before calling an iterative solver
           268 MiB given to the printing process from OS
           235 MiB allocation reported by mallinfo(arena+hblkhd)
        671791 MiB available memory on the node where the printing process lives
------------------
     ethr =  3.45E-09,  avg # of iterations =  3.7

     =================== HUBBARD OCCUPATIONS ===================
     ------------------------ ATOM    1 ------------------------
     Tr[ns(  1)] (up, down, total) =   4.92730  0.27140  5.19871
     Atomic magnetic moment for atom   1 =   4.65590
     SPIN  1
     eigenvalues:
       0.971  0.972  0.994  0.995  0.995
     eigenvectors (columns):
      -0.578 -0.000 -0.815  0.000 -0.035
       0.788 -0.000 -0.569  0.000  0.236
       0.000  0.530 -0.000 -0.848  0.000
      -0.212  0.000  0.109  0.000  0.971
       0.000  0.848  0.000  0.530 -0.000
     occupation matrix ns (before diag.):
       0.986  0.010 -0.000 -0.003  0.000
       0.010  0.980 -0.000  0.004  0.000
      -0.000 -0.000  0.988 -0.000 -0.010
      -0.003  0.004 -0.000  0.994 -0.000
       0.000  0.000 -0.010 -0.000  0.979
     SPIN  2
     eigenvalues:
       0.026  0.027  0.031  0.092  0.094
     eigenvectors (columns):
      -0.000  0.835  0.149  0.000 -0.529
      -0.000  0.467  0.315  0.000  0.826
      -0.821 -0.000  0.000  0.571 -0.000
       0.000 -0.290  0.937 -0.000 -0.194
       0.571  0.000 -0.000  0.821 -0.000
     occupation matrix ns (before diag.):
       0.046 -0.029  0.000  0.008  0.000
      -0.029  0.073 -0.000 -0.009  0.000
       0.000 -0.000  0.048 -0.000  0.031
       0.008 -0.009 -0.000  0.033 -0.000
       0.000  0.000  0.031 -0.000  0.071
     ------------------------ ATOM    2 ------------------------
     Tr[ns(  2)] (up, down, total) =   4.96680  1.20084  6.16764
     Atomic magnetic moment for atom   2 =   3.76596
     SPIN  1
     eigenvalues:
       0.988  0.989  0.995  0.998  0.998
     eigenvectors (columns):
      -0.578 -0.000 -0.802  0.151 -0.000
       0.800 -0.000 -0.521  0.297 -0.000
       0.000  0.544 -0.000 -0.000 -0.839
      -0.160  0.000  0.293  0.943 -0.000
       0.000  0.839  0.000  0.000  0.544
     occupation matrix ns (before diag.):
       0.993  0.004 -0.000 -0.000  0.000
       0.004  0.991 -0.000  0.002  0.000
      -0.000 -0.000  0.995 -0.000 -0.004
      -0.000  0.002 -0.000  0.997 -0.000
       0.000  0.000 -0.004 -0.000  0.991
     SPIN  2
     eigenvalues:
       0.022  0.027  0.081  0.086  0.985
     eigenvectors (columns):
      -0.000  0.222  0.553 -0.000  0.803
      -0.000  0.431 -0.794 -0.000  0.428
      -0.823  0.000  0.000  0.568 -0.000
       0.000  0.875  0.252 -0.000 -0.414
       0.568  0.000 -0.000  0.823  0.000
     occupation matrix ns (before diag.):
       0.661  0.305 -0.000 -0.311  0.000
       0.305  0.236 -0.000 -0.181  0.000
      -0.000 -0.000  0.043  0.000  0.030
      -0.311 -0.181  0.000  0.195 -0.000
       0.000  0.000  0.030 -0.000  0.065

     Number of occupied Hubbard levels =   11.3663

     HUBBARD ENERGY =    0.1184  (Ry)

     total cpu time spent up to now is      347.9 secs

     total energy              =   -1035.27425539 Ry
     estimated scf accuracy    <       0.00000066 Ry

     total magnetization       =     9.00 Bohr mag/cell
     absolute magnetization    =     9.02 Bohr mag/cell

     iteration # 22     ecut=   120.00 Ry     beta= 0.70
     Davidson diagonalization with overlap

---- Real-time Memory Report at c_bands before calling an iterative solver
           268 MiB given to the printing process from OS
           235 MiB allocation reported by mallinfo(arena+hblkhd)
        668463 MiB available memory on the node where the printing process lives
------------------
     ethr =  6.20E-10,  avg # of iterations =  7.4

     =================== HUBBARD OCCUPATIONS ===================
     ------------------------ ATOM    1 ------------------------
     Tr[ns(  1)] (up, down, total) =   4.92730  0.27143  5.19873
     Atomic magnetic moment for atom   1 =   4.65588
     SPIN  1
     eigenvalues:
       0.971  0.972  0.994  0.995  0.995
     eigenvectors (columns):
       0.578 -0.000 -0.815  0.000  0.035
      -0.788 -0.000 -0.569  0.000 -0.236
      -0.000  0.530 -0.000 -0.848 -0.000
       0.212  0.000  0.109  0.000 -0.971
      -0.000  0.848  0.000  0.530  0.000
     occupation matrix ns (before diag.):
       0.986  0.010 -0.000 -0.003  0.000
       0.010  0.980 -0.000  0.004  0.000
      -0.000 -0.000  0.988 -0.000 -0.010
      -0.003  0.004 -0.000  0.994 -0.000
       0.000  0.000 -0.010 -0.000  0.979
     SPIN  2
     eigenvalues:
       0.026  0.027  0.031  0.092  0.094
     eigenvectors (columns):
      -0.000  0.835  0.150  0.000 -0.529
      -0.000  0.467  0.316  0.000  0.826
      -0.821 -0.000  0.000  0.571 -0.000
       0.000 -0.291  0.937 -0.000 -0.194
       0.571  0.000  0.000  0.821 -0.000
     occupation matrix ns (before diag.):
       0.046 -0.029  0.000  0.008  0.000
      -0.029  0.073 -0.000 -0.009  0.000
       0.000 -0.000  0.048 -0.000  0.031
       0.008 -0.009 -0.000  0.033 -0.000
       0.000  0.000  0.031 -0.000  0.071
     ------------------------ ATOM    2 ------------------------
     Tr[ns(  2)] (up, down, total) =   4.96681  1.20077  6.16758
     Atomic magnetic moment for atom   2 =   3.76604
     SPIN  1
     eigenvalues:
       0.988  0.989  0.995  0.997  0.998
     eigenvectors (columns):
      -0.578 -0.000 -0.798  0.170 -0.000
       0.800 -0.000 -0.513  0.309 -0.000
       0.000  0.542 -0.000 -0.000 -0.840
      -0.159  0.000  0.315  0.936 -0.000
       0.000  0.840  0.000  0.000  0.542
     occupation matrix ns (before diag.):
       0.993  0.004 -0.000 -0.000  0.000
       0.004  0.991 -0.000  0.002  0.000
      -0.000 -0.000  0.995 -0.000 -0.004
      -0.000  0.002 -0.000  0.997 -0.000
       0.000  0.000 -0.004 -0.000  0.991
     SPIN  2
     eigenvalues:
       0.022  0.027  0.081  0.086  0.985
     eigenvectors (columns):
      -0.000  0.239 -0.551 -0.000 -0.799
      -0.000  0.441  0.795 -0.000 -0.416
       0.821  0.000 -0.000  0.571  0.000
      -0.000  0.865 -0.253 -0.000  0.433
      -0.571 -0.000  0.000  0.821 -0.000
     occupation matrix ns (before diag.):
       0.655  0.295 -0.000 -0.324  0.000
       0.295  0.227 -0.000 -0.184  0.000
      -0.000 -0.000  0.043  0.000  0.030
      -0.324 -0.184  0.000  0.210 -0.000
       0.000  0.000  0.030 -0.000  0.065

     Number of occupied Hubbard levels =   11.3663

     HUBBARD ENERGY =    0.1203  (Ry)

     total cpu time spent up to now is      371.7 secs

     total energy              =   -1035.27444099 Ry
     estimated scf accuracy    <       0.00000518 Ry

     total magnetization       =     9.00 Bohr mag/cell
     absolute magnetization    =     9.02 Bohr mag/cell

     iteration # 23     ecut=   120.00 Ry     beta= 0.70
     Davidson diagonalization with overlap

---- Real-time Memory Report at c_bands before calling an iterative solver
           268 MiB given to the printing process from OS
           235 MiB allocation reported by mallinfo(arena+hblkhd)
        671791 MiB available memory on the node where the printing process lives
------------------
     ethr =  6.20E-10,  avg # of iterations =  6.4

     =================== HUBBARD OCCUPATIONS ===================
     ------------------------ ATOM    1 ------------------------
     Tr[ns(  1)] (up, down, total) =   4.92730  0.27142  5.19872
     Atomic magnetic moment for atom   1 =   4.65589
     SPIN  1
     eigenvalues:
       0.971  0.972  0.994  0.995  0.995
     eigenvectors (columns):
      -0.578 -0.000 -0.815  0.000 -0.035
       0.788 -0.000 -0.569  0.000  0.236
       0.000  0.530 -0.000 -0.848  0.000
      -0.212  0.000  0.109  0.000  0.971
       0.000  0.848  0.000  0.530 -0.000
     occupation matrix ns (before diag.):
       0.986  0.010 -0.000 -0.003  0.000
       0.010  0.980 -0.000  0.004  0.000
      -0.000 -0.000  0.988 -0.000 -0.010
      -0.003  0.004 -0.000  0.994 -0.000
       0.000  0.000 -0.010 -0.000  0.979
     SPIN  2
     eigenvalues:
       0.026  0.027  0.031  0.092  0.094
     eigenvectors (columns):
      -0.000  0.835  0.150  0.000 -0.529
      -0.000  0.467  0.315  0.000  0.826
      -0.821 -0.000  0.000  0.571 -0.000
       0.000 -0.291  0.937 -0.000 -0.194
       0.571  0.000 -0.000  0.821 -0.000
     occupation matrix ns (before diag.):
       0.046 -0.029  0.000  0.008  0.000
      -0.029  0.073 -0.000 -0.009  0.000
       0.000 -0.000  0.048 -0.000  0.031
       0.008 -0.009 -0.000  0.033 -0.000
       0.000  0.000  0.031 -0.000  0.071
     ------------------------ ATOM    2 ------------------------
     Tr[ns(  2)] (up, down, total) =   4.96681  1.20086  6.16767
     Atomic magnetic moment for atom   2 =   3.76596
     SPIN  1
     eigenvalues:
       0.988  0.989  0.995  0.998  0.998
     eigenvectors (columns):
      -0.578 -0.000 -0.800  0.159 -0.000
       0.800 -0.000 -0.518  0.302 -0.000
       0.000  0.543 -0.000 -0.000 -0.840
      -0.159  0.000  0.302  0.940 -0.000
       0.000  0.840  0.000  0.000  0.543
     occupation matrix ns (before diag.):
       0.993  0.004 -0.000 -0.000  0.000
       0.004  0.991 -0.000  0.002  0.000
      -0.000 -0.000  0.995 -0.000 -0.004
      -0.000  0.002 -0.000  0.997 -0.000
       0.000  0.000 -0.004 -0.000  0.991
     SPIN  2
     eigenvalues:
       0.022  0.027  0.081  0.086  0.985
     eigenvectors (columns):
       0.000  0.230  0.552  0.000  0.802
       0.000  0.435 -0.795 -0.000  0.422
      -0.822  0.000  0.000  0.569 -0.000
       0.000  0.871  0.252 -0.000 -0.423
       0.569 -0.000 -0.000  0.822  0.000
     occupation matrix ns (before diag.):
       0.659  0.301 -0.000 -0.317  0.000
       0.301  0.232 -0.000 -0.182  0.000
      -0.000 -0.000  0.043  0.000  0.030
      -0.317 -0.182  0.000  0.202 -0.000
       0.000  0.000  0.030 -0.000  0.065

     Number of occupied Hubbard levels =   11.3664

     HUBBARD ENERGY =    0.1205  (Ry)

     total cpu time spent up to now is      392.6 secs

     total energy              =   -1035.27451387 Ry
     estimated scf accuracy    <       0.00000081 Ry

     total magnetization       =     9.00 Bohr mag/cell
     absolute magnetization    =     9.02 Bohr mag/cell

     iteration # 24     ecut=   120.00 Ry     beta= 0.70
     Davidson diagonalization with overlap

---- Real-time Memory Report at c_bands before calling an iterative solver
           268 MiB given to the printing process from OS
           235 MiB allocation reported by mallinfo(arena+hblkhd)
        671791 MiB available memory on the node where the printing process lives
------------------
     ethr =  6.20E-10,  avg # of iterations =  4.3

     =================== HUBBARD OCCUPATIONS ===================
     ------------------------ ATOM    1 ------------------------
     Tr[ns(  1)] (up, down, total) =   4.92730  0.27142  5.19873
     Atomic magnetic moment for atom   1 =   4.65588
     SPIN  1
     eigenvalues:
       0.971  0.972  0.994  0.995  0.995
     eigenvectors (columns):
      -0.578 -0.000 -0.815  0.000 -0.035
       0.788 -0.000 -0.569  0.000  0.236
       0.000  0.530 -0.000 -0.848  0.000
      -0.212  0.000  0.109  0.000  0.971
       0.000  0.848  0.000  0.530 -0.000
     occupation matrix ns (before diag.):
       0.986  0.010 -0.000 -0.003  0.000
       0.010  0.980 -0.000  0.004  0.000
      -0.000 -0.000  0.988 -0.000 -0.010
      -0.003  0.004 -0.000  0.994 -0.000
       0.000  0.000 -0.010 -0.000  0.979
     SPIN  2
     eigenvalues:
       0.026  0.027  0.031  0.092  0.094
     eigenvectors (columns):
      -0.000  0.835  0.150  0.000 -0.529
      -0.000  0.467  0.316  0.000  0.826
      -0.821 -0.000  0.000  0.571 -0.000
       0.000 -0.291  0.937 -0.000 -0.194
       0.571  0.000 -0.000  0.821 -0.000
     occupation matrix ns (before diag.):
       0.046 -0.029  0.000  0.008  0.000
      -0.029  0.073 -0.000 -0.009  0.000
       0.000 -0.000  0.048 -0.000  0.031
       0.008 -0.009 -0.000  0.033 -0.000
       0.000  0.000  0.031 -0.000  0.071
     ------------------------ ATOM    2 ------------------------
     Tr[ns(  2)] (up, down, total) =   4.96682  1.20086  6.16768
     Atomic magnetic moment for atom   2 =   3.76595
     SPIN  1
     eigenvalues:
       0.988  0.989  0.995  0.997  0.998
     eigenvectors (columns):
      -0.578 -0.000 -0.800  0.163 -0.000
       0.800 -0.000 -0.516  0.305 -0.000
       0.000  0.543 -0.000 -0.000 -0.840
      -0.159  0.000  0.307  0.938 -0.000
       0.000  0.840  0.000  0.000  0.543
     occupation matrix ns (before diag.):
       0.993  0.004 -0.000 -0.000  0.000
       0.004  0.991 -0.000  0.002  0.000
      -0.000 -0.000  0.995 -0.000 -0.004
      -0.000  0.002 -0.000  0.997 -0.000
       0.000  0.000 -0.004 -0.000  0.991
     SPIN  2
     eigenvalues:
       0.022  0.027  0.081  0.086  0.985
     eigenvectors (columns):
       0.000  0.234  0.551 -0.000  0.801
      -0.000  0.437 -0.795 -0.000  0.420
      -0.822  0.000  0.000  0.570 -0.000
       0.000  0.868  0.252 -0.000 -0.427
       0.570 -0.000 -0.000  0.822  0.000
     occupation matrix ns (before diag.):
       0.658  0.298 -0.000 -0.320  0.000
       0.298  0.230 -0.000 -0.182  0.000
      -0.000 -0.000  0.043  0.000  0.030
      -0.320 -0.182  0.000  0.205 -0.000
       0.000  0.000  0.030 -0.000  0.065

     Number of occupied Hubbard levels =   11.3664

     HUBBARD ENERGY =    0.1200  (Ry)

     total cpu time spent up to now is      409.2 secs

     total energy              =   -1035.27450168 Ry
     estimated scf accuracy    <       0.00000126 Ry

     total magnetization       =     9.00 Bohr mag/cell
     absolute magnetization    =     9.02 Bohr mag/cell

     iteration # 25     ecut=   120.00 Ry     beta= 0.70
     Davidson diagonalization with overlap

---- Real-time Memory Report at c_bands before calling an iterative solver
           268 MiB given to the printing process from OS
           235 MiB allocation reported by mallinfo(arena+hblkhd)
        668451 MiB available memory on the node where the printing process lives
------------------
     ethr =  6.20E-10,  avg # of iterations =  4.9

     =================== HUBBARD OCCUPATIONS ===================
     ------------------------ ATOM    1 ------------------------
     Tr[ns(  1)] (up, down, total) =   4.92730  0.27143  5.19873
     Atomic magnetic moment for atom   1 =   4.65588
     SPIN  1
     eigenvalues:
       0.971  0.972  0.994  0.995  0.995
     eigenvectors (columns):
      -0.578 -0.000 -0.815  0.000 -0.035
       0.788 -0.000 -0.569  0.000  0.236
       0.000  0.530 -0.000 -0.848  0.000
      -0.212  0.000  0.109  0.000  0.971
       0.000  0.848  0.000  0.530 -0.000
     occupation matrix ns (before diag.):
       0.986  0.010 -0.000 -0.003  0.000
       0.010  0.980 -0.000  0.004  0.000
      -0.000 -0.000  0.988 -0.000 -0.010
      -0.003  0.004 -0.000  0.994 -0.000
       0.000  0.000 -0.010 -0.000  0.979
     SPIN  2
     eigenvalues:
       0.026  0.027  0.031  0.092  0.094
     eigenvectors (columns):
      -0.000  0.835  0.150  0.000 -0.529
      -0.000  0.467  0.316  0.000  0.826
      -0.821 -0.000  0.000  0.571 -0.000
       0.000 -0.291  0.937 -0.000 -0.194
       0.571  0.000 -0.000  0.821 -0.000
     occupation matrix ns (before diag.):
       0.046 -0.029  0.000  0.008  0.000
      -0.029  0.073 -0.000 -0.009  0.000
       0.000 -0.000  0.048 -0.000  0.031
       0.008 -0.009 -0.000  0.033 -0.000
       0.000  0.000  0.031 -0.000  0.071
     ------------------------ ATOM    2 ------------------------
     Tr[ns(  2)] (up, down, total) =   4.96682  1.20084  6.16766
     Atomic magnetic moment for atom   2 =   3.76598
     SPIN  1
     eigenvalues:
       0.988  0.989  0.995  0.997  0.998
     eigenvectors (columns):
      -0.578 -0.000 -0.798  0.170 -0.000
       0.801 -0.000 -0.514  0.309 -0.000
       0.000  0.542 -0.000 -0.000 -0.840
      -0.159  0.000  0.314  0.936 -0.000
       0.000  0.840  0.000  0.000  0.542
     occupation matrix ns (before diag.):
       0.993  0.004 -0.000 -0.000  0.000
       0.004  0.991 -0.000  0.002  0.000
      -0.000 -0.000  0.995 -0.000 -0.004
      -0.000  0.002 -0.000  0.997 -0.000
       0.000  0.000 -0.004 -0.000  0.991
     SPIN  2
     eigenvalues:
       0.022  0.027  0.081  0.086  0.985
     eigenvectors (columns):
       0.000 -0.240  0.551 -0.000 -0.799
       0.000 -0.440 -0.795 -0.000 -0.417
       0.821 -0.000  0.000  0.571  0.000
      -0.000 -0.865  0.252 -0.000  0.433
      -0.571 -0.000 -0.000  0.821 -0.000
     occupation matrix ns (before diag.):
       0.655  0.295 -0.000 -0.324  0.000
       0.295  0.227 -0.000 -0.184  0.000
      -0.000 -0.000  0.043  0.000  0.030
      -0.324 -0.184  0.000  0.210 -0.000
       0.000  0.000  0.030 -0.000  0.065

     Number of occupied Hubbard levels =   11.3664

     HUBBARD ENERGY =    0.1199  (Ry)

     total cpu time spent up to now is      427.4 secs

     total energy              =   -1035.27452726 Ry
     estimated scf accuracy    <       0.00000006 Ry

     total magnetization       =     9.00 Bohr mag/cell
     absolute magnetization    =     9.02 Bohr mag/cell

     iteration # 26     ecut=   120.00 Ry     beta= 0.70
     Davidson diagonalization with overlap

---- Real-time Memory Report at c_bands before calling an iterative solver
           268 MiB given to the printing process from OS
           235 MiB allocation reported by mallinfo(arena+hblkhd)
        668452 MiB available memory on the node where the printing process lives
------------------
     ethr =  5.98E-11,  avg # of iterations =  5.3

     =================== HUBBARD OCCUPATIONS ===================
     ------------------------ ATOM    1 ------------------------
     Tr[ns(  1)] (up, down, total) =   4.92730  0.27143  5.19873
     Atomic magnetic moment for atom   1 =   4.65588
     SPIN  1
     eigenvalues:
       0.971  0.972  0.994  0.995  0.995
     eigenvectors (columns):
      -0.578 -0.000 -0.815  0.000 -0.035
       0.788 -0.000 -0.569  0.000  0.236
       0.000  0.530 -0.000 -0.848  0.000
      -0.212  0.000  0.109  0.000  0.971
       0.000  0.848  0.000  0.530 -0.000
     occupation matrix ns (before diag.):
       0.986  0.010 -0.000 -0.003  0.000
       0.010  0.980 -0.000  0.004  0.000
      -0.000 -0.000  0.988 -0.000 -0.010
      -0.003  0.004 -0.000  0.994 -0.000
       0.000  0.000 -0.010 -0.000  0.979
     SPIN  2
     eigenvalues:
       0.026  0.027  0.031  0.092  0.094
     eigenvectors (columns):
      -0.000  0.835  0.150  0.000 -0.529
      -0.000  0.467  0.316  0.000  0.826
      -0.821 -0.000  0.000  0.571 -0.000
       0.000 -0.291  0.937 -0.000 -0.194
       0.571  0.000  0.000  0.821 -0.000
     occupation matrix ns (before diag.):
       0.046 -0.029  0.000  0.008  0.000
      -0.029  0.073 -0.000 -0.009  0.000
       0.000 -0.000  0.048 -0.000  0.031
       0.008 -0.009 -0.000  0.033 -0.000
       0.000  0.000  0.031 -0.000  0.071
     ------------------------ ATOM    2 ------------------------
     Tr[ns(  2)] (up, down, total) =   4.96682  1.20083  6.16765
     Atomic magnetic moment for atom   2 =   3.76599
     SPIN  1
     eigenvalues:
       0.988  0.989  0.995  0.997  0.998
     eigenvectors (columns):
      -0.578 -0.000 -0.798  0.172 -0.000
       0.801 -0.000 -0.513  0.310 -0.000
       0.000  0.542 -0.000 -0.000 -0.840
      -0.159  0.000  0.316  0.935 -0.000
       0.000  0.840  0.000  0.000  0.542
     occupation matrix ns (before diag.):
       0.993  0.004 -0.000 -0.000  0.000
       0.004  0.991 -0.000  0.002  0.000
      -0.000 -0.000  0.995 -0.000 -0.004
      -0.000  0.002 -0.000  0.997 -0.000
       0.000  0.000 -0.004 -0.000  0.991
     SPIN  2
     eigenvalues:
       0.022  0.027  0.081  0.086  0.985
     eigenvectors (columns):
       0.000  0.241  0.551 -0.000  0.799
       0.000  0.441 -0.795  0.000  0.415
       0.821  0.000  0.000  0.571 -0.000
      -0.000  0.864  0.252 -0.000 -0.435
      -0.571  0.000  0.000  0.821  0.000
     occupation matrix ns (before diag.):
       0.654  0.294 -0.000 -0.326  0.000
       0.294  0.226 -0.000 -0.184  0.000
      -0.000 -0.000  0.043  0.000  0.030
      -0.326 -0.184  0.000  0.212 -0.000
       0.000  0.000  0.030 -0.000  0.065

     Number of occupied Hubbard levels =   11.3664

     HUBBARD ENERGY =    0.1198  (Ry)

     total cpu time spent up to now is      446.2 secs

     total energy              =   -1035.27453016 Ry
     estimated scf accuracy    <       0.00000001 Ry

     total magnetization       =     9.00 Bohr mag/cell
     absolute magnetization    =     9.02 Bohr mag/cell

     iteration # 27     ecut=   120.00 Ry     beta= 0.70
     Davidson diagonalization with overlap

---- Real-time Memory Report at c_bands before calling an iterative solver
           268 MiB given to the printing process from OS
           235 MiB allocation reported by mallinfo(arena+hblkhd)
        668452 MiB available memory on the node where the printing process lives
------------------
     ethr =  9.63E-12,  avg # of iterations =  3.8

     =================== HUBBARD OCCUPATIONS ===================
     ------------------------ ATOM    1 ------------------------
     Tr[ns(  1)] (up, down, total) =   4.92730  0.27143  5.19873
     Atomic magnetic moment for atom   1 =   4.65588
     SPIN  1
     eigenvalues:
       0.971  0.972  0.994  0.995  0.995
     eigenvectors (columns):
       0.578 -0.000 -0.815  0.000  0.035
      -0.788 -0.000 -0.569  0.000 -0.236
      -0.000  0.530 -0.000 -0.848 -0.000
       0.212  0.000  0.109  0.000 -0.971
      -0.000  0.848  0.000  0.530  0.000
     occupation matrix ns (before diag.):
       0.986  0.010 -0.000 -0.003  0.000
       0.010  0.980 -0.000  0.004  0.000
      -0.000 -0.000  0.988 -0.000 -0.010
      -0.003  0.004 -0.000  0.994 -0.000
       0.000  0.000 -0.010 -0.000  0.979
     SPIN  2
     eigenvalues:
       0.026  0.027  0.031  0.092  0.094
     eigenvectors (columns):
      -0.000  0.835  0.150  0.000 -0.529
      -0.000  0.467  0.316  0.000  0.826
      -0.821 -0.000  0.000  0.571 -0.000
       0.000 -0.291  0.937 -0.000 -0.194
       0.571  0.000  0.000  0.821 -0.000
     occupation matrix ns (before diag.):
       0.046 -0.029  0.000  0.008  0.000
      -0.029  0.073 -0.000 -0.009  0.000
       0.000 -0.000  0.048 -0.000  0.031
       0.008 -0.009 -0.000  0.033 -0.000
       0.000  0.000  0.031 -0.000  0.071
     ------------------------ ATOM    2 ------------------------
     Tr[ns(  2)] (up, down, total) =   4.96682  1.20083  6.16765
     Atomic magnetic moment for atom   2 =   3.76599
     SPIN  1
     eigenvalues:
       0.988  0.989  0.995  0.997  0.998
     eigenvectors (columns):
      -0.578 -0.000 -0.798  0.172  0.000
       0.801 -0.000 -0.513  0.310 -0.000
       0.000  0.542 -0.000 -0.000 -0.840
      -0.159  0.000  0.317  0.935 -0.000
       0.000  0.840  0.000  0.000  0.542
     occupation matrix ns (before diag.):
       0.993  0.004 -0.000 -0.000  0.000
       0.004  0.991 -0.000  0.002  0.000
      -0.000 -0.000  0.995 -0.000 -0.004
      -0.000  0.002 -0.000  0.997 -0.000
       0.000  0.000 -0.004 -0.000  0.991
     SPIN  2
     eigenvalues:
       0.022  0.027  0.081  0.086  0.985
     eigenvectors (columns):
       0.000 -0.242  0.551 -0.000 -0.799
       0.000 -0.441 -0.795 -0.000 -0.415
       0.821 -0.000  0.000  0.571  0.000
      -0.000 -0.864  0.252 -0.000  0.435
      -0.571 -0.000 -0.000  0.821 -0.000
     occupation matrix ns (before diag.):
       0.654  0.294 -0.000 -0.326  0.000
       0.294  0.226 -0.000 -0.184  0.000
      -0.000 -0.000  0.043  0.000  0.030
      -0.326 -0.184  0.000  0.212 -0.000
       0.000  0.000  0.030 -0.000  0.065

     Number of occupied Hubbard levels =   11.3664

     HUBBARD ENERGY =    0.1198  (Ry)

     total cpu time spent up to now is      461.1 secs

     total energy              =   -1035.27453013 Ry
     estimated scf accuracy    <          2.2E-09 Ry

     total magnetization       =     9.00 Bohr mag/cell
     absolute magnetization    =     9.02 Bohr mag/cell

     iteration # 28     ecut=   120.00 Ry     beta= 0.70
     Davidson diagonalization with overlap

---- Real-time Memory Report at c_bands before calling an iterative solver
           268 MiB given to the printing process from OS
           235 MiB allocation reported by mallinfo(arena+hblkhd)
        668460 MiB available memory on the node where the printing process lives
------------------
     ethr =  2.03E-12,  avg # of iterations =  5.0

     =================== HUBBARD OCCUPATIONS ===================
     ------------------------ ATOM    1 ------------------------
     Tr[ns(  1)] (up, down, total) =   4.92730  0.27143  5.19873
     Atomic magnetic moment for atom   1 =   4.65588
     SPIN  1
     eigenvalues:
       0.971  0.972  0.994  0.995  0.995
     eigenvectors (columns):
       0.578 -0.000 -0.815  0.000  0.035
      -0.788 -0.000 -0.569  0.000 -0.236
      -0.000  0.530 -0.000 -0.848 -0.000
       0.212  0.000  0.109  0.000 -0.971
      -0.000  0.848  0.000  0.530  0.000
     occupation matrix ns (before diag.):
       0.986  0.010 -0.000 -0.003  0.000
       0.010  0.980 -0.000  0.004  0.000
      -0.000 -0.000  0.988 -0.000 -0.010
      -0.003  0.004 -0.000  0.994 -0.000
       0.000  0.000 -0.010 -0.000  0.979
     SPIN  2
     eigenvalues:
       0.026  0.027  0.031  0.092  0.094
     eigenvectors (columns):
      -0.000  0.835  0.150  0.000 -0.529
      -0.000  0.467  0.316  0.000  0.826
      -0.821 -0.000  0.000  0.571 -0.000
       0.000 -0.291  0.937 -0.000 -0.194
       0.571  0.000  0.000  0.821 -0.000
     occupation matrix ns (before diag.):
       0.046 -0.029  0.000  0.008  0.000
      -0.029  0.073 -0.000 -0.009  0.000
       0.000 -0.000  0.048 -0.000  0.031
       0.008 -0.009 -0.000  0.033 -0.000
       0.000  0.000  0.031 -0.000  0.071
     ------------------------ ATOM    2 ------------------------
     Tr[ns(  2)] (up, down, total) =   4.96682  1.20083  6.16765
     Atomic magnetic moment for atom   2 =   3.76599
     SPIN  1
     eigenvalues:
       0.988  0.989  0.995  0.997  0.998
     eigenvectors (columns):
      -0.578 -0.000 -0.798  0.172 -0.000
       0.801 -0.000 -0.513  0.310 -0.000
       0.000  0.542 -0.000 -0.000 -0.840
      -0.159  0.000  0.317  0.935 -0.000
       0.000  0.840  0.000  0.000  0.542
     occupation matrix ns (before diag.):
       0.993  0.004 -0.000 -0.000  0.000
       0.004  0.991 -0.000  0.002  0.000
      -0.000 -0.000  0.995 -0.000 -0.004
      -0.000  0.002 -0.000  0.997 -0.000
       0.000  0.000 -0.004 -0.000  0.991
     SPIN  2
     eigenvalues:
       0.022  0.027  0.081  0.086  0.985
     eigenvectors (columns):
       0.000  0.242  0.551  0.000  0.799
      -0.000  0.442 -0.795 -0.000  0.415
      -0.821  0.000 -0.000  0.571 -0.000
       0.000  0.864  0.252 -0.000 -0.436
       0.571  0.000 -0.000  0.821  0.000
     occupation matrix ns (before diag.):
       0.654  0.294 -0.000 -0.326  0.000
       0.294  0.226 -0.000 -0.184  0.000
      -0.000 -0.000  0.043  0.000  0.030
      -0.326 -0.184  0.000  0.212 -0.000
       0.000  0.000  0.030 -0.000  0.065

     Number of occupied Hubbard levels =   11.3664

     HUBBARD ENERGY =    0.1198  (Ry)
 
     Magnetic moment per site  (integrated on atomic sphere of radius R)
     atom   1 (R=0.183)  charge= 12.1809  magn=  4.0523
     atom   2 (R=0.183)  charge= 13.2369  magn=  3.4302
     atom   3 (R=0.158)  charge=  7.5348  magn=  0.0378
     atom   4 (R=0.158)  charge=  7.5352  magn=  0.0483
     atom   5 (R=0.158)  charge=  4.9409  magn=  0.0230
     atom   6 (R=0.158)  charge=  4.9409  magn=  0.0230
     atom   7 (R=0.158)  charge=  4.9456  magn=  0.0238
     atom   8 (R=0.158)  charge=  4.9456  magn=  0.0238
     atom   9 (R=0.158)  charge=  4.9527  magn=  0.0180
     atom  10 (R=0.158)  charge=  4.9527  magn=  0.0180
     atom  11 (R=0.158)  charge=  4.9490  magn=  0.0216
     atom  12 (R=0.158)  charge=  4.9490  magn=  0.0216

     total cpu time spent up to now is      479.5 secs

     End of self-consistent calculation

 ------ SPIN UP ------------


          k = 0.0833 0.0678 0.0780 ( 18955 PWs)   bands (ev):

   -76.7614 -68.2534 -63.6910 -63.6535 -44.1731 -42.5435 -42.4420 -37.3197
   -37.3115 -37.2899 -28.2398 -28.1656 -28.1526 -28.0668 -28.0384 -27.9865
    -8.2865  -7.0653  -6.8603  -6.7428  -6.5337  -6.4095  -6.1393  -5.9029
     3.6028   3.7099   3.8804   4.0838   4.1331   4.4117   4.8646   4.9812
     5.1915   5.3641   5.7327   6.0956   6.3933   6.6415   6.8572   7.0311
     7.0776   7.4288   7.4754   7.7816   8.0965   8.1888   8.3900   8.5489
     8.5708   9.0239   9.2691   9.3441   9.4908   9.6051   9.8353   9.9119
    10.6128  11.1615  13.9949  14.3100  14.4197  14.7585  15.3668  15.6323
    16.8713

     occupation numbers 
     1.0000   1.0000   1.0000   1.0000   1.0000   1.0000   1.0000   1.0000
     1.0000   1.0000   1.0000   1.0000   1.0000   1.0000   1.0000   1.0000
     1.0000   1.0000   1.0000   1.0000   1.0000   1.0000   1.0000   1.0000
     1.0000   1.0000   1.0000   1.0000   1.0000   1.0000   1.0000   1.0000
     1.0000   1.0000   1.0000   1.0000   1.0000   1.0000   1.0000   1.0000
     1.0000   1.0000   1.0000   1.0000   1.0000   1.0000   1.0000   1.0000
     1.0000   1.0000   1.0000   1.0000   1.0000   1.0000   1.0000   1.0000
     1.0000   1.0000   0.0000   0.0000   0.0000   0.0000   0.0000   0.0000
     0.0000

          k = 0.0833 0.0678 0.2323 ( 18941 PWs)   bands (ev):

   -76.7614 -68.2534 -63.6907 -63.6537 -44.1732 -42.5435 -42.4420 -37.3197
   -37.3115 -37.2899 -28.2363 -28.1821 -28.1418 -28.0853 -28.0202 -27.9854
    -8.0852  -7.0635  -7.0122  -6.8962  -6.4075  -6.3527  -6.1795  -5.9736
     3.6507   3.7452   3.8953   4.0874   4.3329   4.4286   4.6980   4.9050
     5.2114   5.3314   5.6257   6.0998   6.3989   6.6242   6.8401   7.1085
     7.1927   7.2696   7.5230   7.6285   7.9432   8.2273   8.3110   8.5366
     8.7795   8.9936   9.1945   9.3920   9.4970   9.6103   9.8230   9.8782
    10.8926  11.3128  14.1605  14.1861  14.4188  14.6811  15.2235  15.3356
    17.5257

     occupation numbers 
     1.0000   1.0000   1.0000   1.0000   1.0000   1.0000   1.0000   1.0000
     1.0000   1.0000   1.0000   1.0000   1.0000   1.0000   1.0000   1.0000
     1.0000   1.0000   1.0000   1.0000   1.0000   1.0000   1.0000   1.0000
     1.0000   1.0000   1.0000   1.0000   1.0000   1.0000   1.0000   1.0000
     1.0000   1.0000   1.0000   1.0000   1.0000   1.0000   1.0000   1.0000
     1.0000   1.0000   1.0000   1.0000   1.0000   1.0000   1.0000   1.0000
     1.0000   1.0000   1.0000   1.0000   1.0000   1.0000   1.0000   1.0000
     1.0000   1.0000   0.0000   0.0000   0.0000   0.0000   0.0000   0.0000
     0.0000

          k = 0.0833 0.0678 0.3865 ( 18966 PWs)   bands (ev):

   -76.7615 -68.2534 -63.6904 -63.6540 -44.1732 -42.5435 -42.4420 -37.3197
   -37.3115 -37.2899 -28.2293 -28.1984 -28.1311 -28.1012 -28.0068 -27.9856
    -7.7317  -7.3274  -7.0454  -6.9944  -6.3876  -6.3607  -6.1154  -6.0387
     3.6495   3.7315   3.8663   3.9559   4.4635   4.6113   4.7766   5.0022
     5.2932   5.3735   5.6366   6.0011   6.2748   6.4695   6.6248   6.9803
     7.2239   7.2889   7.4673   7.7390   7.9346   8.0484   8.3482   8.6482
     8.7843   9.0220   9.0950   9.4411   9.5391   9.6968   9.7904   9.9344
    11.0754  11.3469  14.2044  14.3140  14.4750  14.6442  14.8840  14.9559
    18.0013

     occupation numbers 
     1.0000   1.0000   1.0000   1.0000   1.0000   1.0000   1.0000   1.0000
     1.0000   1.0000   1.0000   1.0000   1.0000   1.0000   1.0000   1.0000
     1.0000   1.0000   1.0000   1.0000   1.0000   1.0000   1.0000   1.0000
     1.0000   1.0000   1.0000   1.0000   1.0000   1.0000   1.0000   1.0000
     1.0000   1.0000   1.0000   1.0000   1.0000   1.0000   1.0000   1.0000
     1.0000   1.0000   1.0000   1.0000   1.0000   1.0000   1.0000   1.0000
     1.0000   1.0000   1.0000   1.0000   1.0000   1.0000   1.0000   1.0000
     1.0000   1.0000   0.0000   0.0000   0.0000   0.0000   0.0000   0.0000
     0.0000

          k = 0.0834 0.0678-0.3847 ( 18949 PWs)   bands (ev):

   -76.7615 -68.2534 -63.6904 -63.6541 -44.1732 -42.5435 -42.4420 -37.3197
   -37.3115 -37.2899 -28.2292 -28.1983 -28.1312 -28.1011 -28.0068 -27.9857
    -7.7409  -7.3171  -7.0386  -6.9804  -6.4293  -6.3584  -6.1075  -6.0335
     3.6072   3.7675   3.8433   4.0084   4.4056   4.6851   4.7779   4.9907
     5.1324   5.5256   5.7164   6.0694   6.1599   6.5169   6.6127   6.9709
     7.1174   7.2622   7.5282   7.7778   7.9586   8.1186   8.4676   8.5727
     8.7106   8.9835   9.1039   9.3494   9.4609   9.5953   9.9013  10.0435
    11.1221  11.2055  14.1647  14.3798  14.4758  14.6098  14.7714  15.0043
    18.0317

     occupation numbers 
     1.0000   1.0000   1.0000   1.0000   1.0000   1.0000   1.0000   1.0000
     1.0000   1.0000   1.0000   1.0000   1.0000   1.0000   1.0000   1.0000
     1.0000   1.0000   1.0000   1.0000   1.0000   1.0000   1.0000   1.0000
     1.0000   1.0000   1.0000   1.0000   1.0000   1.0000   1.0000   1.0000
     1.0000   1.0000   1.0000   1.0000   1.0000   1.0000   1.0000   1.0000
     1.0000   1.0000   1.0000   1.0000   1.0000   1.0000   1.0000   1.0000
     1.0000   1.0000   1.0000   1.0000   1.0000   1.0000   1.0000   1.0000
     1.0000   1.0000   0.0000   0.0000   0.0000   0.0000   0.0000   0.0000
     0.0000

          k = 0.0834 0.0678-0.2305 ( 18942 PWs)   bands (ev):

   -76.7614 -68.2534 -63.6907 -63.6538 -44.1732 -42.5435 -42.4420 -37.3197
   -37.3115 -37.2899 -28.2360 -28.1822 -28.1417 -28.0853 -28.0202 -27.9855
    -8.0935  -7.0547  -6.9782  -6.8558  -6.4853  -6.4162  -6.1531  -5.9418
     3.6095   3.7441   3.8628   4.2120   4.3138   4.4144   4.6234   4.9724
     5.2160   5.3880   5.7612   6.1242   6.2124   6.7485   6.9086   7.0160
     7.1132   7.2561   7.5310   7.6724   8.0288   8.2884   8.4334   8.5173
     8.7412   8.7524   9.1243   9.3052   9.4607   9.5743   9.9044  10.0283
    10.8718  11.1287  14.0456  14.2298  14.4204  14.7348  15.1325  15.2765
    17.5061

     occupation numbers 
     1.0000   1.0000   1.0000   1.0000   1.0000   1.0000   1.0000   1.0000
     1.0000   1.0000   1.0000   1.0000   1.0000   1.0000   1.0000   1.0000
     1.0000   1.0000   1.0000   1.0000   1.0000   1.0000   1.0000   1.0000
     1.0000   1.0000   1.0000   1.0000   1.0000   1.0000   1.0000   1.0000
     1.0000   1.0000   1.0000   1.0000   1.0000   1.0000   1.0000   1.0000
     1.0000   1.0000   1.0000   1.0000   1.0000   1.0000   1.0000   1.0000
     1.0000   1.0000   1.0000   1.0000   1.0000   1.0000   1.0000   1.0000
     1.0000   1.0000   0.0000   0.0000   0.0000   0.0000   0.0000   0.0000
     0.0000

          k = 0.0833 0.0678-0.0762 ( 18946 PWs)   bands (ev):

   -76.7614 -68.2534 -63.6910 -63.6535 -44.1731 -42.5435 -42.4420 -37.3197
   -37.3115 -37.2899 -28.2396 -28.1658 -28.1524 -28.0669 -28.0383 -27.9866
    -8.2898  -7.0690  -6.7832  -6.7107  -6.6096  -6.4789  -6.1184  -5.8846
     3.6053   3.6547   3.8834   4.1121   4.1815   4.4345   4.6702   5.0932
     5.2542   5.5021   5.6533   6.1628   6.2364   6.6634   6.8937   7.0067
     7.2150   7.3258   7.4852   7.7863   8.0160   8.2455   8.4551   8.5597
     8.6242   8.8859   9.1291   9.2565   9.6151   9.6943   9.8332   9.9380
    10.5632  11.0898  14.0149  14.2049  14.4434  14.7820  15.3939  15.5398
    16.9082

     occupation numbers 
     1.0000   1.0000   1.0000   1.0000   1.0000   1.0000   1.0000   1.0000
     1.0000   1.0000   1.0000   1.0000   1.0000   1.0000   1.0000   1.0000
     1.0000   1.0000   1.0000   1.0000   1.0000   1.0000   1.0000   1.0000
     1.0000   1.0000   1.0000   1.0000   1.0000   1.0000   1.0000   1.0000
     1.0000   1.0000   1.0000   1.0000   1.0000   1.0000   1.0000   1.0000
     1.0000   1.0000   1.0000   1.0000   1.0000   1.0000   1.0000   1.0000
     1.0000   1.0000   1.0000   1.0000   1.0000   1.0000   1.0000   1.0000
     1.0000   1.0000   0.0000   0.0000   0.0000   0.0000   0.0000   0.0000
     0.0000

          k = 0.0833 0.2035 0.0780 ( 18958 PWs)   bands (ev):

   -76.7614 -68.2534 -63.6910 -63.6534 -44.1731 -42.5435 -42.4420 -37.3197
   -37.3115 -37.2899 -28.2394 -28.1649 -28.1520 -28.0674 -28.0398 -27.9869
    -8.1825  -7.1259  -6.9470  -6.6943  -6.5684  -6.4074  -6.1563  -5.8984
     3.6767   3.8497   3.9814   4.1228   4.1947   4.5640   4.8265   5.0197
     5.1805   5.3401   5.6258   5.9112   6.2980   6.4317   6.6890   6.8940
     7.1628   7.4137   7.5897   7.8959   7.9645   8.1997   8.3602   8.5206
     8.7373   8.8937   9.1707   9.2756   9.4863   9.5940   9.8782  10.0565
    10.7839  11.1660  13.9674  14.1068  14.5300  14.9577  15.3468  15.5270
    17.3497

     occupation numbers 
     1.0000   1.0000   1.0000   1.0000   1.0000   1.0000   1.0000   1.0000
     1.0000   1.0000   1.0000   1.0000   1.0000   1.0000   1.0000   1.0000
     1.0000   1.0000   1.0000   1.0000   1.0000   1.0000   1.0000   1.0000
     1.0000   1.0000   1.0000   1.0000   1.0000   1.0000   1.0000   1.0000
     1.0000   1.0000   1.0000   1.0000   1.0000   1.0000   1.0000   1.0000
     1.0000   1.0000   1.0000   1.0000   1.0000   1.0000   1.0000   1.0000
     1.0000   1.0000   1.0000   1.0000   1.0000   1.0000   1.0000   1.0000
     1.0000   1.0000   0.0000   0.0000   0.0000   0.0000   0.0000   0.0000
     0.0000

          k = 0.0833 0.2035 0.2323 ( 18968 PWs)   bands (ev):

   -76.7615 -68.2534 -63.6906 -63.6537 -44.1732 -42.5435 -42.4420 -37.3197
   -37.3115 -37.2899 -28.2366 -28.1825 -28.1414 -28.0858 -28.0204 -27.9849
    -7.9970  -7.1707  -7.0051  -6.8008  -6.4512  -6.3531  -6.2754  -5.9570
     3.7006   3.8044   3.9501   4.2089   4.3602   4.5918   4.6885   4.9917
     5.2037   5.3043   5.7008   6.0704   6.1842   6.3978   6.6931   6.8740
     7.1868   7.3000   7.5057   7.7810   7.8768   8.2016   8.3720   8.5424
     8.7920   8.9014   9.1277   9.2225   9.4804   9.5799   9.9268  10.1017
    10.9659  11.3085  13.9559  14.2645  14.5049  14.8745  15.1459  15.2971
    17.8175

     occupation numbers 
     1.0000   1.0000   1.0000   1.0000   1.0000   1.0000   1.0000   1.0000
     1.0000   1.0000   1.0000   1.0000   1.0000   1.0000   1.0000   1.0000
     1.0000   1.0000   1.0000   1.0000   1.0000   1.0000   1.0000   1.0000
     1.0000   1.0000   1.0000   1.0000   1.0000   1.0000   1.0000   1.0000
     1.0000   1.0000   1.0000   1.0000   1.0000   1.0000   1.0000   1.0000
     1.0000   1.0000   1.0000   1.0000   1.0000   1.0000   1.0000   1.0000
     1.0000   1.0000   1.0000   1.0000   1.0000   1.0000   1.0000   1.0000
     1.0000   1.0000   0.0000   0.0000   0.0000   0.0000   0.0000   0.0000
     0.0000

          k = 0.0833 0.2035 0.3865 ( 18948 PWs)   bands (ev):

   -76.7615 -68.2535 -63.6904 -63.6540 -44.1732 -42.5435 -42.4420 -37.3197
   -37.3115 -37.2899 -28.2303 -28.1996 -28.1312 -28.1011 -28.0059 -27.9847
    -7.6800  -7.3514  -7.0017  -6.9210  -6.4562  -6.4145  -6.1663  -6.0512
     3.6903   3.8239   3.9703   4.0546   4.3979   4.5422   4.9329   5.0203
     5.3637   5.4850   5.6592   5.9312   6.2852   6.4398   6.5357   6.7835
     7.0510   7.1571   7.4564   7.6732   7.9393   8.0997   8.3431   8.5214
     8.7388   8.9690   9.1202   9.3879   9.5011   9.6583   9.8490  10.1691
    11.0939  11.3634  14.0686  14.3284  14.5504  14.7616  14.8978  14.9611
    18.1133

     occupation numbers 
     1.0000   1.0000   1.0000   1.0000   1.0000   1.0000   1.0000   1.0000
     1.0000   1.0000   1.0000   1.0000   1.0000   1.0000   1.0000   1.0000
     1.0000   1.0000   1.0000   1.0000   1.0000   1.0000   1.0000   1.0000
     1.0000   1.0000   1.0000   1.0000   1.0000   1.0000   1.0000   1.0000
     1.0000   1.0000   1.0000   1.0000   1.0000   1.0000   1.0000   1.0000
     1.0000   1.0000   1.0000   1.0000   1.0000   1.0000   1.0000   1.0000
     1.0000   1.0000   1.0000   1.0000   1.0000   1.0000   1.0000   1.0000
     1.0000   1.0000   0.0000   0.0000   0.0000   0.0000   0.0000   0.0000
     0.0000

          k = 0.0834 0.2035-0.3847 ( 18957 PWs)   bands (ev):

   -76.7615 -68.2535 -63.6904 -63.6540 -44.1732 -42.5435 -42.4420 -37.3197
   -37.3115 -37.2899 -28.2302 -28.1996 -28.1311 -28.1011 -28.0059 -27.9847
    -7.6855  -7.3347  -7.0296  -6.8798  -6.5281  -6.3653  -6.1946  -6.0286
     3.6963   3.8516   3.9131   4.1420   4.3526   4.5897   4.8481   5.0317
     5.2787   5.5155   5.7809   6.0484   6.2216   6.3152   6.6507   6.6985
     6.9434   7.2789   7.4528   7.6477   7.8816   8.1849   8.4390   8.5904
     8.6654   8.9330   9.1376   9.3234   9.4678   9.7286   9.8210  10.1586
    11.1048  11.2663  14.0162  14.3931  14.5375  14.6714  14.8627  14.9914
    18.1830

     occupation numbers 
     1.0000   1.0000   1.0000   1.0000   1.0000   1.0000   1.0000   1.0000
     1.0000   1.0000   1.0000   1.0000   1.0000   1.0000   1.0000   1.0000
     1.0000   1.0000   1.0000   1.0000   1.0000   1.0000   1.0000   1.0000
     1.0000   1.0000   1.0000   1.0000   1.0000   1.0000   1.0000   1.0000
     1.0000   1.0000   1.0000   1.0000   1.0000   1.0000   1.0000   1.0000
     1.0000   1.0000   1.0000   1.0000   1.0000   1.0000   1.0000   1.0000
     1.0000   1.0000   1.0000   1.0000   1.0000   1.0000   1.0000   1.0000
     1.0000   1.0000   0.0000   0.0000   0.0000   0.0000   0.0000   0.0000
     0.0000

          k = 0.0834 0.2035-0.2305 ( 18959 PWs)   bands (ev):

   -76.7615 -68.2534 -63.6907 -63.6538 -44.1732 -42.5435 -42.4420 -37.3197
   -37.3115 -37.2899 -28.2364 -28.1826 -28.1412 -28.0859 -28.0203 -27.9850
    -8.0029  -7.1291  -7.0120  -6.7488  -6.5560  -6.4306  -6.2072  -5.9310
     3.7290   3.8288   3.9212   4.2247   4.3312   4.5902   4.7074   4.9365
     5.2297   5.3980   5.8123   5.9892   6.0942   6.4265   6.7467   6.8504
     7.1488   7.2339   7.4997   7.7949   7.8847   8.3124   8.4876   8.6259
     8.6975   8.7682   9.1401   9.2932   9.3984   9.6959   9.8483  10.0881
    10.8724  11.1868  13.9112  14.2888  14.4828  14.8374  15.0563  15.2671
    17.9659

     occupation numbers 
     1.0000   1.0000   1.0000   1.0000   1.0000   1.0000   1.0000   1.0000
     1.0000   1.0000   1.0000   1.0000   1.0000   1.0000   1.0000   1.0000
     1.0000   1.0000   1.0000   1.0000   1.0000   1.0000   1.0000   1.0000
     1.0000   1.0000   1.0000   1.0000   1.0000   1.0000   1.0000   1.0000
     1.0000   1.0000   1.0000   1.0000   1.0000   1.0000   1.0000   1.0000
     1.0000   1.0000   1.0000   1.0000   1.0000   1.0000   1.0000   1.0000
     1.0000   1.0000   1.0000   1.0000   1.0000   1.0000   1.0000   1.0000
     1.0000   1.0000   0.0000   0.0000   0.0000   0.0000   0.0000   0.0000
     0.0000

          k = 0.0833 0.2035-0.0762 ( 18948 PWs)   bands (ev):

   -76.7614 -68.2534 -63.6910 -63.6535 -44.1731 -42.5435 -42.4420 -37.3197
   -37.3115 -37.2899 -28.2393 -28.1651 -28.1517 -28.0676 -28.0396 -27.9869
    -8.1851  -7.1270  -6.8761  -6.7129  -6.6055  -6.4655  -6.1290  -5.8826
     3.7065   3.7920   4.0142   4.1438   4.1788   4.6004   4.7364   5.0234
     5.1842   5.4829   5.6281   5.9648   6.1080   6.4411   6.7422   6.9102
     7.1616   7.3558   7.6432   7.8802   7.9512   8.2164   8.3857   8.5140
     8.6920   8.9259   9.1874   9.2786   9.5237   9.6430   9.8344  10.0402
    10.6775  11.1316  13.9794  14.1295  14.4335  14.9737  15.3918  15.4186
    17.4224

     occupation numbers 
     1.0000   1.0000   1.0000   1.0000   1.0000   1.0000   1.0000   1.0000
     1.0000   1.0000   1.0000   1.0000   1.0000   1.0000   1.0000   1.0000
     1.0000   1.0000   1.0000   1.0000   1.0000   1.0000   1.0000   1.0000
     1.0000   1.0000   1.0000   1.0000   1.0000   1.0000   1.0000   1.0000
     1.0000   1.0000   1.0000   1.0000   1.0000   1.0000   1.0000   1.0000
     1.0000   1.0000   1.0000   1.0000   1.0000   1.0000   1.0000   1.0000
     1.0000   1.0000   1.0000   1.0000   1.0000   1.0000   1.0000   1.0000
     1.0000   1.0000   0.0000   0.0000   0.0000   0.0000   0.0000   0.0000
     0.0000

          k = 0.0833 0.3392 0.0780 ( 18936 PWs)   bands (ev):

   -76.7614 -68.2534 -63.6909 -63.6534 -44.1731 -42.5435 -42.4420 -37.3197
   -37.3115 -37.2899 -28.2391 -28.1642 -28.1513 -28.0680 -28.0411 -27.9873
    -8.0408  -7.3055  -6.9221  -6.6519  -6.6008  -6.4320  -6.1713  -5.8951
     3.7958   4.0133   4.0554   4.1922   4.3210   4.6212   4.8560   4.9038
     5.0974   5.3577   5.5371   5.8158   6.0455   6.4697   6.6171   6.9121
     7.1035   7.4317   7.6214   7.7307   7.8771   8.1856   8.2902   8.4073
     8.7895   8.9339   9.2089   9.2809   9.5336   9.6384   9.8910  10.0801
    10.9255  11.1947  13.7500  14.2490  14.7422  14.8816  15.2536  15.5267
    18.0204

     occupation numbers 
     1.0000   1.0000   1.0000   1.0000   1.0000   1.0000   1.0000   1.0000
     1.0000   1.0000   1.0000   1.0000   1.0000   1.0000   1.0000   1.0000
     1.0000   1.0000   1.0000   1.0000   1.0000   1.0000   1.0000   1.0000
     1.0000   1.0000   1.0000   1.0000   1.0000   1.0000   1.0000   1.0000
     1.0000   1.0000   1.0000   1.0000   1.0000   1.0000   1.0000   1.0000
     1.0000   1.0000   1.0000   1.0000   1.0000   1.0000   1.0000   1.0000
     1.0000   1.0000   1.0000   1.0000   1.0000   1.0000   1.0000   1.0000
     1.0000   1.0000   0.0000   0.0000   0.0000   0.0000   0.0000   0.0000
     0.0000

          k = 0.0833 0.3392 0.2323 ( 18967 PWs)   bands (ev):

   -76.7615 -68.2534 -63.6906 -63.6536 -44.1731 -42.5435 -42.4420 -37.3197
   -37.3115 -37.2899 -28.2370 -28.1829 -28.1409 -28.0864 -28.0205 -27.9846
    -7.8781  -7.3137  -6.9554  -6.7174  -6.4957  -6.4069  -6.3316  -5.9512
     3.7422   3.9252   4.0620   4.2557   4.3016   4.6590   4.8834   4.9916
     5.2540   5.3150   5.7521   5.9103   6.0731   6.4438   6.5014   6.7754
     6.9133   7.2852   7.4522   7.7713   7.8605   8.1098   8.4778   8.5049
     8.7002   8.9803   9.1019   9.2260   9.4582   9.6505   9.8879  10.2435
    11.0731  11.2669  13.8169  14.3629  14.7143  14.8675  14.9670  15.3637
    18.1003

     occupation numbers 
     1.0000   1.0000   1.0000   1.0000   1.0000   1.0000   1.0000   1.0000
     1.0000   1.0000   1.0000   1.0000   1.0000   1.0000   1.0000   1.0000
     1.0000   1.0000   1.0000   1.0000   1.0000   1.0000   1.0000   1.0000
     1.0000   1.0000   1.0000   1.0000   1.0000   1.0000   1.0000   1.0000
     1.0000   1.0000   1.0000   1.0000   1.0000   1.0000   1.0000   1.0000
     1.0000   1.0000   1.0000   1.0000   1.0000   1.0000   1.0000   1.0000
     1.0000   1.0000   1.0000   1.0000   1.0000   1.0000   1.0000   1.0000
     1.0000   1.0000   0.0000   0.0000   0.0000   0.0000   0.0000   0.0000
     0.0000

          k = 0.0833 0.3392 0.3865 ( 18966 PWs)   bands (ev):

   -76.7616 -68.2535 -63.6903 -63.6539 -44.1731 -42.5435 -42.4420 -37.3197
   -37.3115 -37.2899 -28.2314 -28.2008 -28.1312 -28.1011 -28.0050 -27.9838
    -7.6126  -7.3989  -6.8998  -6.8256  -6.5693  -6.5239  -6.1869  -6.0658
     3.7409   3.9363   4.0230   4.2518   4.3251   4.4543   4.8841   5.2032
     5.4158   5.5578   5.8101   5.9310   6.1810   6.4189   6.5496   6.6984
     6.8260   7.0571   7.2466   7.5824   7.6909   8.2001   8.3051   8.5488
     8.7216   8.9893   9.2249   9.2807   9.4440   9.6617   9.9125  10.3528
    11.1004  11.3628  14.0065  14.3318  14.5599  14.7916  14.8556  15.1173
    18.0957

     occupation numbers 
     1.0000   1.0000   1.0000   1.0000   1.0000   1.0000   1.0000   1.0000
     1.0000   1.0000   1.0000   1.0000   1.0000   1.0000   1.0000   1.0000
     1.0000   1.0000   1.0000   1.0000   1.0000   1.0000   1.0000   1.0000
     1.0000   1.0000   1.0000   1.0000   1.0000   1.0000   1.0000   1.0000
     1.0000   1.0000   1.0000   1.0000   1.0000   1.0000   1.0000   1.0000
     1.0000   1.0000   1.0000   1.0000   1.0000   1.0000   1.0000   1.0000
     1.0000   1.0000   1.0000   1.0000   1.0000   1.0000   1.0000   1.0000
     1.0000   1.0000   0.0000   0.0000   0.0000   0.0000   0.0000   0.0000
     0.0000

          k = 0.0834 0.3392-0.3847 ( 18934 PWs)   bands (ev):

   -76.7616 -68.2535 -63.6904 -63.6540 -44.1731 -42.5435 -42.4420 -37.3197
   -37.3115 -37.2899 -28.2313 -28.2008 -28.1311 -28.1011 -28.0049 -27.9838
    -7.6244  -7.3512  -6.9842  -6.7823  -6.6167  -6.4407  -6.2589  -6.0278
     3.7534   3.9630   4.0849   4.2180   4.3211   4.4703   4.8574   5.1082
     5.4423   5.5563   5.8253   6.0577   6.1179   6.2656   6.5375   6.6167
     6.9507   7.1486   7.3105   7.5327   7.6738   8.1927   8.3025   8.6350
     8.7152   8.9532   9.2062   9.2593   9.4872   9.7181   9.9110  10.3168
    11.0569  11.2922  13.9691  14.2420  14.6355  14.7492  14.9062  15.0492
    18.0269

     occupation numbers 
     1.0000   1.0000   1.0000   1.0000   1.0000   1.0000   1.0000   1.0000
     1.0000   1.0000   1.0000   1.0000   1.0000   1.0000   1.0000   1.0000
     1.0000   1.0000   1.0000   1.0000   1.0000   1.0000   1.0000   1.0000
     1.0000   1.0000   1.0000   1.0000   1.0000   1.0000   1.0000   1.0000
     1.0000   1.0000   1.0000   1.0000   1.0000   1.0000   1.0000   1.0000
     1.0000   1.0000   1.0000   1.0000   1.0000   1.0000   1.0000   1.0000
     1.0000   1.0000   1.0000   1.0000   1.0000   1.0000   1.0000   1.0000
     1.0000   1.0000   0.0000   0.0000   0.0000   0.0000   0.0000   0.0000
     0.0000

          k = 0.0834 0.3392-0.2305 ( 18933 PWs)   bands (ev):

   -76.7615 -68.2534 -63.6907 -63.6537 -44.1731 -42.5435 -42.4420 -37.3197
   -37.3115 -37.2899 -28.2367 -28.1830 -28.1406 -28.0865 -28.0204 -27.9846
    -7.8840  -7.2511  -7.0009  -6.6847  -6.5668  -6.4736  -6.2712  -5.9244
     3.8279   3.9812   4.0328   4.1812   4.3306   4.7312   4.7880   4.9912
     5.2385   5.4391   5.6729   5.7886   6.1288   6.2732   6.5284   6.7879
     7.0754   7.2715   7.4937   7.6195   8.0100   8.1910   8.4328   8.5170
     8.7565   8.8789   9.1770   9.2819   9.4138   9.6977   9.8905  10.2518
    10.8972  11.1495  13.8186  14.3457  14.6475  14.8216  14.9107  15.3258
    18.1155

     occupation numbers 
     1.0000   1.0000   1.0000   1.0000   1.0000   1.0000   1.0000   1.0000
     1.0000   1.0000   1.0000   1.0000   1.0000   1.0000   1.0000   1.0000
     1.0000   1.0000   1.0000   1.0000   1.0000   1.0000   1.0000   1.0000
     1.0000   1.0000   1.0000   1.0000   1.0000   1.0000   1.0000   1.0000
     1.0000   1.0000   1.0000   1.0000   1.0000   1.0000   1.0000   1.0000
     1.0000   1.0000   1.0000   1.0000   1.0000   1.0000   1.0000   1.0000
     1.0000   1.0000   1.0000   1.0000   1.0000   1.0000   1.0000   1.0000
     1.0000   1.0000   0.0000   0.0000   0.0000   0.0000   0.0000   0.0000
     0.0000

          k = 0.0833 0.3392-0.0762 ( 18948 PWs)   bands (ev):

   -76.7614 -68.2533 -63.6910 -63.6534 -44.1731 -42.5435 -42.4420 -37.3197
   -37.3115 -37.2899 -28.2390 -28.1645 -28.1509 -28.0682 -28.0409 -27.9873
    -8.0431  -7.2916  -6.8718  -6.7153  -6.6046  -6.4716  -6.1439  -5.8806
     3.8687   3.9554   4.0764   4.1730   4.3155   4.6782   4.7978   4.9294
     5.1386   5.2930   5.5710   5.7690   6.0323   6.4837   6.5790   7.0354
     7.1123   7.2771   7.5850   7.7383   7.9547   8.2296   8.3845   8.4241
     8.6961   8.9037   9.2224   9.3944   9.4621   9.6990   9.8303  10.1303
    10.8009  11.1423  13.7955  14.2600  14.6054  14.9140  15.2183  15.4965
    18.1728

     occupation numbers 
     1.0000   1.0000   1.0000   1.0000   1.0000   1.0000   1.0000   1.0000
     1.0000   1.0000   1.0000   1.0000   1.0000   1.0000   1.0000   1.0000
     1.0000   1.0000   1.0000   1.0000   1.0000   1.0000   1.0000   1.0000
     1.0000   1.0000   1.0000   1.0000   1.0000   1.0000   1.0000   1.0000
     1.0000   1.0000   1.0000   1.0000   1.0000   1.0000   1.0000   1.0000
     1.0000   1.0000   1.0000   1.0000   1.0000   1.0000   1.0000   1.0000
     1.0000   1.0000   1.0000   1.0000   1.0000   1.0000   1.0000   1.0000
     1.0000   1.0000   0.0000   0.0000   0.0000   0.0000   0.0000   0.0000
     0.0000

          k = 0.2500 0.0678 0.0798 ( 18979 PWs)   bands (ev):

   -76.7614 -68.2534 -63.6910 -63.6534 -44.1731 -42.5435 -42.4420 -37.3197
   -37.3115 -37.2899 -28.2404 -28.1659 -28.1536 -28.0676 -28.0385 -27.9867
    -8.1385  -7.0661  -6.9488  -6.7811  -6.4855  -6.3378  -6.1608  -6.0779
     3.5745   3.8809   4.0062   4.1450   4.2434   4.4089   4.7195   5.0290
     5.3101   5.4083   5.6895   6.0023   6.0956   6.2559   6.7284   7.1397
     7.2286   7.4362   7.7035   7.7957   7.8938   8.2232   8.4001   8.5680
     8.7479   8.7849   9.0503   9.4017   9.4970   9.7592   9.8496  10.2302
    10.6719  11.1503  14.0826  14.2199  14.3720  14.7322  15.4544  15.5074
    17.4897

     occupation numbers 
     1.0000   1.0000   1.0000   1.0000   1.0000   1.0000   1.0000   1.0000
     1.0000   1.0000   1.0000   1.0000   1.0000   1.0000   1.0000   1.0000
     1.0000   1.0000   1.0000   1.0000   1.0000   1.0000   1.0000   1.0000
     1.0000   1.0000   1.0000   1.0000   1.0000   1.0000   1.0000   1.0000
     1.0000   1.0000   1.0000   1.0000   1.0000   1.0000   1.0000   1.0000
     1.0000   1.0000   1.0000   1.0000   1.0000   1.0000   1.0000   1.0000
     1.0000   1.0000   1.0000   1.0000   1.0000   1.0000   1.0000   1.0000
     1.0000   1.0000   0.0000   0.0000   0.0000   0.0000   0.0000   0.0000
     0.0000

          k = 0.2500 0.0678 0.2340 ( 18963 PWs)   bands (ev):

   -76.7615 -68.2534 -63.6907 -63.6537 -44.1732 -42.5435 -42.4420 -37.3197
   -37.3115 -37.2899 -28.2367 -28.1825 -28.1427 -28.0861 -28.0204 -27.9854
    -7.9477  -7.0726  -7.0234  -6.8917  -6.4499  -6.3753  -6.1731  -6.0832
     3.6326   3.8684   4.0182   4.1551   4.3303   4.4974   4.8752   4.9393
     5.0413   5.4381   5.6083   5.8061   6.1354   6.3338   6.8226   7.1403
     7.3013   7.3928   7.5333   7.6223   7.7615   8.3108   8.4524   8.5796
     8.7661   8.9466   9.0650   9.3254   9.5404   9.7084   9.8512  10.2718
    10.7853  11.3305  14.0568  14.2901  14.4381  14.7583  15.2932  15.3783
    17.6708

     occupation numbers 
     1.0000   1.0000   1.0000   1.0000   1.0000   1.0000   1.0000   1.0000
     1.0000   1.0000   1.0000   1.0000   1.0000   1.0000   1.0000   1.0000
     1.0000   1.0000   1.0000   1.0000   1.0000   1.0000   1.0000   1.0000
     1.0000   1.0000   1.0000   1.0000   1.0000   1.0000   1.0000   1.0000
     1.0000   1.0000   1.0000   1.0000   1.0000   1.0000   1.0000   1.0000
     1.0000   1.0000   1.0000   1.0000   1.0000   1.0000   1.0000   1.0000
     1.0000   1.0000   1.0000   1.0000   1.0000   1.0000   1.0000   1.0000
     1.0000   1.0000   0.0000   0.0000   0.0000   0.0000   0.0000   0.0000
     0.0000

          k = 0.2499 0.0678 0.3883 ( 18962 PWs)   bands (ev):

   -76.7615 -68.2534 -63.6906 -63.6542 -44.1732 -42.5435 -42.4420 -37.3197
   -37.3115 -37.2899 -28.2295 -28.1986 -28.1319 -28.1021 -28.0068 -27.9857
    -7.6208  -7.2549  -7.0680  -6.9574  -6.5231  -6.4213  -6.1258  -6.0727
     3.7541   3.8411   3.9703   4.0893   4.2605   4.6544   4.7759   4.8950
     5.2112   5.6136   5.6899   5.8622   6.1674   6.5690   6.6055   6.7972
     7.0051   7.2324   7.5597   7.6635   8.0173   8.0624   8.3342   8.5127
     8.7757   9.0510   9.2128   9.3699   9.5350   9.7643   9.9224  10.2530
    10.8978  11.2900  14.0895  14.3774  14.6358  14.7981  14.9570  15.0323
    17.7216

     occupation numbers 
     1.0000   1.0000   1.0000   1.0000   1.0000   1.0000   1.0000   1.0000
     1.0000   1.0000   1.0000   1.0000   1.0000   1.0000   1.0000   1.0000
     1.0000   1.0000   1.0000   1.0000   1.0000   1.0000   1.0000   1.0000
     1.0000   1.0000   1.0000   1.0000   1.0000   1.0000   1.0000   1.0000
     1.0000   1.0000   1.0000   1.0000   1.0000   1.0000   1.0000   1.0000
     1.0000   1.0000   1.0000   1.0000   1.0000   1.0000   1.0000   1.0000
     1.0000   1.0000   1.0000   1.0000   1.0000   1.0000   1.0000   1.0000
     1.0000   1.0000   0.0000   0.0000   0.0000   0.0000   0.0000   0.0000
     0.0000

          k = 0.2501 0.0678-0.3830 ( 18962 PWs)   bands (ev):

   -76.7615 -68.2534 -63.6906 -63.6543 -44.1732 -42.5435 -42.4420 -37.3198
   -37.3115 -37.2899 -28.2293 -28.1985 -28.1320 -28.1019 -28.0068 -27.9858
    -7.6408  -7.2395  -7.0386  -6.9323  -6.5510  -6.4688  -6.1102  -6.0715
     3.7046   3.9078   3.9330   4.1429   4.2920   4.5366   4.6359   5.0710
     5.2843   5.6096   5.7327   6.1125   6.1793   6.2847   6.7269   6.8270
     6.8839   7.2054   7.5753   7.8101   7.8559   8.1543   8.3721   8.4942
     8.6721   8.9548   9.2194   9.4211   9.5593   9.7505   9.9192  10.2135
    10.9488  11.1031  14.1415  14.3969  14.5451  14.6824  14.8618  15.0934
    17.9616

     occupation numbers 
     1.0000   1.0000   1.0000   1.0000   1.0000   1.0000   1.0000   1.0000
     1.0000   1.0000   1.0000   1.0000   1.0000   1.0000   1.0000   1.0000
     1.0000   1.0000   1.0000   1.0000   1.0000   1.0000   1.0000   1.0000
     1.0000   1.0000   1.0000   1.0000   1.0000   1.0000   1.0000   1.0000
     1.0000   1.0000   1.0000   1.0000   1.0000   1.0000   1.0000   1.0000
     1.0000   1.0000   1.0000   1.0000   1.0000   1.0000   1.0000   1.0000
     1.0000   1.0000   1.0000   1.0000   1.0000   1.0000   1.0000   1.0000
     1.0000   1.0000   0.0000   0.0000   0.0000   0.0000   0.0000   0.0000
     0.0000

          k = 0.2500 0.0678-0.2287 ( 18967 PWs)   bands (ev):

   -76.7615 -68.2534 -63.6908 -63.6539 -44.1732 -42.5435 -42.4420 -37.3198
   -37.3115 -37.2899 -28.2361 -28.1825 -28.1425 -28.0862 -28.0203 -27.9856
    -7.9680  -7.0748  -6.8966  -6.7891  -6.6320  -6.5236  -6.1254  -6.0242
     3.6198   3.8658   4.0180   4.1728   4.3246   4.4280   4.6024   5.1235
     5.2054   5.6573   5.7956   5.9106   6.1212   6.4443   6.7219   6.9535
     7.1051   7.2474   7.5607   7.7699   7.9677   8.1524   8.2976   8.6059
     8.7596   8.9453   9.1785   9.3769   9.4735   9.7442   9.9298  10.0338
    10.7743  11.0474  13.9914  14.3651  14.3887  14.8226  14.9273  15.3616
    17.9237

     occupation numbers 
     1.0000   1.0000   1.0000   1.0000   1.0000   1.0000   1.0000   1.0000
     1.0000   1.0000   1.0000   1.0000   1.0000   1.0000   1.0000   1.0000
     1.0000   1.0000   1.0000   1.0000   1.0000   1.0000   1.0000   1.0000
     1.0000   1.0000   1.0000   1.0000   1.0000   1.0000   1.0000   1.0000
     1.0000   1.0000   1.0000   1.0000   1.0000   1.0000   1.0000   1.0000
     1.0000   1.0000   1.0000   1.0000   1.0000   1.0000   1.0000   1.0000
     1.0000   1.0000   1.0000   1.0000   1.0000   1.0000   1.0000   1.0000
     1.0000   1.0000   0.0000   0.0000   0.0000   0.0000   0.0000   0.0000
     0.0000

          k = 0.2500 0.0678-0.0745 ( 18974 PWs)   bands (ev):

   -76.7614 -68.2534 -63.6910 -63.6535 -44.1731 -42.5435 -42.4420 -37.3197
   -37.3115 -37.2899 -28.2401 -28.1663 -28.1531 -28.0679 -28.0383 -27.9868
    -8.1469  -7.0815  -6.8155  -6.7023  -6.6393  -6.4865  -6.1060  -6.0267
     3.5803   3.8405   3.9953   4.1939   4.2160   4.3804   4.6504   5.0987
     5.3541   5.5884   5.6565   5.9648   6.2506   6.4810   6.6655   6.9084
     7.1407   7.3648   7.6354   7.7177   8.0441   8.2418   8.4035   8.5597
     8.7027   8.8318   9.0640   9.4310   9.5536   9.8059   9.8540  10.0714
    10.6327  11.0233  14.0734  14.1344  14.4464  14.7342  15.2931  15.4873
    17.5587

     occupation numbers 
     1.0000   1.0000   1.0000   1.0000   1.0000   1.0000   1.0000   1.0000
     1.0000   1.0000   1.0000   1.0000   1.0000   1.0000   1.0000   1.0000
     1.0000   1.0000   1.0000   1.0000   1.0000   1.0000   1.0000   1.0000
     1.0000   1.0000   1.0000   1.0000   1.0000   1.0000   1.0000   1.0000
     1.0000   1.0000   1.0000   1.0000   1.0000   1.0000   1.0000   1.0000
     1.0000   1.0000   1.0000   1.0000   1.0000   1.0000   1.0000   1.0000
     1.0000   1.0000   1.0000   1.0000   1.0000   1.0000   1.0000   1.0000
     1.0000   1.0000   0.0000   0.0000   0.0000   0.0000   0.0000   0.0000
     0.0000

          k = 0.2500 0.2035 0.0798 ( 18969 PWs)   bands (ev):

   -76.7614 -68.2534 -63.6910 -63.6534 -44.1731 -42.5435 -42.4420 -37.3197
   -37.3115 -37.2899 -28.2399 -28.1651 -28.1528 -28.0681 -28.0398 -27.9871
    -8.0589  -7.1299  -7.0317  -6.7380  -6.5181  -6.3367  -6.1628  -6.0332
     3.5859   3.9109   4.0084   4.1797   4.3311   4.4396   4.8566   4.9949
     5.1141   5.3959   5.7251   5.9692   6.1778   6.3772   6.7268   6.9615
     7.1371   7.3850   7.8123   7.8326   7.9882   8.1614   8.2634   8.5016
     8.6266   8.7710   9.0447   9.3453   9.5412   9.7164   9.9056  10.1283
    10.8017  11.1380  13.9620  14.1528  14.5082  14.9379  15.4094  15.4545
    17.7316

     occupation numbers 
     1.0000   1.0000   1.0000   1.0000   1.0000   1.0000   1.0000   1.0000
     1.0000   1.0000   1.0000   1.0000   1.0000   1.0000   1.0000   1.0000
     1.0000   1.0000   1.0000   1.0000   1.0000   1.0000   1.0000   1.0000
     1.0000   1.0000   1.0000   1.0000   1.0000   1.0000   1.0000   1.0000
     1.0000   1.0000   1.0000   1.0000   1.0000   1.0000   1.0000   1.0000
     1.0000   1.0000   1.0000   1.0000   1.0000   1.0000   1.0000   1.0000
     1.0000   1.0000   1.0000   1.0000   1.0000   1.0000   1.0000   1.0000
     1.0000   1.0000   0.0000   0.0000   0.0000   0.0000   0.0000   0.0000
     0.0000

          k = 0.2500 0.2035 0.2340 ( 18963 PWs)   bands (ev):

   -76.7615 -68.2534 -63.6908 -63.6538 -44.1731 -42.5435 -42.4420 -37.3197
   -37.3115 -37.2899 -28.2369 -28.1827 -28.1421 -28.0865 -28.0205 -27.9850
    -7.8859  -7.1877  -7.0363  -6.8095  -6.4605  -6.3677  -6.2430  -6.0375
     3.6333   3.8309   3.9551   4.2089   4.4266   4.6293   4.7603   4.9945
     5.1486   5.3907   5.6957   5.8530   6.0679   6.3890   6.8248   6.9775
     7.2661   7.3017   7.5876   7.7665   7.8738   8.1850   8.3892   8.5182
     8.6776   8.8880   8.9769   9.1862   9.4573   9.7006   9.9911  10.2216
    10.8655  11.3302  13.8907  14.3352  14.5645  14.9182  15.2611  15.3266
    17.7741

     occupation numbers 
     1.0000   1.0000   1.0000   1.0000   1.0000   1.0000   1.0000   1.0000
     1.0000   1.0000   1.0000   1.0000   1.0000   1.0000   1.0000   1.0000
     1.0000   1.0000   1.0000   1.0000   1.0000   1.0000   1.0000   1.0000
     1.0000   1.0000   1.0000   1.0000   1.0000   1.0000   1.0000   1.0000
     1.0000   1.0000   1.0000   1.0000   1.0000   1.0000   1.0000   1.0000
     1.0000   1.0000   1.0000   1.0000   1.0000   1.0000   1.0000   1.0000
     1.0000   1.0000   1.0000   1.0000   1.0000   1.0000   1.0000   1.0000
     1.0000   1.0000   0.0000   0.0000   0.0000   0.0000   0.0000   0.0000
     0.0000

          k = 0.2499 0.2035 0.3883 ( 18974 PWs)   bands (ev):

   -76.7615 -68.2535 -63.6906 -63.6542 -44.1732 -42.5435 -42.4420 -37.3197
   -37.3115 -37.2899 -28.2304 -28.1996 -28.1318 -28.1019 -28.0059 -27.9848
    -7.5966  -7.3067  -7.0670  -6.8778  -6.5592  -6.4127  -6.1449  -6.0883
     3.7249   3.7949   3.9920   4.1454   4.3568   4.6036   4.7492   4.9761
     5.3619   5.5307   5.6539   5.9223   6.2366   6.4799   6.7004   6.8410
     6.8766   7.3179   7.5382   7.7160   7.9759   8.1084   8.2989   8.4387
     8.7253   8.9166   9.0627   9.2387   9.5011   9.6848  10.0479  10.2328
    10.9187  11.3119  14.0163  14.3590  14.6427  14.8553  15.0356  15.0607
    17.7745

     occupation numbers 
     1.0000   1.0000   1.0000   1.0000   1.0000   1.0000   1.0000   1.0000
     1.0000   1.0000   1.0000   1.0000   1.0000   1.0000   1.0000   1.0000
     1.0000   1.0000   1.0000   1.0000   1.0000   1.0000   1.0000   1.0000
     1.0000   1.0000   1.0000   1.0000   1.0000   1.0000   1.0000   1.0000
     1.0000   1.0000   1.0000   1.0000   1.0000   1.0000   1.0000   1.0000
     1.0000   1.0000   1.0000   1.0000   1.0000   1.0000   1.0000   1.0000
     1.0000   1.0000   1.0000   1.0000   1.0000   1.0000   1.0000   1.0000
     1.0000   1.0000   0.0000   0.0000   0.0000   0.0000   0.0000   0.0000
     0.0000

          k = 0.2501 0.2035-0.3830 ( 18968 PWs)   bands (ev):

   -76.7615 -68.2535 -63.6907 -63.6543 -44.1732 -42.5435 -42.4420 -37.3198
   -37.3115 -37.2899 -28.2302 -28.1996 -28.1318 -28.1018 -28.0059 -27.9849
    -7.6091  -7.2605  -7.0983  -6.8436  -6.5922  -6.4403  -6.1695  -6.0474
     3.7218   3.8610   4.0472   4.1978   4.2603   4.5248   4.7624   4.8886
     5.3947   5.5418   5.7577   6.0910   6.1845   6.3695   6.6991   6.7799
     6.9555   7.3174   7.4898   7.7532   7.9185   8.1957   8.3019   8.5123
     8.6943   8.7739   9.0743   9.3098   9.5178   9.7049  10.0723  10.2003
    10.8945  11.1150  14.0151  14.3846  14.5920  14.6922  14.9970  15.0832
    18.0074

     occupation numbers 
     1.0000   1.0000   1.0000   1.0000   1.0000   1.0000   1.0000   1.0000
     1.0000   1.0000   1.0000   1.0000   1.0000   1.0000   1.0000   1.0000
     1.0000   1.0000   1.0000   1.0000   1.0000   1.0000   1.0000   1.0000
     1.0000   1.0000   1.0000   1.0000   1.0000   1.0000   1.0000   1.0000
     1.0000   1.0000   1.0000   1.0000   1.0000   1.0000   1.0000   1.0000
     1.0000   1.0000   1.0000   1.0000   1.0000   1.0000   1.0000   1.0000
     1.0000   1.0000   1.0000   1.0000   1.0000   1.0000   1.0000   1.0000
     1.0000   1.0000   0.0000   0.0000   0.0000   0.0000   0.0000   0.0000
     0.0000

          k = 0.2500 0.2035-0.2287 ( 18964 PWs)   bands (ev):

   -76.7615 -68.2534 -63.6909 -63.6539 -44.1731 -42.5435 -42.4420 -37.3198
   -37.3115 -37.2899 -28.2364 -28.1828 -28.1417 -28.0867 -28.0204 -27.9852
    -7.9002  -7.1398  -6.9719  -6.7185  -6.6607  -6.5198  -6.1477  -5.9842
     3.6681   3.9690   4.0138   4.1095   4.3310   4.4939   4.7668   4.9668
     5.1925   5.5659   5.7704   5.9748   6.1974   6.3768   6.5990   6.9462
     7.1000   7.3635   7.5454   7.7951   8.0459   8.1302   8.3124   8.5904
     8.6249   8.8864   9.1120   9.2265   9.4918   9.8102   9.9774  10.0887
    10.6685  11.0445  13.9065  14.3917  14.4649  14.8347  14.9580  15.3267
    18.2037

     occupation numbers 
     1.0000   1.0000   1.0000   1.0000   1.0000   1.0000   1.0000   1.0000
     1.0000   1.0000   1.0000   1.0000   1.0000   1.0000   1.0000   1.0000
     1.0000   1.0000   1.0000   1.0000   1.0000   1.0000   1.0000   1.0000
     1.0000   1.0000   1.0000   1.0000   1.0000   1.0000   1.0000   1.0000
     1.0000   1.0000   1.0000   1.0000   1.0000   1.0000   1.0000   1.0000
     1.0000   1.0000   1.0000   1.0000   1.0000   1.0000   1.0000   1.0000
     1.0000   1.0000   1.0000   1.0000   1.0000   1.0000   1.0000   1.0000
     1.0000   1.0000   0.0000   0.0000   0.0000   0.0000   0.0000   0.0000
     0.0000

          k = 0.2500 0.2035-0.0745 ( 18968 PWs)   bands (ev):

   -76.7614 -68.2534 -63.6911 -63.6535 -44.1731 -42.5435 -42.4420 -37.3198
   -37.3115 -37.2899 -28.2396 -28.1656 -28.1522 -28.0685 -28.0395 -27.9872
    -8.0654  -7.1507  -6.8733  -6.7348  -6.6676  -6.4321  -6.1038  -5.9888
     3.6088   3.9216   4.0448   4.1379   4.3391   4.3901   4.8095   4.9958
     5.0966   5.5852   5.7699   5.9269   6.2560   6.4676   6.7303   6.7696
     7.1036   7.3509   7.6914   7.8142   8.0457   8.1841   8.3296   8.4758
     8.7090   8.8300   8.9915   9.4383   9.5867   9.7288   9.8991  10.0499
    10.6344  11.0265  14.0324  14.2014  14.3445  14.9476  15.2314  15.4539
    17.8909

     occupation numbers 
     1.0000   1.0000   1.0000   1.0000   1.0000   1.0000   1.0000   1.0000
     1.0000   1.0000   1.0000   1.0000   1.0000   1.0000   1.0000   1.0000
     1.0000   1.0000   1.0000   1.0000   1.0000   1.0000   1.0000   1.0000
     1.0000   1.0000   1.0000   1.0000   1.0000   1.0000   1.0000   1.0000
     1.0000   1.0000   1.0000   1.0000   1.0000   1.0000   1.0000   1.0000
     1.0000   1.0000   1.0000   1.0000   1.0000   1.0000   1.0000   1.0000
     1.0000   1.0000   1.0000   1.0000   1.0000   1.0000   1.0000   1.0000
     1.0000   1.0000   0.0000   0.0000   0.0000   0.0000   0.0000   0.0000
     0.0000

          k = 0.2500 0.3392 0.0798 ( 18957 PWs)   bands (ev):

   -76.7614 -68.2533 -63.6911 -63.6535 -44.1731 -42.5435 -42.4420 -37.3197
   -37.3115 -37.2899 -28.2394 -28.1643 -28.1519 -28.0687 -28.0412 -27.9875
    -7.9550  -7.2806  -7.0201  -6.7284  -6.5428  -6.3388  -6.1544  -6.0021
     3.6477   3.8642   4.0726   4.1693   4.3636   4.5550   4.7290   5.0762
     5.1592   5.4604   5.7568   5.8485   6.2290   6.3432   6.5571   7.0618
     7.1611   7.5015   7.6954   7.8050   8.0200   8.0413   8.2101   8.3030
     8.5526   8.9124   9.0674   9.2661   9.5446   9.6930   9.9267  10.0499
    10.9469  11.0930  13.8030  14.2477  14.6765  15.0291  15.2691  15.4587
    17.9427

     occupation numbers 
     1.0000   1.0000   1.0000   1.0000   1.0000   1.0000   1.0000   1.0000
     1.0000   1.0000   1.0000   1.0000   1.0000   1.0000   1.0000   1.0000
     1.0000   1.0000   1.0000   1.0000   1.0000   1.0000   1.0000   1.0000
     1.0000   1.0000   1.0000   1.0000   1.0000   1.0000   1.0000   1.0000
     1.0000   1.0000   1.0000   1.0000   1.0000   1.0000   1.0000   1.0000
     1.0000   1.0000   1.0000   1.0000   1.0000   1.0000   1.0000   1.0000
     1.0000   1.0000   1.0000   1.0000   1.0000   1.0000   1.0000   1.0000
     1.0000   1.0000   0.0000   0.0000   0.0000   0.0000   0.0000   0.0000
     0.0000

          k = 0.2500 0.3392 0.2340 ( 18986 PWs)   bands (ev):

   -76.7615 -68.2534 -63.6908 -63.6538 -44.1731 -42.5435 -42.4420 -37.3197
   -37.3115 -37.2899 -28.2370 -28.1829 -28.1415 -28.0870 -28.0207 -27.9847
    -7.8041  -7.3157  -7.0119  -6.7751  -6.4553  -6.3699  -6.2949  -6.0124
     3.6518   3.7961   3.9945   4.1898   4.3921   4.6092   4.7767   5.0981
     5.3783   5.4300   5.7202   5.8849   6.0574   6.4034   6.7352   6.9408
     7.0535   7.3482   7.5850   7.7132   8.0061   8.1206   8.2504   8.4329
     8.6633   8.9875   9.0096   9.0833   9.3924   9.6923   9.9628  10.0542
    11.0041  11.3335  13.7925  14.3823  14.7676  14.9370  15.1922  15.3189
    17.7118

     occupation numbers 
     1.0000   1.0000   1.0000   1.0000   1.0000   1.0000   1.0000   1.0000
     1.0000   1.0000   1.0000   1.0000   1.0000   1.0000   1.0000   1.0000
     1.0000   1.0000   1.0000   1.0000   1.0000   1.0000   1.0000   1.0000
     1.0000   1.0000   1.0000   1.0000   1.0000   1.0000   1.0000   1.0000
     1.0000   1.0000   1.0000   1.0000   1.0000   1.0000   1.0000   1.0000
     1.0000   1.0000   1.0000   1.0000   1.0000   1.0000   1.0000   1.0000
     1.0000   1.0000   1.0000   1.0000   1.0000   1.0000   1.0000   1.0000
     1.0000   1.0000   0.0000   0.0000   0.0000   0.0000   0.0000   0.0000
     0.0000

          k = 0.2499 0.3392 0.3883 ( 18976 PWs)   bands (ev):

   -76.7616 -68.2535 -63.6906 -63.6543 -44.1731 -42.5435 -42.4420 -37.3197
   -37.3115 -37.2899 -28.2313 -28.2007 -28.1317 -28.1016 -28.0051 -27.9839
    -7.5564  -7.3852  -6.9898  -6.8787  -6.5400  -6.4506  -6.1597  -6.1020
     3.7142   3.8208   3.9791   4.1619   4.3949   4.4928   4.7405   5.0538
     5.5637   5.6394   5.7605   5.9449   6.1574   6.3906   6.6607   6.8157
     6.9373   7.1444   7.4791   7.8375   8.0051   8.1323   8.2384   8.4874
     8.5883   8.8819   8.9873   9.2408   9.4042   9.6903   9.9407  10.0862
    11.0345  11.3443  13.9851  14.3855  14.5801  14.8514  15.0731  15.1857
    17.6752

     occupation numbers 
     1.0000   1.0000   1.0000   1.0000   1.0000   1.0000   1.0000   1.0000
     1.0000   1.0000   1.0000   1.0000   1.0000   1.0000   1.0000   1.0000
     1.0000   1.0000   1.0000   1.0000   1.0000   1.0000   1.0000   1.0000
     1.0000   1.0000   1.0000   1.0000   1.0000   1.0000   1.0000   1.0000
     1.0000   1.0000   1.0000   1.0000   1.0000   1.0000   1.0000   1.0000
     1.0000   1.0000   1.0000   1.0000   1.0000   1.0000   1.0000   1.0000
     1.0000   1.0000   1.0000   1.0000   1.0000   1.0000   1.0000   1.0000
     1.0000   1.0000   0.0000   0.0000   0.0000   0.0000   0.0000   0.0000
     0.0000

          k = 0.2501 0.3392-0.3830 ( 18947 PWs)   bands (ev):

   -76.7616 -68.2535 -63.6907 -63.6543 -44.1731 -42.5435 -42.4420 -37.3198
   -37.3115 -37.2899 -28.2311 -28.2007 -28.1316 -28.1016 -28.0050 -27.9840
    -7.5809  -7.2729  -7.0983  -6.8747  -6.5441  -6.4220  -6.2458  -6.0304
     3.7307   3.9022   4.0701   4.2198   4.3236   4.5169   4.6677   4.8494
     5.4409   5.7032   5.8282   5.9936   6.2522   6.3732   6.5129   6.7785
     7.0738   7.2830   7.5439   7.7054   7.8726   8.2183   8.3498   8.4777
     8.5976   8.7141   9.0064   9.2868   9.4979   9.7395   9.9826  10.0967
    10.9779  11.0944  13.9825  14.2215  14.7110  14.7370  15.0729  15.0923
    17.8750

     occupation numbers 
     1.0000   1.0000   1.0000   1.0000   1.0000   1.0000   1.0000   1.0000
     1.0000   1.0000   1.0000   1.0000   1.0000   1.0000   1.0000   1.0000
     1.0000   1.0000   1.0000   1.0000   1.0000   1.0000   1.0000   1.0000
     1.0000   1.0000   1.0000   1.0000   1.0000   1.0000   1.0000   1.0000
     1.0000   1.0000   1.0000   1.0000   1.0000   1.0000   1.0000   1.0000
     1.0000   1.0000   1.0000   1.0000   1.0000   1.0000   1.0000   1.0000
     1.0000   1.0000   1.0000   1.0000   1.0000   1.0000   1.0000   1.0000
     1.0000   1.0000   0.0000   0.0000   0.0000   0.0000   0.0000   0.0000
     0.0000

          k = 0.2500 0.3392-0.2287 ( 18954 PWs)   bands (ev):

   -76.7615 -68.2534 -63.6910 -63.6540 -44.1731 -42.5435 -42.4420 -37.3198
   -37.3115 -37.2899 -28.2366 -28.1832 -28.1410 -28.0872 -28.0205 -27.9848
    -7.8164  -7.2183  -7.0108  -6.7598  -6.6344  -6.4907  -6.1648  -5.9568
     3.7429   3.9390   4.0324   4.1840   4.3316   4.5933   4.7992   4.8666
     5.2753   5.5301   5.6378   5.9057   6.2010   6.3737   6.5837   6.9751
     7.2186   7.4264   7.5451   7.8174   7.9478   8.1155   8.2735   8.4207
     8.6340   8.8249   9.0775   9.2215   9.5692   9.8084   9.9596  10.0774
    10.7006  10.9732  13.8688  14.3761  14.5963  14.7346  15.0462  15.2891
    18.2399

     occupation numbers 
     1.0000   1.0000   1.0000   1.0000   1.0000   1.0000   1.0000   1.0000
     1.0000   1.0000   1.0000   1.0000   1.0000   1.0000   1.0000   1.0000
     1.0000   1.0000   1.0000   1.0000   1.0000   1.0000   1.0000   1.0000
     1.0000   1.0000   1.0000   1.0000   1.0000   1.0000   1.0000   1.0000
     1.0000   1.0000   1.0000   1.0000   1.0000   1.0000   1.0000   1.0000
     1.0000   1.0000   1.0000   1.0000   1.0000   1.0000   1.0000   1.0000
     1.0000   1.0000   1.0000   1.0000   1.0000   1.0000   1.0000   1.0000
     1.0000   1.0000   0.0000   0.0000   0.0000   0.0000   0.0000   0.0000
     0.0000

          k = 0.2500 0.3392-0.0745 ( 18957 PWs)   bands (ev):

   -76.7614 -68.2533 -63.6912 -63.6535 -44.1731 -42.5435 -42.4420 -37.3198
   -37.3115 -37.2899 -28.2391 -28.1650 -28.1511 -28.0691 -28.0408 -27.9875
    -7.9601  -7.2708  -6.8796  -6.7687  -6.7007  -6.3936  -6.0913  -5.9635
     3.7022   3.9484   3.9865   4.1483   4.4350   4.5104   4.7878   5.0187
     5.1134   5.5235   5.6847   5.7408   6.2606   6.4179   6.7603   6.8674
     7.1165   7.5536   7.6910   7.7799   8.0076   8.0784   8.1849   8.3529
     8.7340   8.8397   8.9937   9.3753   9.6027   9.6531   9.9284  10.0960
    10.7423  10.9471  13.9449  14.2811  14.4411  14.9576  15.1891  15.4332
    18.2429

     occupation numbers 
     1.0000   1.0000   1.0000   1.0000   1.0000   1.0000   1.0000   1.0000
     1.0000   1.0000   1.0000   1.0000   1.0000   1.0000   1.0000   1.0000
     1.0000   1.0000   1.0000   1.0000   1.0000   1.0000   1.0000   1.0000
     1.0000   1.0000   1.0000   1.0000   1.0000   1.0000   1.0000   1.0000
     1.0000   1.0000   1.0000   1.0000   1.0000   1.0000   1.0000   1.0000
     1.0000   1.0000   1.0000   1.0000   1.0000   1.0000   1.0000   1.0000
     1.0000   1.0000   1.0000   1.0000   1.0000   1.0000   1.0000   1.0000
     1.0000   1.0000   0.0000   0.0000   0.0000   0.0000   0.0000   0.0000
     0.0000

          k = 0.4166 0.0678 0.0816 ( 19004 PWs)   bands (ev):

   -76.7614 -68.2534 -63.6909 -63.6534 -44.1731 -42.5435 -42.4420 -37.3198
   -37.3115 -37.2900 -28.2409 -28.1665 -28.1543 -28.0685 -28.0384 -27.9869
    -7.9545  -7.0708  -7.0188  -6.7977  -6.5079  -6.3122  -6.2456  -6.1475
     3.6789   3.9255   4.0360   4.1806   4.3745   4.5139   4.7026   5.0209
     5.1394   5.4501   5.6387   5.7880   6.1944   6.4650   6.7697   6.8657
     7.2630   7.5282   7.6253   7.7391   7.9039   7.9609   8.2446   8.3727
     8.6783   9.0202   9.2133   9.2869   9.6989   9.8332   9.9962  10.1523
    10.8285  11.1756  14.0802  14.2038  14.3742  14.7097  15.1956  15.5271
    18.0269

     occupation numbers 
     1.0000   1.0000   1.0000   1.0000   1.0000   1.0000   1.0000   1.0000
     1.0000   1.0000   1.0000   1.0000   1.0000   1.0000   1.0000   1.0000
     1.0000   1.0000   1.0000   1.0000   1.0000   1.0000   1.0000   1.0000
     1.0000   1.0000   1.0000   1.0000   1.0000   1.0000   1.0000   1.0000
     1.0000   1.0000   1.0000   1.0000   1.0000   1.0000   1.0000   1.0000
     1.0000   1.0000   1.0000   1.0000   1.0000   1.0000   1.0000   1.0000
     1.0000   1.0000   1.0000   1.0000   1.0000   1.0000   1.0000   1.0000
     1.0000   1.0000   0.0000   0.0000   0.0000   0.0000   0.0000   0.0000
     0.0000

          k = 0.4166 0.0678 0.2358 ( 18994 PWs)   bands (ev):

   -76.7615 -68.2534 -63.6908 -63.6539 -44.1731 -42.5435 -42.4420 -37.3198
   -37.3115 -37.2900 -28.2369 -28.1829 -28.1435 -28.0870 -28.0205 -27.9855
    -7.7860  -7.0995  -6.9690  -6.8414  -6.6308  -6.4655  -6.1669  -6.1116
     3.7128   3.9939   4.0387   4.1546   4.4363   4.5935   4.7444   4.9049
     5.1305   5.4393   5.6223   5.8607   6.0607   6.4898   6.6666   6.8166
     6.9962   7.2807   7.5819   7.6956   8.1158   8.2703   8.4746   8.5901
     8.6768   8.8636   9.0605   9.1404   9.7011   9.8374  10.0363  10.2653
    10.7702  11.2511  13.9974  14.4306  14.5303  14.6810  15.1649  15.3990
    17.7550

     occupation numbers 
     1.0000   1.0000   1.0000   1.0000   1.0000   1.0000   1.0000   1.0000
     1.0000   1.0000   1.0000   1.0000   1.0000   1.0000   1.0000   1.0000
     1.0000   1.0000   1.0000   1.0000   1.0000   1.0000   1.0000   1.0000
     1.0000   1.0000   1.0000   1.0000   1.0000   1.0000   1.0000   1.0000
     1.0000   1.0000   1.0000   1.0000   1.0000   1.0000   1.0000   1.0000
     1.0000   1.0000   1.0000   1.0000   1.0000   1.0000   1.0000   1.0000
     1.0000   1.0000   1.0000   1.0000   1.0000   1.0000   1.0000   1.0000
     1.0000   1.0000   0.0000   0.0000   0.0000   0.0000   0.0000   0.0000
     0.0000

          k = 0.4166 0.0678 0.3901 ( 18964 PWs)   bands (ev):

   -76.7616 -68.2534 -63.6908 -63.6544 -44.1732 -42.5436 -42.4420 -37.3198
   -37.3115 -37.2900 -28.2296 -28.1987 -28.1327 -28.1029 -28.0069 -27.9858
    -7.4959  -7.1652  -7.0424  -6.9029  -6.7081  -6.5423  -6.1317  -6.1015
     3.8118   4.0425   4.1047   4.1769   4.3852   4.4714   4.5135   4.9652
     5.2429   5.5686   5.7035   5.8501   6.1124   6.5606   6.7401   6.8534
     6.9226   7.0757   7.4224   7.5084   7.8918   8.0976   8.4867   8.7074
     8.8876   9.0379   9.0965   9.2234   9.5252   9.7945  10.1386  10.2758
    10.8692  11.1501  14.2034  14.4883  14.6658  14.8267  14.9026  15.1397
    17.7310

     occupation numbers 
     1.0000   1.0000   1.0000   1.0000   1.0000   1.0000   1.0000   1.0000
     1.0000   1.0000   1.0000   1.0000   1.0000   1.0000   1.0000   1.0000
     1.0000   1.0000   1.0000   1.0000   1.0000   1.0000   1.0000   1.0000
     1.0000   1.0000   1.0000   1.0000   1.0000   1.0000   1.0000   1.0000
     1.0000   1.0000   1.0000   1.0000   1.0000   1.0000   1.0000   1.0000
     1.0000   1.0000   1.0000   1.0000   1.0000   1.0000   1.0000   1.0000
     1.0000   1.0000   1.0000   1.0000   1.0000   1.0000   1.0000   1.0000
     1.0000   1.0000   0.0000   0.0000   0.0000   0.0000   0.0000   0.0000
     0.0000

          k = 0.4167 0.0678-0.3812 ( 18982 PWs)   bands (ev):

   -76.7615 -68.2534 -63.6908 -63.6544 -44.1732 -42.5436 -42.4420 -37.3198
   -37.3115 -37.2900 -28.2295 -28.1986 -28.1328 -28.1028 -28.0069 -27.9859
    -7.5065  -7.1700  -6.9977  -6.9136  -6.6720  -6.6056  -6.1287  -6.1006
     3.8638   3.9877   4.0846   4.2267   4.2920   4.4042   4.5980   5.0116
     5.2780   5.5786   5.7637   5.8669   6.2121   6.4230   6.5832   6.8848
     7.0573   7.1610   7.2692   7.6557   7.8505   8.0010   8.4257   8.6787
     8.8677   9.0060   9.2030   9.4064   9.5348   9.6499  10.1190  10.2058
    10.9441  11.0680  14.2580  14.4544  14.6337  14.7778  14.8308  15.1694
    17.9674

     occupation numbers 
     1.0000   1.0000   1.0000   1.0000   1.0000   1.0000   1.0000   1.0000
     1.0000   1.0000   1.0000   1.0000   1.0000   1.0000   1.0000   1.0000
     1.0000   1.0000   1.0000   1.0000   1.0000   1.0000   1.0000   1.0000
     1.0000   1.0000   1.0000   1.0000   1.0000   1.0000   1.0000   1.0000
     1.0000   1.0000   1.0000   1.0000   1.0000   1.0000   1.0000   1.0000
     1.0000   1.0000   1.0000   1.0000   1.0000   1.0000   1.0000   1.0000
     1.0000   1.0000   1.0000   1.0000   1.0000   1.0000   1.0000   1.0000
     1.0000   1.0000   0.0000   0.0000   0.0000   0.0000   0.0000   0.0000
     0.0000

          k = 0.4167 0.0678-0.2269 ( 18981 PWs)   bands (ev):

   -76.7615 -68.2534 -63.6909 -63.6539 -44.1731 -42.5436 -42.4420 -37.3198
   -37.3115 -37.2900 -28.2366 -28.1829 -28.1434 -28.0870 -28.0204 -27.9856
    -7.8001  -7.0986  -6.8444  -6.7843  -6.7534  -6.5631  -6.1450  -6.0905
     3.7804   3.8804   4.1482   4.1980   4.2893   4.3927   4.7481   5.0455
     5.2195   5.5212   5.6962   6.0513   6.2091   6.3758   6.5511   6.8302
     7.0078   7.1676   7.3620   7.8709   7.9577   8.2177   8.3428   8.6710
     8.8376   8.9083   9.0292   9.4305   9.6200   9.7562   9.9980  10.0656
    10.8686  11.1084  13.9918  14.4309  14.5482  14.7160  14.9062  15.4132
    18.1428

     occupation numbers 
     1.0000   1.0000   1.0000   1.0000   1.0000   1.0000   1.0000   1.0000
     1.0000   1.0000   1.0000   1.0000   1.0000   1.0000   1.0000   1.0000
     1.0000   1.0000   1.0000   1.0000   1.0000   1.0000   1.0000   1.0000
     1.0000   1.0000   1.0000   1.0000   1.0000   1.0000   1.0000   1.0000
     1.0000   1.0000   1.0000   1.0000   1.0000   1.0000   1.0000   1.0000
     1.0000   1.0000   1.0000   1.0000   1.0000   1.0000   1.0000   1.0000
     1.0000   1.0000   1.0000   1.0000   1.0000   1.0000   1.0000   1.0000
     1.0000   1.0000   0.0000   0.0000   0.0000   0.0000   0.0000   0.0000
     0.0000

          k = 0.4167 0.0678-0.0727 ( 19010 PWs)   bands (ev):

   -76.7614 -68.2534 -63.6910 -63.6534 -44.1731 -42.5435 -42.4420 -37.3198
   -37.3115 -37.2900 -28.2408 -28.1667 -28.1541 -28.0687 -28.0383 -27.9870
    -7.9607  -7.0860  -6.9612  -6.7562  -6.5893  -6.3912  -6.2069  -6.1076
     3.7132   3.8691   4.1009   4.2104   4.2527   4.4306   4.7421   5.0838
     5.1588   5.4836   5.6102   5.9178   6.3214   6.5340   6.6570   6.9082
     7.1926   7.3457   7.5363   7.6815   7.8549   8.0266   8.3258   8.4393
     8.6480   9.0089   9.2577   9.5028   9.6780   9.7327   9.9469  10.0740
    10.8846  11.0711  14.0339  14.2243  14.4435  14.6913  15.0723  15.5281
    18.2366

     occupation numbers 
     1.0000   1.0000   1.0000   1.0000   1.0000   1.0000   1.0000   1.0000
     1.0000   1.0000   1.0000   1.0000   1.0000   1.0000   1.0000   1.0000
     1.0000   1.0000   1.0000   1.0000   1.0000   1.0000   1.0000   1.0000
     1.0000   1.0000   1.0000   1.0000   1.0000   1.0000   1.0000   1.0000
     1.0000   1.0000   1.0000   1.0000   1.0000   1.0000   1.0000   1.0000
     1.0000   1.0000   1.0000   1.0000   1.0000   1.0000   1.0000   1.0000
     1.0000   1.0000   1.0000   1.0000   1.0000   1.0000   1.0000   1.0000
     1.0000   1.0000   0.0000   0.0000   0.0000   0.0000   0.0000   0.0000
     0.0000

          k = 0.4166 0.2035 0.0816 ( 18961 PWs)   bands (ev):

   -76.7614 -68.2534 -63.6911 -63.6535 -44.1731 -42.5435 -42.4420 -37.3198
   -37.3115 -37.2900 -28.2402 -28.1656 -28.1533 -28.0690 -28.0398 -27.9873
    -7.9113  -7.1471  -7.0707  -6.7723  -6.5367  -6.3078  -6.2004  -6.0948
     3.5958   3.8484   3.9479   4.1616   4.4232   4.6157   4.7904   4.9017
     5.2545   5.6361   5.6764   5.8785   6.1157   6.6078   6.8086   6.9124
     7.0842   7.3635   7.5860   7.7416   7.8762   7.9981   8.2696   8.4021
     8.7101   8.8668   9.2161   9.4133   9.6235   9.7667   9.9226  10.1360
    10.7014  11.0669  13.9938  14.2435  14.4689  14.8255  15.2072  15.5298
    18.0076

     occupation numbers 
     1.0000   1.0000   1.0000   1.0000   1.0000   1.0000   1.0000   1.0000
     1.0000   1.0000   1.0000   1.0000   1.0000   1.0000   1.0000   1.0000
     1.0000   1.0000   1.0000   1.0000   1.0000   1.0000   1.0000   1.0000
     1.0000   1.0000   1.0000   1.0000   1.0000   1.0000   1.0000   1.0000
     1.0000   1.0000   1.0000   1.0000   1.0000   1.0000   1.0000   1.0000
     1.0000   1.0000   1.0000   1.0000   1.0000   1.0000   1.0000   1.0000
     1.0000   1.0000   1.0000   1.0000   1.0000   1.0000   1.0000   1.0000
     1.0000   1.0000   0.0000   0.0000   0.0000   0.0000   0.0000   0.0000
     0.0000

          k = 0.4166 0.2035 0.2358 ( 18964 PWs)   bands (ev):

   -76.7615 -68.2534 -63.6910 -63.6540 -44.1731 -42.5435 -42.4420 -37.3198
   -37.3115 -37.2900 -28.2369 -28.1830 -28.1426 -28.0873 -28.0206 -27.9852
    -7.7595  -7.2078  -7.0045  -6.8055  -6.5968  -6.4336  -6.1796  -6.0653
     3.6341   3.8762   4.0217   4.1079   4.4280   4.6485   4.7559   4.8670
     5.3072   5.5290   5.6441   5.9172   6.0778   6.5466   6.7735   6.8597
     7.0787   7.3961   7.6358   7.7002   7.8708   8.0511   8.3860   8.5666
     8.7222   8.8715   9.0245   9.2924   9.5294   9.8350   9.9670  10.0992
    10.6934  11.2068  13.8868  14.4594  14.6640  14.7993  15.1176  15.4037
    17.7149

     occupation numbers 
     1.0000   1.0000   1.0000   1.0000   1.0000   1.0000   1.0000   1.0000
     1.0000   1.0000   1.0000   1.0000   1.0000   1.0000   1.0000   1.0000
     1.0000   1.0000   1.0000   1.0000   1.0000   1.0000   1.0000   1.0000
     1.0000   1.0000   1.0000   1.0000   1.0000   1.0000   1.0000   1.0000
     1.0000   1.0000   1.0000   1.0000   1.0000   1.0000   1.0000   1.0000
     1.0000   1.0000   1.0000   1.0000   1.0000   1.0000   1.0000   1.0000
     1.0000   1.0000   1.0000   1.0000   1.0000   1.0000   1.0000   1.0000
     1.0000   1.0000   0.0000   0.0000   0.0000   0.0000   0.0000   0.0000
     0.0000

          k = 0.4166 0.2035 0.3901 ( 18982 PWs)   bands (ev):

   -76.7616 -68.2535 -63.6909 -63.6545 -44.1731 -42.5436 -42.4420 -37.3198
   -37.3115 -37.2900 -28.2304 -28.1997 -28.1325 -28.1025 -28.0060 -27.9849
    -7.5042  -7.2634  -7.0496  -6.9177  -6.6139  -6.4812  -6.1407  -6.0970
     3.7510   3.9134   4.0692   4.1399   4.3437   4.4825   4.6631   4.8254
     5.4205   5.5266   5.6971   5.8878   6.2763   6.6191   6.8002   6.9186
     7.0853   7.1700   7.4407   7.6413   7.8078   8.0416   8.3222   8.6316
     8.8090   8.9891   9.1127   9.2368   9.4472   9.7654   9.9852  10.1548
    10.7713  11.1042  14.0900  14.4734  14.7581  14.8449  14.9702  15.1718
    17.6738

     occupation numbers 
     1.0000   1.0000   1.0000   1.0000   1.0000   1.0000   1.0000   1.0000
     1.0000   1.0000   1.0000   1.0000   1.0000   1.0000   1.0000   1.0000
     1.0000   1.0000   1.0000   1.0000   1.0000   1.0000   1.0000   1.0000
     1.0000   1.0000   1.0000   1.0000   1.0000   1.0000   1.0000   1.0000
     1.0000   1.0000   1.0000   1.0000   1.0000   1.0000   1.0000   1.0000
     1.0000   1.0000   1.0000   1.0000   1.0000   1.0000   1.0000   1.0000
     1.0000   1.0000   1.0000   1.0000   1.0000   1.0000   1.0000   1.0000
     1.0000   1.0000   0.0000   0.0000   0.0000   0.0000   0.0000   0.0000
     0.0000

          k = 0.4167 0.2035-0.3812 ( 18972 PWs)   bands (ev):

   -76.7616 -68.2535 -63.6909 -63.6546 -44.1731 -42.5436 -42.4420 -37.3198
   -37.3115 -37.2900 -28.2303 -28.1996 -28.1324 -28.1025 -28.0060 -27.9850
    -7.5120  -7.2363  -7.0638  -6.9155  -6.5844  -6.5317  -6.1493  -6.0784
     3.8136   3.8887   4.0391   4.2350   4.3430   4.3961   4.6092   4.8439
     5.3452   5.5654   5.7935   5.8977   6.3862   6.5172   6.7897   6.9019
     7.0422   7.2739   7.4506   7.5972   7.8630   7.9514   8.3354   8.5855
     8.8091   8.9393   9.1538   9.3415   9.5061   9.6685  10.0222  10.1159
    10.7974  10.9904  14.1104  14.4753  14.6553  14.8511  14.9170  15.1798
    17.8953

     occupation numbers 
     1.0000   1.0000   1.0000   1.0000   1.0000   1.0000   1.0000   1.0000
     1.0000   1.0000   1.0000   1.0000   1.0000   1.0000   1.0000   1.0000
     1.0000   1.0000   1.0000   1.0000   1.0000   1.0000   1.0000   1.0000
     1.0000   1.0000   1.0000   1.0000   1.0000   1.0000   1.0000   1.0000
     1.0000   1.0000   1.0000   1.0000   1.0000   1.0000   1.0000   1.0000
     1.0000   1.0000   1.0000   1.0000   1.0000   1.0000   1.0000   1.0000
     1.0000   1.0000   1.0000   1.0000   1.0000   1.0000   1.0000   1.0000
     1.0000   1.0000   0.0000   0.0000   0.0000   0.0000   0.0000   0.0000
     0.0000

          k = 0.4167 0.2035-0.2269 ( 18964 PWs)   bands (ev):

   -76.7615 -68.2534 -63.6910 -63.6541 -44.1731 -42.5436 -42.4420 -37.3198
   -37.3115 -37.2900 -28.2367 -28.1831 -28.1425 -28.0874 -28.0206 -27.9852
    -7.7692  -7.1932  -6.9252  -6.7784  -6.7076  -6.5016  -6.1469  -6.0378
     3.7008   3.8350   4.0586   4.2026   4.3662   4.5184   4.6444   4.9066
     5.3423   5.5341   5.7437   5.9915   6.3232   6.5536   6.6354   6.7599
     7.0870   7.3183   7.5204   7.7162   7.8660   8.1395   8.3533   8.5826
     8.7929   8.8494   9.1060   9.3177   9.5205   9.8471   9.9635  10.0142
    10.7207  10.9901  13.9196  14.4888  14.5758  14.8345  14.8936  15.3941
    17.9881

     occupation numbers 
     1.0000   1.0000   1.0000   1.0000   1.0000   1.0000   1.0000   1.0000
     1.0000   1.0000   1.0000   1.0000   1.0000   1.0000   1.0000   1.0000
     1.0000   1.0000   1.0000   1.0000   1.0000   1.0000   1.0000   1.0000
     1.0000   1.0000   1.0000   1.0000   1.0000   1.0000   1.0000   1.0000
     1.0000   1.0000   1.0000   1.0000   1.0000   1.0000   1.0000   1.0000
     1.0000   1.0000   1.0000   1.0000   1.0000   1.0000   1.0000   1.0000
     1.0000   1.0000   1.0000   1.0000   1.0000   1.0000   1.0000   1.0000
     1.0000   1.0000   0.0000   0.0000   0.0000   0.0000   0.0000   0.0000
     0.0000

          k = 0.4167 0.2035-0.0727 ( 18978 PWs)   bands (ev):

   -76.7614 -68.2534 -63.6911 -63.6535 -44.1731 -42.5436 -42.4420 -37.3198
   -37.3115 -37.2900 -28.2401 -28.1659 -28.1530 -28.0692 -28.0396 -27.9873
    -7.9158  -7.1688  -6.9940  -6.7500  -6.6314  -6.3542  -6.1721  -6.0583
     3.6331   3.7901   3.9833   4.2135   4.4056   4.5844   4.6941   4.8987
     5.2773   5.5908   5.8149   5.9780   6.2812   6.4206   6.7814   6.8799
     7.0574   7.3589   7.5701   7.6534   7.8881   8.0382   8.2854   8.4981
     8.6723   8.8555   9.2462   9.4288   9.6691   9.7487   9.8983  10.1251
    10.7161  10.9247  14.0434  14.2785  14.3915  14.8101  15.1151  15.5244
    18.1234

     occupation numbers 
     1.0000   1.0000   1.0000   1.0000   1.0000   1.0000   1.0000   1.0000
     1.0000   1.0000   1.0000   1.0000   1.0000   1.0000   1.0000   1.0000
     1.0000   1.0000   1.0000   1.0000   1.0000   1.0000   1.0000   1.0000
     1.0000   1.0000   1.0000   1.0000   1.0000   1.0000   1.0000   1.0000
     1.0000   1.0000   1.0000   1.0000   1.0000   1.0000   1.0000   1.0000
     1.0000   1.0000   1.0000   1.0000   1.0000   1.0000   1.0000   1.0000
     1.0000   1.0000   1.0000   1.0000   1.0000   1.0000   1.0000   1.0000
     1.0000   1.0000   0.0000   0.0000   0.0000   0.0000   0.0000   0.0000
     0.0000

          k = 0.4166 0.3392 0.0816 ( 18948 PWs)   bands (ev):

   -76.7614 -68.2533 -63.6913 -63.6536 -44.1731 -42.5436 -42.4420 -37.3198
   -37.3115 -37.2900 -28.2395 -28.1649 -28.1521 -28.0696 -28.0411 -27.9877
    -7.8614  -7.2281  -7.0978  -6.7807  -6.5556  -6.3029  -6.1247  -6.0757
     3.5316   3.7575   3.9220   4.1235   4.3235   4.6861   4.8344   5.1473
     5.4012   5.6081   5.7767   6.0405   6.1389   6.4159   6.6383   6.9945
     7.1159   7.2041   7.5134   7.6941   7.9237   8.1248   8.4004   8.5887
     8.7007   8.7424   9.0465   9.2865   9.5706   9.7456   9.8649  10.1456
    10.6310  10.9436  13.9361  14.2862  14.5517  14.9742  15.2248  15.4704
    17.7467

     occupation numbers 
     1.0000   1.0000   1.0000   1.0000   1.0000   1.0000   1.0000   1.0000
     1.0000   1.0000   1.0000   1.0000   1.0000   1.0000   1.0000   1.0000
     1.0000   1.0000   1.0000   1.0000   1.0000   1.0000   1.0000   1.0000
     1.0000   1.0000   1.0000   1.0000   1.0000   1.0000   1.0000   1.0000
     1.0000   1.0000   1.0000   1.0000   1.0000   1.0000   1.0000   1.0000
     1.0000   1.0000   1.0000   1.0000   1.0000   1.0000   1.0000   1.0000
     1.0000   1.0000   1.0000   1.0000   1.0000   1.0000   1.0000   1.0000
     1.0000   1.0000   0.0000   0.0000   0.0000   0.0000   0.0000   0.0000
     0.0000

          k = 0.4166 0.3392 0.2358 ( 18956 PWs)   bands (ev):

   -76.7615 -68.2534 -63.6911 -63.6541 -44.1731 -42.5436 -42.4420 -37.3198
   -37.3115 -37.2900 -28.2369 -28.1832 -28.1418 -28.0877 -28.0208 -27.9848
    -7.7287  -7.2890  -7.0375  -6.8157  -6.5218  -6.4401  -6.1678  -6.0335
     3.5522   3.8128   4.0203   4.0731   4.2592   4.6734   4.7649   5.0882
     5.3818   5.5961   5.7219   5.9670   6.1776   6.4384   6.7704   6.9858
     7.1798   7.4441   7.5733   7.7090   7.8944   8.0020   8.1800   8.5355
     8.7126   8.9439   9.0493   9.2005   9.4960   9.6406   9.8766  10.0860
    10.6397  11.1270  13.8174  14.4676  14.8310  14.9145  15.0567  15.3761
    17.5555

     occupation numbers 
     1.0000   1.0000   1.0000   1.0000   1.0000   1.0000   1.0000   1.0000
     1.0000   1.0000   1.0000   1.0000   1.0000   1.0000   1.0000   1.0000
     1.0000   1.0000   1.0000   1.0000   1.0000   1.0000   1.0000   1.0000
     1.0000   1.0000   1.0000   1.0000   1.0000   1.0000   1.0000   1.0000
     1.0000   1.0000   1.0000   1.0000   1.0000   1.0000   1.0000   1.0000
     1.0000   1.0000   1.0000   1.0000   1.0000   1.0000   1.0000   1.0000
     1.0000   1.0000   1.0000   1.0000   1.0000   1.0000   1.0000   1.0000
     1.0000   1.0000   0.0000   0.0000   0.0000   0.0000   0.0000   0.0000
     0.0000

          k = 0.4166 0.3392 0.3901 ( 18971 PWs)   bands (ev):

   -76.7616 -68.2535 -63.6910 -63.6547 -44.1731 -42.5436 -42.4420 -37.3198
   -37.3114 -37.2900 -28.2311 -28.2006 -28.1322 -28.1022 -28.0051 -27.9841
    -7.5088  -7.3433  -7.0428  -6.9475  -6.5112  -6.4501  -6.1498  -6.0909
     3.6876   3.8654   4.0008   4.0996   4.2387   4.5124   4.7444   4.8207
     5.3797   5.6675   5.8378   5.9687   6.3000   6.5963   6.8056   7.0383
     7.1806   7.3093   7.4127   7.6851   7.8231   8.0613   8.2735   8.5670
     8.7015   8.9328   9.0536   9.2190   9.4348   9.6491   9.7500  10.1719
    10.7167  10.9864  14.0128  14.4790  14.7141  14.9317  15.0681  15.1840
    17.5871

     occupation numbers 
     1.0000   1.0000   1.0000   1.0000   1.0000   1.0000   1.0000   1.0000
     1.0000   1.0000   1.0000   1.0000   1.0000   1.0000   1.0000   1.0000
     1.0000   1.0000   1.0000   1.0000   1.0000   1.0000   1.0000   1.0000
     1.0000   1.0000   1.0000   1.0000   1.0000   1.0000   1.0000   1.0000
     1.0000   1.0000   1.0000   1.0000   1.0000   1.0000   1.0000   1.0000
     1.0000   1.0000   1.0000   1.0000   1.0000   1.0000   1.0000   1.0000
     1.0000   1.0000   1.0000   1.0000   1.0000   1.0000   1.0000   1.0000
     1.0000   1.0000   0.0000   0.0000   0.0000   0.0000   0.0000   0.0000
     0.0000

          k = 0.4167 0.3392-0.3812 ( 18959 PWs)   bands (ev):

   -76.7616 -68.2535 -63.6911 -63.6547 -44.1731 -42.5436 -42.4420 -37.3198
   -37.3114 -37.2900 -28.2311 -28.2006 -28.1321 -28.1022 -28.0051 -27.9841
    -7.5218  -7.2926  -7.0782  -6.9503  -6.5096  -6.4684  -6.1674  -6.0596
     3.7377   3.8360   4.0192   4.2091   4.3248   4.4202   4.6018   4.7499
     5.4562   5.5996   5.7070   6.0878   6.4846   6.6407   6.7477   6.9453
     7.1913   7.3543   7.4979   7.6820   7.7297   7.9735   8.3708   8.4649
     8.7219   8.9292   9.0812   9.2724   9.4055   9.6820   9.8515  10.1745
    10.6600  10.8544  14.0399  14.3514  14.8135  14.8856  14.9628  15.1903
    17.8572

     occupation numbers 
     1.0000   1.0000   1.0000   1.0000   1.0000   1.0000   1.0000   1.0000
     1.0000   1.0000   1.0000   1.0000   1.0000   1.0000   1.0000   1.0000
     1.0000   1.0000   1.0000   1.0000   1.0000   1.0000   1.0000   1.0000
     1.0000   1.0000   1.0000   1.0000   1.0000   1.0000   1.0000   1.0000
     1.0000   1.0000   1.0000   1.0000   1.0000   1.0000   1.0000   1.0000
     1.0000   1.0000   1.0000   1.0000   1.0000   1.0000   1.0000   1.0000
     1.0000   1.0000   1.0000   1.0000   1.0000   1.0000   1.0000   1.0000
     1.0000   1.0000   0.0000   0.0000   0.0000   0.0000   0.0000   0.0000
     0.0000

          k = 0.4167 0.3392-0.2269 ( 18957 PWs)   bands (ev):

   -76.7615 -68.2534 -63.6912 -63.6542 -44.1731 -42.5436 -42.4420 -37.3198
   -37.3115 -37.2900 -28.2367 -28.1833 -28.1416 -28.0878 -28.0207 -27.9849
    -7.7352  -7.2643  -6.9773  -6.8161  -6.6574  -6.4666  -6.1174  -6.0058
     3.6381   3.7630   4.0244   4.1981   4.3421   4.5770   4.6564   4.9454
     5.3782   5.5907   5.7307   5.9051   6.2991   6.7110   6.7696   6.9272
     7.1456   7.3877   7.5242   7.6374   7.8940   8.0672   8.2014   8.5035
     8.7610   8.9620   9.0209   9.2492   9.5098   9.7546   9.9545  10.0361
    10.5679  10.8658  13.8735  14.4741  14.6717  14.7795  15.0685  15.3239
    17.8633

     occupation numbers 
     1.0000   1.0000   1.0000   1.0000   1.0000   1.0000   1.0000   1.0000
     1.0000   1.0000   1.0000   1.0000   1.0000   1.0000   1.0000   1.0000
     1.0000   1.0000   1.0000   1.0000   1.0000   1.0000   1.0000   1.0000
     1.0000   1.0000   1.0000   1.0000   1.0000   1.0000   1.0000   1.0000
     1.0000   1.0000   1.0000   1.0000   1.0000   1.0000   1.0000   1.0000
     1.0000   1.0000   1.0000   1.0000   1.0000   1.0000   1.0000   1.0000
     1.0000   1.0000   1.0000   1.0000   1.0000   1.0000   1.0000   1.0000
     1.0000   1.0000   0.0000   0.0000   0.0000   0.0000   0.0000   0.0000
     0.0000

          k = 0.4167 0.3392-0.0727 ( 18963 PWs)   bands (ev):

   -76.7614 -68.2533 -63.6913 -63.6536 -44.1731 -42.5436 -42.4420 -37.3198
   -37.3115 -37.2900 -28.2394 -28.1652 -28.1517 -28.0698 -28.0409 -27.9877
    -7.8643  -7.2460  -7.0170  -6.7724  -6.6590  -6.3336  -6.0933  -6.0442
     3.5896   3.7048   3.9157   4.1561   4.3784   4.6953   4.7884   5.0524
     5.3711   5.6488   5.8102   6.0232   6.1251   6.4683   6.7971   6.8459
     7.0594   7.2599   7.4951   7.6674   8.0038   8.0976   8.3544   8.5561
     8.7377   8.8681   8.9427   9.3577   9.5907   9.7692   9.8569  10.1581
    10.6088  10.7816  14.0484  14.3103  14.3978  14.8935  15.2179  15.4489
    17.8896

     occupation numbers 
     1.0000   1.0000   1.0000   1.0000   1.0000   1.0000   1.0000   1.0000
     1.0000   1.0000   1.0000   1.0000   1.0000   1.0000   1.0000   1.0000
     1.0000   1.0000   1.0000   1.0000   1.0000   1.0000   1.0000   1.0000
     1.0000   1.0000   1.0000   1.0000   1.0000   1.0000   1.0000   1.0000
     1.0000   1.0000   1.0000   1.0000   1.0000   1.0000   1.0000   1.0000
     1.0000   1.0000   1.0000   1.0000   1.0000   1.0000   1.0000   1.0000
     1.0000   1.0000   1.0000   1.0000   1.0000   1.0000   1.0000   1.0000
     1.0000   1.0000   0.0000   0.0000   0.0000   0.0000   0.0000   0.0000
     0.0000

 ------ SPIN DOWN ----------


          k = 0.0833 0.0678 0.0780 ( 18955 PWs)   bands (ev):

   -72.7720 -63.6872 -63.6316 -63.6062 -39.3114 -38.7230 -38.6701 -32.5052
   -32.4905 -32.4763 -28.1610 -28.0937 -28.0808 -28.0071 -27.9637 -27.9199
    -8.2120  -6.9240  -6.7431  -6.5808  -6.4030  -6.2864  -6.0356  -5.8071
     4.0515   4.2204   4.5135   4.8564   5.0378   5.5740   5.8249   6.1910
     6.3429   6.8422   6.9583   7.2080   7.3528   7.6784   7.9190   8.1391
     8.4266   8.5981   8.9177   9.0357   9.1215   9.3157   9.6525   9.7202
     9.8932  13.7701  13.9267  14.3889  14.6600  14.8399  15.2821  16.3173
    16.4956  16.9382  17.0280  17.1825  17.3618  17.3934  17.7216  18.0654
    18.2052

     occupation numbers 
     1.0000   1.0000   1.0000   1.0000   1.0000   1.0000   1.0000   1.0000
     1.0000   1.0000   1.0000   1.0000   1.0000   1.0000   1.0000   1.0000
     1.0000   1.0000   1.0000   1.0000   1.0000   1.0000   1.0000   1.0000
     1.0000   1.0000   1.0000   1.0000   1.0000   1.0000   1.0000   1.0000
     1.0000   1.0000   1.0000   1.0000   1.0000   1.0000   1.0000   1.0000
     1.0000   1.0000   1.0000   1.0000   1.0000   1.0000   1.0000   1.0000
     1.0000   0.0000   0.0000   0.0000   0.0000   0.0000   0.0000   0.0000
     0.0000   0.0000   0.0000   0.0000   0.0000   0.0000   0.0000   0.0000
     0.0000

          k = 0.0833 0.0678 0.2323 ( 18941 PWs)   bands (ev):

   -72.7719 -63.6871 -63.6312 -63.6067 -39.3114 -38.7230 -38.6702 -32.5053
   -32.4904 -32.4763 -28.1573 -28.1056 -28.0746 -28.0232 -27.9478 -27.9185
    -8.0072  -6.9513  -6.8875  -6.7409  -6.2973  -6.2221  -6.0626  -5.8516
     4.2867   4.3289   4.6711   4.8202   4.9730   5.1265   5.8521   5.9752
     6.3216   6.8822   6.9161   7.5147   7.5729   7.7163   7.7701   8.0913
     8.2907   8.7220   8.8255   8.9223   9.1155   9.3527   9.5817   9.7173
     9.9263  13.9275  14.1092  14.3798  14.6148  14.8079  15.1438  16.3495
    16.5005  16.9695  17.0270  17.2395  17.2751  17.7404  17.8181  17.8974
    18.1180

     occupation numbers 
     1.0000   1.0000   1.0000   1.0000   1.0000   1.0000   1.0000   1.0000
     1.0000   1.0000   1.0000   1.0000   1.0000   1.0000   1.0000   1.0000
     1.0000   1.0000   1.0000   1.0000   1.0000   1.0000   1.0000   1.0000
     1.0000   1.0000   1.0000   1.0000   1.0000   1.0000   1.0000   1.0000
     1.0000   1.0000   1.0000   1.0000   1.0000   1.0000   1.0000   1.0000
     1.0000   1.0000   1.0000   1.0000   1.0000   1.0000   1.0000   1.0000
     1.0000   0.0000   0.0000   0.0000   0.0000   0.0000   0.0000   0.0000
     0.0000   0.0000   0.0000   0.0000   0.0000   0.0000   0.0000   0.0000
     0.0000

          k = 0.0833 0.0678 0.3865 ( 18966 PWs)   bands (ev):

   -72.7719 -63.6871 -63.6307 -63.6072 -39.3114 -38.7230 -38.6702 -32.5053
   -32.4904 -32.4763 -28.1505 -28.1204 -28.0650 -28.0389 -27.9338 -27.9194
    -7.6397  -7.2323  -6.9262  -6.8618  -6.2571  -6.1974  -6.0141  -5.9262
     4.2345   4.3487   4.8012   4.8896   5.1028   5.5190   5.6492   5.7764
     6.3236   6.7047   6.9122   7.1741   7.4290   7.5804   8.0663   8.2235
     8.3553   8.5839   8.7766   8.9844   9.1881   9.3525   9.5314   9.6425
    10.0238  14.1440  14.3196  14.3455  14.5519  14.7277  14.9247  16.4374
    16.5044  16.9599  17.0063  17.0361  17.3110  17.6639  17.8534  17.9138
    18.6547

     occupation numbers 
     1.0000   1.0000   1.0000   1.0000   1.0000   1.0000   1.0000   1.0000
     1.0000   1.0000   1.0000   1.0000   1.0000   1.0000   1.0000   1.0000
     1.0000   1.0000   1.0000   1.0000   1.0000   1.0000   1.0000   1.0000
     1.0000   1.0000   1.0000   1.0000   1.0000   1.0000   1.0000   1.0000
     1.0000   1.0000   1.0000   1.0000   1.0000   1.0000   1.0000   1.0000
     1.0000   1.0000   1.0000   1.0000   1.0000   1.0000   1.0000   1.0000
     1.0000   0.0000   0.0000   0.0000   0.0000   0.0000   0.0000   0.0000
     0.0000   0.0000   0.0000   0.0000   0.0000   0.0000   0.0000   0.0000
     0.0000

          k = 0.0834 0.0678-0.3847 ( 18949 PWs)   bands (ev):

   -72.7719 -63.6871 -63.6307 -63.6071 -39.3114 -38.7230 -38.6702 -32.5053
   -32.4904 -32.4762 -28.1506 -28.1204 -28.0648 -28.0391 -27.9337 -27.9195
    -7.6589  -7.1913  -6.9196  -6.8346  -6.3085  -6.2314  -6.0233  -5.8952
     4.1674   4.3651   4.6390   5.0533   5.2334   5.5898   5.7506   5.8953
     6.1132   6.7509   6.9020   7.0908   7.2787   7.5566   8.0723   8.2323
     8.4440   8.4806   8.7923   8.9887   9.2423   9.3201   9.4861   9.6606
    10.0547  14.1226  14.3323  14.3514  14.5548  14.6927  14.8856  16.4082
    16.5093  16.9292  17.0127  17.0927  17.3142  17.6463  17.7631  18.0968
    18.6289

     occupation numbers 
     1.0000   1.0000   1.0000   1.0000   1.0000   1.0000   1.0000   1.0000
     1.0000   1.0000   1.0000   1.0000   1.0000   1.0000   1.0000   1.0000
     1.0000   1.0000   1.0000   1.0000   1.0000   1.0000   1.0000   1.0000
     1.0000   1.0000   1.0000   1.0000   1.0000   1.0000   1.0000   1.0000
     1.0000   1.0000   1.0000   1.0000   1.0000   1.0000   1.0000   1.0000
     1.0000   1.0000   1.0000   1.0000   1.0000   1.0000   1.0000   1.0000
     1.0000   0.0000   0.0000   0.0000   0.0000   0.0000   0.0000   0.0000
     0.0000   0.0000   0.0000   0.0000   0.0000   0.0000   0.0000   0.0000
     0.0000

          k = 0.0834 0.0678-0.2305 ( 18942 PWs)   bands (ev):

   -72.7719 -63.6872 -63.6311 -63.6066 -39.3114 -38.7230 -38.6702 -32.5053
   -32.4904 -32.4762 -28.1574 -28.1057 -28.0744 -28.0234 -27.9476 -27.9187
    -8.0156  -6.9208  -6.8161  -6.6814  -6.3983  -6.3273  -6.0587  -5.8178
     4.1321   4.2268   4.8098   4.9457   5.1091   5.1948   6.0012   6.1044
     6.3980   6.6956   6.8389   7.2325   7.4980   7.6638   7.7837   8.1565
     8.2908   8.5576   8.8094   8.9824   9.1419   9.3632   9.6298   9.6794
    10.0079  13.9572  14.1168  14.2650  14.5330  14.8470  15.0961  16.3488
    16.5133  16.9634  17.0598  17.1833  17.2891  17.6595  17.7806  18.0013
    18.3019

     occupation numbers 
     1.0000   1.0000   1.0000   1.0000   1.0000   1.0000   1.0000   1.0000
     1.0000   1.0000   1.0000   1.0000   1.0000   1.0000   1.0000   1.0000
     1.0000   1.0000   1.0000   1.0000   1.0000   1.0000   1.0000   1.0000
     1.0000   1.0000   1.0000   1.0000   1.0000   1.0000   1.0000   1.0000
     1.0000   1.0000   1.0000   1.0000   1.0000   1.0000   1.0000   1.0000
     1.0000   1.0000   1.0000   1.0000   1.0000   1.0000   1.0000   1.0000
     1.0000   0.0000   0.0000   0.0000   0.0000   0.0000   0.0000   0.0000
     0.0000   0.0000   0.0000   0.0000   0.0000   0.0000   0.0000   0.0000
     0.0000

          k = 0.0833 0.0678-0.0762 ( 18946 PWs)   bands (ev):

   -72.7720 -63.6872 -63.6316 -63.6061 -39.3114 -38.7230 -38.6701 -32.5053
   -32.4905 -32.4762 -28.1610 -28.0938 -28.0806 -28.0073 -27.9636 -27.9199
    -8.2144  -6.9127  -6.6531  -6.5674  -6.4802  -6.3356  -6.0455  -5.7910
     3.9827   4.2005   4.5596   4.8333   5.2218   5.6552   5.7731   6.1910
     6.4760   6.7246   6.9410   7.2061   7.3737   7.5753   7.7604   8.2167
     8.4394   8.5569   8.8500   8.9523   9.1912   9.3893   9.6006   9.7694
     9.9472  13.7849  13.9302  14.3036  14.6088  14.8715  15.2681  16.3350
    16.5036  16.9725  17.0172  17.1796  17.3244  17.3873  17.7034  18.0645
    18.3301

     occupation numbers 
     1.0000   1.0000   1.0000   1.0000   1.0000   1.0000   1.0000   1.0000
     1.0000   1.0000   1.0000   1.0000   1.0000   1.0000   1.0000   1.0000
     1.0000   1.0000   1.0000   1.0000   1.0000   1.0000   1.0000   1.0000
     1.0000   1.0000   1.0000   1.0000   1.0000   1.0000   1.0000   1.0000
     1.0000   1.0000   1.0000   1.0000   1.0000   1.0000   1.0000   1.0000
     1.0000   1.0000   1.0000   1.0000   1.0000   1.0000   1.0000   1.0000
     1.0000   0.0000   0.0000   0.0000   0.0000   0.0000   0.0000   0.0000
     0.0000   0.0000   0.0000   0.0000   0.0000   0.0000   0.0000   0.0000
     0.0000

          k = 0.0833 0.2035 0.0780 ( 18958 PWs)   bands (ev):

   -72.7720 -63.6872 -63.6316 -63.6063 -39.3114 -38.7230 -38.6701 -32.5052
   -32.4905 -32.4762 -28.1604 -28.0933 -28.0792 -28.0076 -27.9654 -27.9203
    -8.1101  -7.0051  -6.8511  -6.5455  -6.4630  -6.2608  -6.0185  -5.7546
     4.2162   4.3589   4.5875   4.8265   4.9877   5.5846   5.7458   6.1351
     6.4117   6.6062   6.7502   7.1532   7.4781   7.8311   8.0561   8.2494
     8.5304   8.6333   8.7246   8.9236   8.9941   9.1961   9.5930   9.6467
     9.9164  13.7635  14.0372  14.3776  14.6884  14.9023  15.2048  16.3364
    16.5198  16.9892  17.0471  17.2090  17.3698  17.7644  17.8252  18.1131
    18.1895

     occupation numbers 
     1.0000   1.0000   1.0000   1.0000   1.0000   1.0000   1.0000   1.0000
     1.0000   1.0000   1.0000   1.0000   1.0000   1.0000   1.0000   1.0000
     1.0000   1.0000   1.0000   1.0000   1.0000   1.0000   1.0000   1.0000
     1.0000   1.0000   1.0000   1.0000   1.0000   1.0000   1.0000   1.0000
     1.0000   1.0000   1.0000   1.0000   1.0000   1.0000   1.0000   1.0000
     1.0000   1.0000   1.0000   1.0000   1.0000   1.0000   1.0000   1.0000
     1.0000   0.0000   0.0000   0.0000   0.0000   0.0000   0.0000   0.0000
     0.0000   0.0000   0.0000   0.0000   0.0000   0.0000   0.0000   0.0000
     0.0000

          k = 0.0833 0.2035 0.2323 ( 18968 PWs)   bands (ev):

   -72.7719 -63.6871 -63.6312 -63.6067 -39.3114 -38.7230 -38.6702 -32.5052
   -32.4904 -32.4763 -28.1576 -28.1059 -28.0738 -28.0237 -27.9481 -27.9180
    -7.9227  -7.0726  -6.9128  -6.6318  -6.3602  -6.2180  -6.1339  -5.7873
     4.3042   4.4033   4.6542   4.9581   5.0358   5.1619   5.9149   6.1271
     6.3231   6.5373   6.8398   7.4283   7.5446   7.7386   7.8998   8.1164
     8.3611   8.5768   8.6681   8.9712   9.0798   9.2008   9.5061   9.6481
     9.9889  13.8798  14.1987  14.4742  14.6379  14.8218  15.0973  16.4417
    16.5160  17.0155  17.0650  17.2187  17.2864  17.7715  17.9446  18.0461
    18.2533

     occupation numbers 
     1.0000   1.0000   1.0000   1.0000   1.0000   1.0000   1.0000   1.0000
     1.0000   1.0000   1.0000   1.0000   1.0000   1.0000   1.0000   1.0000
     1.0000   1.0000   1.0000   1.0000   1.0000   1.0000   1.0000   1.0000
     1.0000   1.0000   1.0000   1.0000   1.0000   1.0000   1.0000   1.0000
     1.0000   1.0000   1.0000   1.0000   1.0000   1.0000   1.0000   1.0000
     1.0000   1.0000   1.0000   1.0000   1.0000   1.0000   1.0000   1.0000
     1.0000   0.0000   0.0000   0.0000   0.0000   0.0000   0.0000   0.0000
     0.0000   0.0000   0.0000   0.0000   0.0000   0.0000   0.0000   0.0000
     0.0000

          k = 0.0833 0.2035 0.3865 ( 18948 PWs)   bands (ev):

   -72.7719 -63.6870 -63.6307 -63.6072 -39.3114 -38.7230 -38.6702 -32.5053
   -32.4904 -32.4763 -28.1515 -28.1215 -28.0648 -28.0389 -27.9329 -27.9183
    -7.5943  -7.2659  -6.8969  -6.7993  -6.3250  -6.2843  -6.0171  -5.8930
     4.2694   4.4810   4.6347   4.8127   5.2249   5.6570   5.7797   6.0491
     6.4098   6.6269   6.8425   7.0792   7.3654   7.5258   7.8961   8.1120
     8.3391   8.4777   8.7541   8.9080   9.2111   9.3229   9.4483   9.5776
    10.0649  14.0202  14.2886  14.4521  14.6876  14.7957  14.9313  16.4997
    16.5464  17.0168  17.0822  17.1145  17.2667  17.6779  17.8749  17.9738
    18.6111

     occupation numbers 
     1.0000   1.0000   1.0000   1.0000   1.0000   1.0000   1.0000   1.0000
     1.0000   1.0000   1.0000   1.0000   1.0000   1.0000   1.0000   1.0000
     1.0000   1.0000   1.0000   1.0000   1.0000   1.0000   1.0000   1.0000
     1.0000   1.0000   1.0000   1.0000   1.0000   1.0000   1.0000   1.0000
     1.0000   1.0000   1.0000   1.0000   1.0000   1.0000   1.0000   1.0000
     1.0000   1.0000   1.0000   1.0000   1.0000   1.0000   1.0000   1.0000
     1.0000   0.0000   0.0000   0.0000   0.0000   0.0000   0.0000   0.0000
     0.0000   0.0000   0.0000   0.0000   0.0000   0.0000   0.0000   0.0000
     0.0000

          k = 0.0834 0.2035-0.3847 ( 18957 PWs)   bands (ev):

   -72.7719 -63.6870 -63.6307 -63.6072 -39.3114 -38.7230 -38.6702 -32.5053
   -32.4904 -32.4762 -28.1515 -28.1215 -28.0647 -28.0391 -27.9328 -27.9184
    -7.6039  -7.2267  -6.9176  -6.7574  -6.4147  -6.2274  -6.0902  -5.8449
     4.2483   4.4917   4.5611   4.9465   5.2968   5.6267   5.8527   5.9772
     6.4803   6.7127   6.8069   6.9619   7.1180   7.6676   7.9462   8.1060
     8.3116   8.4610   8.7051   8.9599   9.2404   9.3026   9.4078   9.5867
    10.1002  14.0393  14.2277  14.4509  14.7031  14.7578  14.8901  16.4866
    16.5356  16.9545  17.0786  17.1825  17.2761  17.6721  17.8380  18.0550
    18.7259

     occupation numbers 
     1.0000   1.0000   1.0000   1.0000   1.0000   1.0000   1.0000   1.0000
     1.0000   1.0000   1.0000   1.0000   1.0000   1.0000   1.0000   1.0000
     1.0000   1.0000   1.0000   1.0000   1.0000   1.0000   1.0000   1.0000
     1.0000   1.0000   1.0000   1.0000   1.0000   1.0000   1.0000   1.0000
     1.0000   1.0000   1.0000   1.0000   1.0000   1.0000   1.0000   1.0000
     1.0000   1.0000   1.0000   1.0000   1.0000   1.0000   1.0000   1.0000
     1.0000   0.0000   0.0000   0.0000   0.0000   0.0000   0.0000   0.0000
     0.0000   0.0000   0.0000   0.0000   0.0000   0.0000   0.0000   0.0000
     0.0000

          k = 0.0834 0.2035-0.2305 ( 18959 PWs)   bands (ev):

   -72.7719 -63.6871 -63.6311 -63.6067 -39.3114 -38.7230 -38.6702 -32.5053
   -32.4904 -32.4762 -28.1576 -28.1060 -28.0736 -28.0239 -27.9479 -27.9181
    -7.9246  -6.9970  -6.9067  -6.5936  -6.4590  -6.3067  -6.1061  -5.7597
     4.2388   4.3545   4.7385   4.9426   5.2175   5.3135   5.8513   6.1767
     6.2695   6.5650   6.8175   7.1950   7.4663   7.8458   7.8784   8.1793
     8.2818   8.5615   8.6278   8.9996   9.0221   9.2327   9.5367   9.6397
    10.0494  13.8719  14.1787  14.3594  14.6305  14.8373  15.0200  16.3903
    16.5550  16.9639  17.1035  17.1981  17.2814  17.7733  17.8453  18.1979
    18.4174

     occupation numbers 
     1.0000   1.0000   1.0000   1.0000   1.0000   1.0000   1.0000   1.0000
     1.0000   1.0000   1.0000   1.0000   1.0000   1.0000   1.0000   1.0000
     1.0000   1.0000   1.0000   1.0000   1.0000   1.0000   1.0000   1.0000
     1.0000   1.0000   1.0000   1.0000   1.0000   1.0000   1.0000   1.0000
     1.0000   1.0000   1.0000   1.0000   1.0000   1.0000   1.0000   1.0000
     1.0000   1.0000   1.0000   1.0000   1.0000   1.0000   1.0000   1.0000
     1.0000   0.0000   0.0000   0.0000   0.0000   0.0000   0.0000   0.0000
     0.0000   0.0000   0.0000   0.0000   0.0000   0.0000   0.0000   0.0000
     0.0000

          k = 0.0833 0.2035-0.0762 ( 18948 PWs)   bands (ev):

   -72.7720 -63.6872 -63.6316 -63.6062 -39.3114 -38.7230 -38.6701 -32.5053
   -32.4905 -32.4762 -28.1604 -28.0934 -28.0791 -28.0077 -27.9652 -27.9203
    -8.1102  -6.9912  -6.7731  -6.6060  -6.5002  -6.2720  -6.0191  -5.7439
     4.1616   4.3438   4.6642   4.8680   5.0063   5.5829   5.8456   6.1975
     6.2818   6.6461   6.7349   7.0228   7.5297   7.7951   8.0713   8.2893
     8.4322   8.6285   8.7286   8.8750   8.9758   9.2772   9.5316   9.6992
     9.9560  13.7410  14.0473  14.3352  14.6435  14.9244  15.1733  16.3131
    16.5426  16.9841  17.0745  17.2057  17.3220  17.7580  17.8357  18.0855
    18.3184

     occupation numbers 
     1.0000   1.0000   1.0000   1.0000   1.0000   1.0000   1.0000   1.0000
     1.0000   1.0000   1.0000   1.0000   1.0000   1.0000   1.0000   1.0000
     1.0000   1.0000   1.0000   1.0000   1.0000   1.0000   1.0000   1.0000
     1.0000   1.0000   1.0000   1.0000   1.0000   1.0000   1.0000   1.0000
     1.0000   1.0000   1.0000   1.0000   1.0000   1.0000   1.0000   1.0000
     1.0000   1.0000   1.0000   1.0000   1.0000   1.0000   1.0000   1.0000
     1.0000   0.0000   0.0000   0.0000   0.0000   0.0000   0.0000   0.0000
     0.0000   0.0000   0.0000   0.0000   0.0000   0.0000   0.0000   0.0000
     0.0000

          k = 0.0833 0.3392 0.0780 ( 18936 PWs)   bands (ev):

   -72.7720 -63.6872 -63.6316 -63.6063 -39.3114 -38.7230 -38.6701 -32.5052
   -32.4904 -32.4762 -28.1599 -28.0930 -28.0775 -28.0080 -27.9670 -27.9207
    -7.9727  -7.2006  -6.8399  -6.5448  -6.5004  -6.2595  -5.9979  -5.7093
     4.4240   4.5156   4.6183   4.7853   5.1010   5.5142   5.6438   5.9106
     6.1417   6.7410   6.8229   7.1213   7.6858   7.8249   8.1105   8.3412
     8.3973   8.6213   8.7127   8.7873   8.9450   9.0444   9.5418   9.6040
     9.9352  13.7530  14.1648  14.3800  14.7392  14.9224  15.1359  16.3419
    16.5510  17.0227  17.0764  17.2088  17.3637  17.9073  18.0402  18.1809
    18.4813

     occupation numbers 
     1.0000   1.0000   1.0000   1.0000   1.0000   1.0000   1.0000   1.0000
     1.0000   1.0000   1.0000   1.0000   1.0000   1.0000   1.0000   1.0000
     1.0000   1.0000   1.0000   1.0000   1.0000   1.0000   1.0000   1.0000
     1.0000   1.0000   1.0000   1.0000   1.0000   1.0000   1.0000   1.0000
     1.0000   1.0000   1.0000   1.0000   1.0000   1.0000   1.0000   1.0000
     1.0000   1.0000   1.0000   1.0000   1.0000   1.0000   1.0000   1.0000
     1.0000   0.0000   0.0000   0.0000   0.0000   0.0000   0.0000   0.0000
     0.0000   0.0000   0.0000   0.0000   0.0000   0.0000   0.0000   0.0000
     0.0000

          k = 0.0833 0.3392 0.2323 ( 18967 PWs)   bands (ev):

   -72.7719 -63.6871 -63.6312 -63.6068 -39.3114 -38.7230 -38.6702 -32.5052
   -32.4904 -32.4763 -28.1578 -28.1062 -28.0730 -28.0242 -27.9483 -27.9175
    -7.8103  -7.2245  -6.8850  -6.5610  -6.3987  -6.2975  -6.1399  -5.7409
     4.2958   4.4173   4.6567   5.1069   5.2297   5.3488   5.7928   6.0984
     6.3214   6.5605   6.7071   7.0807   7.6353   7.7142   7.9522   8.2941
     8.4197   8.5234   8.5976   8.7749   8.9370   9.1491   9.4942   9.5708
    10.0337  13.8554  14.2549  14.5743  14.6780  14.8663  15.0115  16.5202
    16.5466  17.0740  17.0908  17.1799  17.3090  17.8042  17.9921  18.0896
    18.5306

     occupation numbers 
     1.0000   1.0000   1.0000   1.0000   1.0000   1.0000   1.0000   1.0000
     1.0000   1.0000   1.0000   1.0000   1.0000   1.0000   1.0000   1.0000
     1.0000   1.0000   1.0000   1.0000   1.0000   1.0000   1.0000   1.0000
     1.0000   1.0000   1.0000   1.0000   1.0000   1.0000   1.0000   1.0000
     1.0000   1.0000   1.0000   1.0000   1.0000   1.0000   1.0000   1.0000
     1.0000   1.0000   1.0000   1.0000   1.0000   1.0000   1.0000   1.0000
     1.0000   0.0000   0.0000   0.0000   0.0000   0.0000   0.0000   0.0000
     0.0000   0.0000   0.0000   0.0000   0.0000   0.0000   0.0000   0.0000
     0.0000

          k = 0.0833 0.3392 0.3865 ( 18966 PWs)   bands (ev):

   -72.7719 -63.6870 -63.6307 -63.6072 -39.3114 -38.7230 -38.6702 -32.5053
   -32.4904 -32.4763 -28.1524 -28.1227 -28.0647 -28.0389 -27.9320 -27.9172
    -7.5370  -7.3189  -6.8195  -6.7155  -6.4312  -6.4078  -6.0032  -5.8630
     4.3084   4.3915   4.7203   4.7556   5.4513   5.8253   6.0039   6.1972
     6.4184   6.5373   6.7615   7.0183   7.1153   7.4089   7.8502   8.1475
     8.2204   8.4200   8.7430   8.7964   9.1333   9.3230   9.4190   9.4969
    10.1108  13.9747  14.2855  14.5302  14.7202  14.8431  14.9723  16.5150
    16.6497  17.0526  17.1460  17.1926  17.2632  17.6988  17.8665  17.9938
    18.5241

     occupation numbers 
     1.0000   1.0000   1.0000   1.0000   1.0000   1.0000   1.0000   1.0000
     1.0000   1.0000   1.0000   1.0000   1.0000   1.0000   1.0000   1.0000
     1.0000   1.0000   1.0000   1.0000   1.0000   1.0000   1.0000   1.0000
     1.0000   1.0000   1.0000   1.0000   1.0000   1.0000   1.0000   1.0000
     1.0000   1.0000   1.0000   1.0000   1.0000   1.0000   1.0000   1.0000
     1.0000   1.0000   1.0000   1.0000   1.0000   1.0000   1.0000   1.0000
     1.0000   0.0000   0.0000   0.0000   0.0000   0.0000   0.0000   0.0000
     0.0000   0.0000   0.0000   0.0000   0.0000   0.0000   0.0000   0.0000
     0.0000

          k = 0.0834 0.3392-0.3847 ( 18934 PWs)   bands (ev):

   -72.7719 -63.6870 -63.6307 -63.6072 -39.3114 -38.7230 -38.6702 -32.5053
   -32.4904 -32.4762 -28.1524 -28.1227 -28.0646 -28.0391 -27.9319 -27.9173
    -7.5419  -7.2630  -6.8861  -6.6893  -6.4921  -6.3320  -6.0856  -5.8125
     4.2515   4.5580   4.6490   4.8157   5.4993   5.6963   5.9994   6.1691
     6.3758   6.6297   6.7508   6.8876   7.1639   7.6134   7.8751   7.9608
     8.2478   8.3923   8.7286   8.8281   9.1945   9.2452   9.3767   9.5530
    10.1338  14.0542  14.1598  14.4744  14.6968  14.8576  14.9589  16.5458
    16.5975  17.0070  17.1168  17.2162  17.2570  17.7220  17.9099  17.9808
    18.5165

     occupation numbers 
     1.0000   1.0000   1.0000   1.0000   1.0000   1.0000   1.0000   1.0000
     1.0000   1.0000   1.0000   1.0000   1.0000   1.0000   1.0000   1.0000
     1.0000   1.0000   1.0000   1.0000   1.0000   1.0000   1.0000   1.0000
     1.0000   1.0000   1.0000   1.0000   1.0000   1.0000   1.0000   1.0000
     1.0000   1.0000   1.0000   1.0000   1.0000   1.0000   1.0000   1.0000
     1.0000   1.0000   1.0000   1.0000   1.0000   1.0000   1.0000   1.0000
     1.0000   0.0000   0.0000   0.0000   0.0000   0.0000   0.0000   0.0000
     0.0000   0.0000   0.0000   0.0000   0.0000   0.0000   0.0000   0.0000
     0.0000

          k = 0.0834 0.3392-0.2305 ( 18933 PWs)   bands (ev):

   -72.7719 -63.6871 -63.6311 -63.6067 -39.3114 -38.7230 -38.6702 -32.5053
   -32.4904 -32.4762 -28.1577 -28.1062 -28.0729 -28.0245 -27.9481 -27.9176
    -7.8041  -7.1433  -6.9188  -6.5962  -6.4266  -6.3323  -6.1321  -5.7170
     4.2866   4.5392   4.6411   5.1878   5.2794   5.4395   5.6780   5.9753
     6.0725   6.6604   6.7987   7.0943   7.6911   7.7532   7.9631   8.2792
     8.3281   8.4448   8.6244   8.7788   8.9700   9.0935   9.5017   9.5945
    10.0777  13.8223  14.2357  14.5082  14.6361  14.8005  15.0019  16.4402
    16.5924  16.9759  17.1153  17.2184  17.2474  17.8257  17.9668  18.1195
    18.6808

     occupation numbers 
     1.0000   1.0000   1.0000   1.0000   1.0000   1.0000   1.0000   1.0000
     1.0000   1.0000   1.0000   1.0000   1.0000   1.0000   1.0000   1.0000
     1.0000   1.0000   1.0000   1.0000   1.0000   1.0000   1.0000   1.0000
     1.0000   1.0000   1.0000   1.0000   1.0000   1.0000   1.0000   1.0000
     1.0000   1.0000   1.0000   1.0000   1.0000   1.0000   1.0000   1.0000
     1.0000   1.0000   1.0000   1.0000   1.0000   1.0000   1.0000   1.0000
     1.0000   0.0000   0.0000   0.0000   0.0000   0.0000   0.0000   0.0000
     0.0000   0.0000   0.0000   0.0000   0.0000   0.0000   0.0000   0.0000
     0.0000

          k = 0.0833 0.3392-0.0762 ( 18948 PWs)   bands (ev):

   -72.7720 -63.6872 -63.6316 -63.6063 -39.3114 -38.7230 -38.6701 -32.5053
   -32.4904 -32.4762 -28.1598 -28.0930 -28.0775 -28.0082 -27.9669 -27.9208
    -7.9697  -7.1781  -6.7886  -6.6275  -6.5247  -6.2493  -5.9909  -5.7027
     4.3924   4.5332   4.7315   4.8372   5.0133   5.4598   5.7746   5.9087
     6.0213   6.6771   6.9089   7.0460   7.8027   7.8466   8.0701   8.3539
     8.4058   8.6050   8.6407   8.7981   8.8326   9.1509   9.4898   9.6450
     9.9658  13.7052  14.1635  14.4000  14.7118  14.8896  15.1135  16.2897
    16.5812  16.9884  17.1234  17.2099  17.3052  17.9291  17.9856  18.1924
    18.6100

     occupation numbers 
     1.0000   1.0000   1.0000   1.0000   1.0000   1.0000   1.0000   1.0000
     1.0000   1.0000   1.0000   1.0000   1.0000   1.0000   1.0000   1.0000
     1.0000   1.0000   1.0000   1.0000   1.0000   1.0000   1.0000   1.0000
     1.0000   1.0000   1.0000   1.0000   1.0000   1.0000   1.0000   1.0000
     1.0000   1.0000   1.0000   1.0000   1.0000   1.0000   1.0000   1.0000
     1.0000   1.0000   1.0000   1.0000   1.0000   1.0000   1.0000   1.0000
     1.0000   0.0000   0.0000   0.0000   0.0000   0.0000   0.0000   0.0000
     0.0000   0.0000   0.0000   0.0000   0.0000   0.0000   0.0000   0.0000
     0.0000

          k = 0.2500 0.0678 0.0798 ( 18979 PWs)   bands (ev):

   -72.7720 -63.6872 -63.6316 -63.6063 -39.3114 -38.7230 -38.6701 -32.5052
   -32.4904 -32.4763 -28.1609 -28.0946 -28.0807 -28.0079 -27.9636 -27.9199
    -8.0643  -6.9648  -6.8407  -6.6340  -6.3408  -6.1975  -6.0186  -5.9577
     4.2791   4.3317   4.5981   4.7751   5.0425   5.4891   5.9456   5.9858
     6.0599   6.6458   6.9258   7.3194   7.5235   7.7564   7.9698   8.2547
     8.5326   8.6455   8.7624   8.9185   9.0781   9.2780   9.4029   9.6962
    10.1669  13.7967  14.0277  14.4036  14.6964  14.8463  15.2917  16.3838
    16.5116  16.9507  17.0437  17.1601  17.3511  17.8338  17.9103  18.0151
    18.0908

     occupation numbers 
     1.0000   1.0000   1.0000   1.0000   1.0000   1.0000   1.0000   1.0000
     1.0000   1.0000   1.0000   1.0000   1.0000   1.0000   1.0000   1.0000
     1.0000   1.0000   1.0000   1.0000   1.0000   1.0000   1.0000   1.0000
     1.0000   1.0000   1.0000   1.0000   1.0000   1.0000   1.0000   1.0000
     1.0000   1.0000   1.0000   1.0000   1.0000   1.0000   1.0000   1.0000
     1.0000   1.0000   1.0000   1.0000   1.0000   1.0000   1.0000   1.0000
     1.0000   0.0000   0.0000   0.0000   0.0000   0.0000   0.0000   0.0000
     0.0000   0.0000   0.0000   0.0000   0.0000   0.0000   0.0000   0.0000
     0.0000

          k = 0.2500 0.0678 0.2340 ( 18963 PWs)   bands (ev):

   -72.7719 -63.6871 -63.6311 -63.6067 -39.3114 -38.7230 -38.6702 -32.5053
   -32.4904 -32.4764 -28.1573 -28.1058 -28.0754 -28.0238 -27.9478 -27.9185
    -7.8660  -6.9929  -6.9261  -6.7690  -6.3345  -6.1831  -6.0252  -5.9354
     4.3409   4.6046   4.6479   4.8083   4.9631   5.2037   5.4734   5.6233
     6.4306   6.9176   7.3468   7.4470   7.5792   7.5972   7.7033   8.2261
     8.3804   8.6111   8.8777   8.9774   9.0914   9.1395   9.5615   9.6348
    10.1735  13.8747  14.0986  14.4859  14.6394  14.8810  15.1965  16.3580
    16.4969  16.9409  17.0142  17.1745  17.3176  17.7582  17.8681  17.9916
    18.4835

     occupation numbers 
     1.0000   1.0000   1.0000   1.0000   1.0000   1.0000   1.0000   1.0000
     1.0000   1.0000   1.0000   1.0000   1.0000   1.0000   1.0000   1.0000
     1.0000   1.0000   1.0000   1.0000   1.0000   1.0000   1.0000   1.0000
     1.0000   1.0000   1.0000   1.0000   1.0000   1.0000   1.0000   1.0000
     1.0000   1.0000   1.0000   1.0000   1.0000   1.0000   1.0000   1.0000
     1.0000   1.0000   1.0000   1.0000   1.0000   1.0000   1.0000   1.0000
     1.0000   0.0000   0.0000   0.0000   0.0000   0.0000   0.0000   0.0000
     0.0000   0.0000   0.0000   0.0000   0.0000   0.0000   0.0000   0.0000
     0.0000

          k = 0.2499 0.0678 0.3883 ( 18962 PWs)   bands (ev):

   -72.7719 -63.6871 -63.6305 -63.6071 -39.3114 -38.7231 -38.6702 -32.5054
   -32.4903 -32.4764 -28.1506 -28.1203 -28.0658 -28.0396 -27.9338 -27.9193
    -7.5146  -7.1759  -6.9720  -6.8640  -6.4005  -6.2459  -5.9707  -5.9164
     4.2582   4.4353   4.6248   4.9113   5.2006   5.3970   5.5957   5.7153
     6.6203   6.7285   7.0908   7.1718   7.2923   7.4014   7.9978   8.2794
     8.4075   8.6317   8.7905   8.9825   9.1185   9.2560   9.5107   9.6300
    10.2886  14.0513  14.0968  14.4742  14.7086  14.7795  14.9717  16.4048
    16.4654  16.9663  17.0087  17.1161  17.2616  17.7030  17.8194  18.0769
    18.4658

     occupation numbers 
     1.0000   1.0000   1.0000   1.0000   1.0000   1.0000   1.0000   1.0000
     1.0000   1.0000   1.0000   1.0000   1.0000   1.0000   1.0000   1.0000
     1.0000   1.0000   1.0000   1.0000   1.0000   1.0000   1.0000   1.0000
     1.0000   1.0000   1.0000   1.0000   1.0000   1.0000   1.0000   1.0000
     1.0000   1.0000   1.0000   1.0000   1.0000   1.0000   1.0000   1.0000
     1.0000   1.0000   1.0000   1.0000   1.0000   1.0000   1.0000   1.0000
     1.0000   0.0000   0.0000   0.0000   0.0000   0.0000   0.0000   0.0000
     0.0000   0.0000   0.0000   0.0000   0.0000   0.0000   0.0000   0.0000
     0.0000

          k = 0.2501 0.0678-0.3830 ( 18962 PWs)   bands (ev):

   -72.7719 -63.6871 -63.6305 -63.6070 -39.3114 -38.7231 -38.6702 -32.5054
   -32.4903 -32.4763 -28.1506 -28.1204 -28.0654 -28.0401 -27.9335 -27.9196
    -7.5578  -7.1030  -6.9199  -6.8150  -6.4494  -6.3697  -5.9735  -5.8876
     4.1393   4.3177   4.6956   4.9256   5.4239   5.6171   5.8396   5.9393
     6.2983   6.7416   6.8950   6.9862   7.0546   7.4292   7.9841   8.4313
     8.5147   8.5953   8.7393   8.8533   9.1389   9.2935   9.4608   9.6542
    10.3448  13.9539  14.2509  14.4559  14.5754  14.7291  14.9509  16.3849
    16.4810  16.9769  17.0407  17.1406  17.2489  17.7122  17.7967  18.2160
    18.5764

     occupation numbers 
     1.0000   1.0000   1.0000   1.0000   1.0000   1.0000   1.0000   1.0000
     1.0000   1.0000   1.0000   1.0000   1.0000   1.0000   1.0000   1.0000
     1.0000   1.0000   1.0000   1.0000   1.0000   1.0000   1.0000   1.0000
     1.0000   1.0000   1.0000   1.0000   1.0000   1.0000   1.0000   1.0000
     1.0000   1.0000   1.0000   1.0000   1.0000   1.0000   1.0000   1.0000
     1.0000   1.0000   1.0000   1.0000   1.0000   1.0000   1.0000   1.0000
     1.0000   0.0000   0.0000   0.0000   0.0000   0.0000   0.0000   0.0000
     0.0000   0.0000   0.0000   0.0000   0.0000   0.0000   0.0000   0.0000
     0.0000

          k = 0.2500 0.0678-0.2287 ( 18967 PWs)   bands (ev):

   -72.7719 -63.6871 -63.6310 -63.6065 -39.3114 -38.7231 -38.6702 -32.5054
   -32.4904 -32.4763 -28.1574 -28.1060 -28.0749 -28.0243 -27.9475 -27.9188
    -7.8864  -6.9567  -6.7198  -6.6352  -6.5458  -6.4204  -6.0187  -5.8807
     4.1145   4.1989   4.8914   5.1238   5.2016   5.3556   6.0362   6.0896
     6.3374   6.5174   6.8434   6.9173   7.5288   7.5600   7.7796   8.2022
     8.4240   8.6745   8.8074   8.9339   9.0179   9.1772   9.5990   9.7134
    10.2869  13.9148  14.1827  14.2650  14.4044  14.8878  15.1491  16.3822
    16.5112  16.9714  17.1094  17.1583  17.2393  17.7550  17.8116  18.2387
    18.5614

     occupation numbers 
     1.0000   1.0000   1.0000   1.0000   1.0000   1.0000   1.0000   1.0000
     1.0000   1.0000   1.0000   1.0000   1.0000   1.0000   1.0000   1.0000
     1.0000   1.0000   1.0000   1.0000   1.0000   1.0000   1.0000   1.0000
     1.0000   1.0000   1.0000   1.0000   1.0000   1.0000   1.0000   1.0000
     1.0000   1.0000   1.0000   1.0000   1.0000   1.0000   1.0000   1.0000
     1.0000   1.0000   1.0000   1.0000   1.0000   1.0000   1.0000   1.0000
     1.0000   0.0000   0.0000   0.0000   0.0000   0.0000   0.0000   0.0000
     0.0000   0.0000   0.0000   0.0000   0.0000   0.0000   0.0000   0.0000
     0.0000

          k = 0.2500 0.0678-0.0745 ( 18974 PWs)   bands (ev):

   -72.7720 -63.6872 -63.6316 -63.6062 -39.3114 -38.7230 -38.6701 -32.5053
   -32.4904 -32.4763 -28.1609 -28.0948 -28.0804 -28.0082 -27.9634 -27.9200
    -8.0702  -6.9482  -6.7177  -6.5857  -6.4927  -6.2749  -6.0151  -5.9295
     4.1246   4.2411   4.6051   4.8947   5.3947   5.6496   5.8728   6.1066
     6.4184   6.5035   6.5539   7.0982   7.4760   7.6727   7.9420   8.2586
     8.4710   8.6047   8.7943   8.8947   9.0761   9.1913   9.5904   9.7269
    10.2178  13.8686  14.0471  14.1929  14.5658  14.8987  15.2744  16.4261
    16.5104  16.9523  17.1066  17.1910  17.2531  17.7853  17.8344  18.0878
    18.3490

     occupation numbers 
     1.0000   1.0000   1.0000   1.0000   1.0000   1.0000   1.0000   1.0000
     1.0000   1.0000   1.0000   1.0000   1.0000   1.0000   1.0000   1.0000
     1.0000   1.0000   1.0000   1.0000   1.0000   1.0000   1.0000   1.0000
     1.0000   1.0000   1.0000   1.0000   1.0000   1.0000   1.0000   1.0000
     1.0000   1.0000   1.0000   1.0000   1.0000   1.0000   1.0000   1.0000
     1.0000   1.0000   1.0000   1.0000   1.0000   1.0000   1.0000   1.0000
     1.0000   0.0000   0.0000   0.0000   0.0000   0.0000   0.0000   0.0000
     0.0000   0.0000   0.0000   0.0000   0.0000   0.0000   0.0000   0.0000
     0.0000

          k = 0.2500 0.2035 0.0798 ( 18969 PWs)   bands (ev):

   -72.7720 -63.6872 -63.6315 -63.6063 -39.3114 -38.7230 -38.6701 -32.5052
   -32.4904 -32.4763 -28.1605 -28.0943 -28.0792 -28.0084 -27.9653 -27.9203
    -7.9793  -7.0254  -6.9343  -6.5629  -6.4082  -6.2064  -6.0250  -5.8906
     4.2432   4.4698   4.5683   4.8444   5.1370   5.4806   5.8591   6.1034
     6.2123   6.3748   7.0518   7.1820   7.4266   7.8425   8.0443   8.2383
     8.4004   8.6221   8.7201   8.8861   9.1184   9.1953   9.3370   9.6021
    10.1909  13.8023  14.1197  14.3202  14.7315  14.9050  15.3120  16.3833
    16.5306  16.9737  17.0545  17.1487  17.3300  17.7514  17.9254  18.2036
    18.3283

     occupation numbers 
     1.0000   1.0000   1.0000   1.0000   1.0000   1.0000   1.0000   1.0000
     1.0000   1.0000   1.0000   1.0000   1.0000   1.0000   1.0000   1.0000
     1.0000   1.0000   1.0000   1.0000   1.0000   1.0000   1.0000   1.0000
     1.0000   1.0000   1.0000   1.0000   1.0000   1.0000   1.0000   1.0000
     1.0000   1.0000   1.0000   1.0000   1.0000   1.0000   1.0000   1.0000
     1.0000   1.0000   1.0000   1.0000   1.0000   1.0000   1.0000   1.0000
     1.0000   0.0000   0.0000   0.0000   0.0000   0.0000   0.0000   0.0000
     0.0000   0.0000   0.0000   0.0000   0.0000   0.0000   0.0000   0.0000
     0.0000

          k = 0.2500 0.2035 0.2340 ( 18963 PWs)   bands (ev):

   -72.7719 -63.6871 -63.6311 -63.6067 -39.3114 -38.7230 -38.6702 -32.5053
   -32.4904 -32.4764 -28.1576 -28.1061 -28.0745 -28.0243 -27.9481 -27.9179
    -7.8015  -7.1037  -6.9505  -6.6661  -6.3248  -6.1988  -6.1105  -5.8905
     4.2101   4.4499   4.8109   4.9110   5.0179   5.2946   5.7211   5.9837
     6.2229   6.5504   7.2237   7.3543   7.5133   7.7191   7.8910   8.2474
     8.4535   8.4724   8.7775   8.9164   9.0528   9.1168   9.4264   9.5400
    10.2150  13.8637  14.2180  14.4684  14.6899  14.8197  15.2288  16.3929
    16.5175  16.9265  17.0694  17.1247  17.3521  17.6887  17.9301  18.1347
    18.4734

     occupation numbers 
     1.0000   1.0000   1.0000   1.0000   1.0000   1.0000   1.0000   1.0000
     1.0000   1.0000   1.0000   1.0000   1.0000   1.0000   1.0000   1.0000
     1.0000   1.0000   1.0000   1.0000   1.0000   1.0000   1.0000   1.0000
     1.0000   1.0000   1.0000   1.0000   1.0000   1.0000   1.0000   1.0000
     1.0000   1.0000   1.0000   1.0000   1.0000   1.0000   1.0000   1.0000
     1.0000   1.0000   1.0000   1.0000   1.0000   1.0000   1.0000   1.0000
     1.0000   0.0000   0.0000   0.0000   0.0000   0.0000   0.0000   0.0000
     0.0000   0.0000   0.0000   0.0000   0.0000   0.0000   0.0000   0.0000
     0.0000

          k = 0.2499 0.2035 0.3883 ( 18974 PWs)   bands (ev):

   -72.7719 -63.6870 -63.6305 -63.6070 -39.3114 -38.7231 -38.6702 -32.5054
   -32.4904 -32.4764 -28.1515 -28.1215 -28.0657 -28.0397 -27.9329 -27.9182
    -7.4903  -7.2247  -6.9655  -6.7948  -6.3946  -6.2610  -6.0035  -5.9394
     4.1739   4.4473   4.6405   4.9779   5.1468   5.4861   5.7547   6.1530
     6.3637   6.5787   6.9566   7.2162   7.3262   7.5825   7.8645   8.2253
     8.4054   8.6299   8.8041   8.9204   9.0376   9.1485   9.3925   9.5257
    10.3025  14.0062  14.2362  14.4957  14.6463  14.7556  15.0301  16.4063
    16.4686  16.9506  17.0330  17.1584  17.2713  17.7079  17.8918  18.0804
    18.5086

     occupation numbers 
     1.0000   1.0000   1.0000   1.0000   1.0000   1.0000   1.0000   1.0000
     1.0000   1.0000   1.0000   1.0000   1.0000   1.0000   1.0000   1.0000
     1.0000   1.0000   1.0000   1.0000   1.0000   1.0000   1.0000   1.0000
     1.0000   1.0000   1.0000   1.0000   1.0000   1.0000   1.0000   1.0000
     1.0000   1.0000   1.0000   1.0000   1.0000   1.0000   1.0000   1.0000
     1.0000   1.0000   1.0000   1.0000   1.0000   1.0000   1.0000   1.0000
     1.0000   0.0000   0.0000   0.0000   0.0000   0.0000   0.0000   0.0000
     0.0000   0.0000   0.0000   0.0000   0.0000   0.0000   0.0000   0.0000
     0.0000

          k = 0.2501 0.2035-0.3830 ( 18968 PWs)   bands (ev):

   -72.7719 -63.6870 -63.6305 -63.6070 -39.3114 -38.7231 -38.6702 -32.5054
   -32.4904 -32.4763 -28.1515 -28.1215 -28.0654 -28.0401 -27.9327 -27.9184
    -7.5110  -7.1365  -6.9818  -6.7489  -6.4619  -6.3163  -6.0730  -5.8586
     4.1659   4.4171   4.6906   4.9295   5.3247   5.5491   5.9010   5.9916
     6.4713   6.7151   6.8230   6.9638   7.1586   7.7292   7.8991   8.2410
     8.3242   8.5724   8.7897   8.9524   9.0013   9.1799   9.3629   9.5744
    10.3431  13.9745  14.2308  14.4823  14.6252  14.7607  14.8753  16.3972
    16.4797  16.9658  17.0159  17.1732  17.2404  17.7336  17.9009  18.1307
    18.6618

     occupation numbers 
     1.0000   1.0000   1.0000   1.0000   1.0000   1.0000   1.0000   1.0000
     1.0000   1.0000   1.0000   1.0000   1.0000   1.0000   1.0000   1.0000
     1.0000   1.0000   1.0000   1.0000   1.0000   1.0000   1.0000   1.0000
     1.0000   1.0000   1.0000   1.0000   1.0000   1.0000   1.0000   1.0000
     1.0000   1.0000   1.0000   1.0000   1.0000   1.0000   1.0000   1.0000
     1.0000   1.0000   1.0000   1.0000   1.0000   1.0000   1.0000   1.0000
     1.0000   0.0000   0.0000   0.0000   0.0000   0.0000   0.0000   0.0000
     0.0000   0.0000   0.0000   0.0000   0.0000   0.0000   0.0000   0.0000
     0.0000

          k = 0.2500 0.2035-0.2287 ( 18964 PWs)   bands (ev):

   -72.7719 -63.6871 -63.6310 -63.6065 -39.3114 -38.7231 -38.6702 -32.5054
   -32.4904 -32.4763 -28.1576 -28.1062 -28.0742 -28.0249 -27.9478 -27.9182
    -7.8058  -7.0169  -6.8300  -6.6268  -6.5402  -6.3595  -6.0666  -5.8289
     4.1727   4.3825   4.7812   5.0668   5.3153   5.3706   5.7524   6.0979
     6.3395   6.5744   6.7859   7.0920   7.5526   7.7491   7.8613   8.2102
     8.3316   8.4845   8.7879   8.9151   9.0100   9.0675   9.4958   9.6426
    10.2768  13.8248  14.2232  14.3788  14.5006  14.8708  15.0507  16.3615
    16.5491  16.9439  17.0678  17.1685  17.2367  17.7440  17.8963  18.2293
    18.7017

     occupation numbers 
     1.0000   1.0000   1.0000   1.0000   1.0000   1.0000   1.0000   1.0000
     1.0000   1.0000   1.0000   1.0000   1.0000   1.0000   1.0000   1.0000
     1.0000   1.0000   1.0000   1.0000   1.0000   1.0000   1.0000   1.0000
     1.0000   1.0000   1.0000   1.0000   1.0000   1.0000   1.0000   1.0000
     1.0000   1.0000   1.0000   1.0000   1.0000   1.0000   1.0000   1.0000
     1.0000   1.0000   1.0000   1.0000   1.0000   1.0000   1.0000   1.0000
     1.0000   0.0000   0.0000   0.0000   0.0000   0.0000   0.0000   0.0000
     0.0000   0.0000   0.0000   0.0000   0.0000   0.0000   0.0000   0.0000
     0.0000

          k = 0.2500 0.2035-0.0745 ( 18968 PWs)   bands (ev):

   -72.7720 -63.6872 -63.6315 -63.6062 -39.3114 -38.7230 -38.6701 -32.5053
   -32.4904 -32.4762 -28.1605 -28.0944 -28.0791 -28.0087 -27.9650 -27.9204
    -7.9798  -7.0205  -6.7725  -6.6106  -6.5496  -6.2393  -6.0041  -5.8699
     4.1976   4.3929   4.6292   5.0099   5.1834   5.5423   5.7714   6.1168
     6.4486   6.5984   6.7143   6.9082   7.4609   7.7643   8.1015   8.2126
     8.3945   8.6183   8.6768   8.9047   9.0099   9.1672   9.4914   9.6337
    10.2162  13.7869  14.1627  14.2168  14.6139  14.9370  15.2508  16.3522
    16.5571  16.9789  17.1005  17.1627  17.2382  17.7744  17.8870  18.2161
    18.5319

     occupation numbers 
     1.0000   1.0000   1.0000   1.0000   1.0000   1.0000   1.0000   1.0000
     1.0000   1.0000   1.0000   1.0000   1.0000   1.0000   1.0000   1.0000
     1.0000   1.0000   1.0000   1.0000   1.0000   1.0000   1.0000   1.0000
     1.0000   1.0000   1.0000   1.0000   1.0000   1.0000   1.0000   1.0000
     1.0000   1.0000   1.0000   1.0000   1.0000   1.0000   1.0000   1.0000
     1.0000   1.0000   1.0000   1.0000   1.0000   1.0000   1.0000   1.0000
     1.0000   0.0000   0.0000   0.0000   0.0000   0.0000   0.0000   0.0000
     0.0000   0.0000   0.0000   0.0000   0.0000   0.0000   0.0000   0.0000
     0.0000

          k = 0.2500 0.3392 0.0798 ( 18957 PWs)   bands (ev):

   -72.7720 -63.6872 -63.6315 -63.6063 -39.3114 -38.7230 -38.6701 -32.5052
   -32.4904 -32.4763 -28.1601 -28.0939 -28.0777 -28.0089 -27.9669 -27.9207
    -7.8687  -7.1813  -6.9156  -6.5376  -6.4632  -6.2311  -5.9970  -5.8508
     4.1631   4.5761   4.6653   4.8852   5.3221   5.4777   5.7330   5.9596
     6.3699   6.6150   6.7603   6.9802   7.6743   7.8219   8.0332   8.1304
     8.3091   8.6019   8.6937   8.8102   9.1615   9.2149   9.2807   9.4824
    10.2046  13.7967  14.2276  14.3138  14.6259  15.0881  15.2497  16.3795
    16.5457  17.0122  17.0672  17.1242  17.3539  17.7006  17.9819  18.2228
    18.5579

     occupation numbers 
     1.0000   1.0000   1.0000   1.0000   1.0000   1.0000   1.0000   1.0000
     1.0000   1.0000   1.0000   1.0000   1.0000   1.0000   1.0000   1.0000
     1.0000   1.0000   1.0000   1.0000   1.0000   1.0000   1.0000   1.0000
     1.0000   1.0000   1.0000   1.0000   1.0000   1.0000   1.0000   1.0000
     1.0000   1.0000   1.0000   1.0000   1.0000   1.0000   1.0000   1.0000
     1.0000   1.0000   1.0000   1.0000   1.0000   1.0000   1.0000   1.0000
     1.0000   0.0000   0.0000   0.0000   0.0000   0.0000   0.0000   0.0000
     0.0000   0.0000   0.0000   0.0000   0.0000   0.0000   0.0000   0.0000
     0.0000

          k = 0.2500 0.3392 0.2340 ( 18986 PWs)   bands (ev):

   -72.7719 -63.6871 -63.6310 -63.6066 -39.3114 -38.7230 -38.6702 -32.5053
   -32.4904 -32.4764 -28.1579 -28.1064 -28.0737 -28.0249 -27.9483 -27.9175
    -7.7183  -7.2319  -6.9184  -6.6143  -6.3304  -6.2152  -6.1706  -5.8610
     4.0924   4.3484   4.9470   5.0007   5.1200   5.5551   5.8810   6.0986
     6.2679   6.4503   6.8219   6.9960   7.6476   7.7697   8.0335   8.1997
     8.4577   8.5468   8.6626   8.8693   8.9054   9.2055   9.3066   9.4206
    10.2306  13.8633  14.3259  14.4355  14.6956  14.8755  15.1819  16.4157
    16.5737  16.9243  17.0386  17.1592  17.4058  17.6373  18.0101  18.1699
    18.3252

     occupation numbers 
     1.0000   1.0000   1.0000   1.0000   1.0000   1.0000   1.0000   1.0000
     1.0000   1.0000   1.0000   1.0000   1.0000   1.0000   1.0000   1.0000
     1.0000   1.0000   1.0000   1.0000   1.0000   1.0000   1.0000   1.0000
     1.0000   1.0000   1.0000   1.0000   1.0000   1.0000   1.0000   1.0000
     1.0000   1.0000   1.0000   1.0000   1.0000   1.0000   1.0000   1.0000
     1.0000   1.0000   1.0000   1.0000   1.0000   1.0000   1.0000   1.0000
     1.0000   0.0000   0.0000   0.0000   0.0000   0.0000   0.0000   0.0000
     0.0000   0.0000   0.0000   0.0000   0.0000   0.0000   0.0000   0.0000
     0.0000

          k = 0.2499 0.3392 0.3883 ( 18976 PWs)   bands (ev):

   -72.7719 -63.6870 -63.6305 -63.6070 -39.3114 -38.7231 -38.6702 -32.5054
   -32.4904 -32.4764 -28.1525 -28.1226 -28.0656 -28.0398 -27.9320 -27.9171
    -7.4561  -7.2962  -6.8792  -6.7780  -6.3876  -6.3172  -6.0098  -5.9631
     4.1146   4.3147   4.7825   4.9811   5.2793   5.7154   5.9993   6.0906
     6.3364   6.5990   6.7384   7.1612   7.2848   7.5080   8.0173   8.2394
     8.4190   8.5123   8.7319   8.8355   9.0205   9.0930   9.2949   9.4398
    10.2885  13.9572  14.4062  14.4881  14.5930  14.7656  15.0253  16.3972
    16.5446  16.9283  17.0217  17.1468  17.3537  17.7153  17.9377  18.1066
    18.2768

     occupation numbers 
     1.0000   1.0000   1.0000   1.0000   1.0000   1.0000   1.0000   1.0000
     1.0000   1.0000   1.0000   1.0000   1.0000   1.0000   1.0000   1.0000
     1.0000   1.0000   1.0000   1.0000   1.0000   1.0000   1.0000   1.0000
     1.0000   1.0000   1.0000   1.0000   1.0000   1.0000   1.0000   1.0000
     1.0000   1.0000   1.0000   1.0000   1.0000   1.0000   1.0000   1.0000
     1.0000   1.0000   1.0000   1.0000   1.0000   1.0000   1.0000   1.0000
     1.0000   0.0000   0.0000   0.0000   0.0000   0.0000   0.0000   0.0000
     0.0000   0.0000   0.0000   0.0000   0.0000   0.0000   0.0000   0.0000
     0.0000

          k = 0.2501 0.3392-0.3830 ( 18947 PWs)   bands (ev):

   -72.7719 -63.6870 -63.6304 -63.6069 -39.3114 -38.7231 -38.6702 -32.5054
   -32.4904 -32.4763 -28.1524 -28.1226 -28.0654 -28.0402 -27.9318 -27.9173
    -7.4659  -7.1629  -6.9812  -6.7766  -6.4262  -6.2740  -6.1644  -5.8488
     4.1810   4.4080   4.8072   4.9415   5.2732   5.5776   5.9086   6.1568
     6.3336   6.6400   6.8318   6.9976   7.3744   7.6962   8.0112   8.1168
     8.3852   8.5285   8.7083   8.7654   8.9422   9.0830   9.2923   9.5568
    10.3214  14.0174  14.1330  14.5736  14.6616  14.7452  14.8458  16.4392
    16.4871  16.9454  17.0089  17.1303  17.2692  17.7741  17.9710  18.0646
    18.4958

     occupation numbers 
     1.0000   1.0000   1.0000   1.0000   1.0000   1.0000   1.0000   1.0000
     1.0000   1.0000   1.0000   1.0000   1.0000   1.0000   1.0000   1.0000
     1.0000   1.0000   1.0000   1.0000   1.0000   1.0000   1.0000   1.0000
     1.0000   1.0000   1.0000   1.0000   1.0000   1.0000   1.0000   1.0000
     1.0000   1.0000   1.0000   1.0000   1.0000   1.0000   1.0000   1.0000
     1.0000   1.0000   1.0000   1.0000   1.0000   1.0000   1.0000   1.0000
     1.0000   0.0000   0.0000   0.0000   0.0000   0.0000   0.0000   0.0000
     0.0000   0.0000   0.0000   0.0000   0.0000   0.0000   0.0000   0.0000
     0.0000

          k = 0.2500 0.3392-0.2287 ( 18954 PWs)   bands (ev):

   -72.7719 -63.6871 -63.6309 -63.6065 -39.3114 -38.7231 -38.6702 -32.5054
   -32.4904 -32.4763 -28.1578 -28.1064 -28.0736 -28.0255 -27.9480 -27.9177
    -7.7031  -7.0964  -6.9051  -6.6707  -6.5069  -6.3246  -6.0811  -5.7977
     4.2864   4.4285   4.8071   5.0700   5.2902   5.4274   5.6751   6.0535
     6.2055   6.5340   6.8775   7.1162   7.6132   7.8641   8.0359   8.1841
     8.3327   8.5310   8.6717   8.7685   8.8578   8.9765   9.4693   9.5700
    10.2619  13.7652  14.2612  14.4909  14.5954  14.8146  14.9614  16.3699
    16.5782  16.9007  17.0455  17.1885  17.2160  17.7285  17.9647  18.1812
    18.8149

     occupation numbers 
     1.0000   1.0000   1.0000   1.0000   1.0000   1.0000   1.0000   1.0000
     1.0000   1.0000   1.0000   1.0000   1.0000   1.0000   1.0000   1.0000
     1.0000   1.0000   1.0000   1.0000   1.0000   1.0000   1.0000   1.0000
     1.0000   1.0000   1.0000   1.0000   1.0000   1.0000   1.0000   1.0000
     1.0000   1.0000   1.0000   1.0000   1.0000   1.0000   1.0000   1.0000
     1.0000   1.0000   1.0000   1.0000   1.0000   1.0000   1.0000   1.0000
     1.0000   0.0000   0.0000   0.0000   0.0000   0.0000   0.0000   0.0000
     0.0000   0.0000   0.0000   0.0000   0.0000   0.0000   0.0000   0.0000
     0.0000

          k = 0.2500 0.3392-0.0745 ( 18957 PWs)   bands (ev):

   -72.7720 -63.6872 -63.6314 -63.6062 -39.3114 -38.7230 -38.6701 -32.5053
   -32.4905 -32.4762 -28.1600 -28.0939 -28.0776 -28.0093 -27.9666 -27.9208
    -7.8616  -7.1509  -6.7656  -6.6870  -6.5649  -6.2276  -5.9702  -5.8301
     4.2523   4.5866   4.6698   5.0037   5.1490   5.5019   5.7278   5.9279
     6.4754   6.5447   6.6947   7.0868   7.6059   7.7861   8.1172   8.1597
     8.2531   8.4925   8.7340   8.8696   9.0175   9.1589   9.4012   9.5329
    10.2091  13.7151  14.2488  14.3425  14.5671  15.0263  15.1730  16.3052
    16.5883  16.9789  17.1039  17.1449  17.2476  17.7558  17.9054  18.2612
    18.7880

     occupation numbers 
     1.0000   1.0000   1.0000   1.0000   1.0000   1.0000   1.0000   1.0000
     1.0000   1.0000   1.0000   1.0000   1.0000   1.0000   1.0000   1.0000
     1.0000   1.0000   1.0000   1.0000   1.0000   1.0000   1.0000   1.0000
     1.0000   1.0000   1.0000   1.0000   1.0000   1.0000   1.0000   1.0000
     1.0000   1.0000   1.0000   1.0000   1.0000   1.0000   1.0000   1.0000
     1.0000   1.0000   1.0000   1.0000   1.0000   1.0000   1.0000   1.0000
     1.0000   0.0000   0.0000   0.0000   0.0000   0.0000   0.0000   0.0000
     0.0000   0.0000   0.0000   0.0000   0.0000   0.0000   0.0000   0.0000
     0.0000

          k = 0.4166 0.0678 0.0816 ( 19004 PWs)   bands (ev):

   -72.7720 -63.6872 -63.6316 -63.6063 -39.3114 -38.7231 -38.6701 -32.5053
   -32.4904 -32.4763 -28.1608 -28.0957 -28.0805 -28.0088 -27.9634 -27.9200
    -7.8799  -6.9945  -6.9114  -6.6609  -6.3690  -6.1521  -6.1285  -5.9543
     4.2851   4.4612   4.5900   5.0894   5.2437   5.4641   5.6829   5.8629
     6.1011   6.4621   6.7451   7.4821   7.5834   7.8487   7.9175   8.2596
     8.4324   8.5074   8.7361   8.7960   8.9571   9.2893   9.5024   9.7029
    10.3916  13.8855  14.1639  14.3039  14.6729  14.8648  15.2737  16.4108
    16.5225  16.9875  17.0285  17.1185  17.3012  17.8558  17.9562  18.1278
    18.4930

     occupation numbers 
     1.0000   1.0000   1.0000   1.0000   1.0000   1.0000   1.0000   1.0000
     1.0000   1.0000   1.0000   1.0000   1.0000   1.0000   1.0000   1.0000
     1.0000   1.0000   1.0000   1.0000   1.0000   1.0000   1.0000   1.0000
     1.0000   1.0000   1.0000   1.0000   1.0000   1.0000   1.0000   1.0000
     1.0000   1.0000   1.0000   1.0000   1.0000   1.0000   1.0000   1.0000
     1.0000   1.0000   1.0000   1.0000   1.0000   1.0000   1.0000   1.0000
     1.0000   0.0000   0.0000   0.0000   0.0000   0.0000   0.0000   0.0000
     0.0000   0.0000   0.0000   0.0000   0.0000   0.0000   0.0000   0.0000
     0.0000

          k = 0.4166 0.0678 0.2358 ( 18994 PWs)   bands (ev):

   -72.7719 -63.6871 -63.6310 -63.6066 -39.3114 -38.7231 -38.6702 -32.5054
   -32.4904 -32.4764 -28.1573 -28.1061 -28.0758 -28.0246 -27.9477 -27.9186
    -7.6984  -7.0259  -6.8835  -6.7507  -6.5289  -6.2318  -5.9925  -5.9470
     4.2511   4.5294   4.8087   4.9815   5.0450   5.3010   5.5461   5.6516
     6.3674   6.7868   7.1043   7.3925   7.5096   7.5396   7.8566   8.1523
     8.5530   8.5679   8.8230   8.9295   9.0459   9.1196   9.4530   9.6914
    10.4362  13.8514  14.0961  14.4493  14.6731  14.8899  15.2178  16.3472
    16.5055  16.9745  17.0433  17.0944  17.3305  17.7836  17.8910  18.1386
    18.4148

     occupation numbers 
     1.0000   1.0000   1.0000   1.0000   1.0000   1.0000   1.0000   1.0000
     1.0000   1.0000   1.0000   1.0000   1.0000   1.0000   1.0000   1.0000
     1.0000   1.0000   1.0000   1.0000   1.0000   1.0000   1.0000   1.0000
     1.0000   1.0000   1.0000   1.0000   1.0000   1.0000   1.0000   1.0000
     1.0000   1.0000   1.0000   1.0000   1.0000   1.0000   1.0000   1.0000
     1.0000   1.0000   1.0000   1.0000   1.0000   1.0000   1.0000   1.0000
     1.0000   0.0000   0.0000   0.0000   0.0000   0.0000   0.0000   0.0000
     0.0000   0.0000   0.0000   0.0000   0.0000   0.0000   0.0000   0.0000
     0.0000

          k = 0.4166 0.0678 0.3901 ( 18964 PWs)   bands (ev):

   -72.7719 -63.6870 -63.6303 -63.6069 -39.3114 -38.7231 -38.6702 -32.5055
   -32.4903 -32.4765 -28.1506 -28.1203 -28.0664 -28.0406 -27.9337 -27.9194
    -7.3854  -7.0828  -6.9596  -6.8248  -6.6111  -6.3856  -5.9255  -5.8984
     4.2991   4.4335   4.5478   4.6634   5.3181   5.6393   5.7559   5.9548
     6.4336   6.7752   6.9145   7.0866   7.2153   7.3490   8.0539   8.2734
     8.3703   8.6935   8.8437   8.9900   9.1416   9.1783   9.3858   9.6293
    10.5503  13.9308  13.9746  14.5386  14.7478  14.8387  15.0352  16.3756
    16.4527  16.9395  17.0295  17.1366  17.3476  17.7118  17.9143  18.1078
    18.3506

     occupation numbers 
     1.0000   1.0000   1.0000   1.0000   1.0000   1.0000   1.0000   1.0000
     1.0000   1.0000   1.0000   1.0000   1.0000   1.0000   1.0000   1.0000
     1.0000   1.0000   1.0000   1.0000   1.0000   1.0000   1.0000   1.0000
     1.0000   1.0000   1.0000   1.0000   1.0000   1.0000   1.0000   1.0000
     1.0000   1.0000   1.0000   1.0000   1.0000   1.0000   1.0000   1.0000
     1.0000   1.0000   1.0000   1.0000   1.0000   1.0000   1.0000   1.0000
     1.0000   0.0000   0.0000   0.0000   0.0000   0.0000   0.0000   0.0000
     0.0000   0.0000   0.0000   0.0000   0.0000   0.0000   0.0000   0.0000
     0.0000

          k = 0.4167 0.0678-0.3812 ( 18982 PWs)   bands (ev):

   -72.7719 -63.6870 -63.6303 -63.6069 -39.3114 -38.7231 -38.6702 -32.5055
   -32.4903 -32.4765 -28.1507 -28.1203 -28.0662 -28.0408 -27.9336 -27.9195
    -7.4098  -7.0746  -6.8725  -6.8207  -6.5741  -6.5111  -5.9291  -5.8893
     4.2106   4.3459   4.6126   4.6983   5.5984   5.7419   5.8227   5.9943
     6.3611   6.5977   6.8354   6.9551   7.1435   7.4279   8.0487   8.2014
     8.5050   8.7312   8.8113   8.9018   9.1202   9.2478   9.3642   9.6327
    10.5765  13.8665  14.0673  14.5048  14.7021  14.7738  15.0626  16.3814
    16.4595  16.9565  17.0332  17.1662  17.3129  17.7270  17.9996  18.1048
    18.3124

     occupation numbers 
     1.0000   1.0000   1.0000   1.0000   1.0000   1.0000   1.0000   1.0000
     1.0000   1.0000   1.0000   1.0000   1.0000   1.0000   1.0000   1.0000
     1.0000   1.0000   1.0000   1.0000   1.0000   1.0000   1.0000   1.0000
     1.0000   1.0000   1.0000   1.0000   1.0000   1.0000   1.0000   1.0000
     1.0000   1.0000   1.0000   1.0000   1.0000   1.0000   1.0000   1.0000
     1.0000   1.0000   1.0000   1.0000   1.0000   1.0000   1.0000   1.0000
     1.0000   0.0000   0.0000   0.0000   0.0000   0.0000   0.0000   0.0000
     0.0000   0.0000   0.0000   0.0000   0.0000   0.0000   0.0000   0.0000
     0.0000

          k = 0.4167 0.0678-0.2269 ( 18981 PWs)   bands (ev):

   -72.7719 -63.6871 -63.6310 -63.6065 -39.3114 -38.7231 -38.6702 -32.5054
   -32.4904 -32.4764 -28.1573 -28.1062 -28.0756 -28.0249 -27.9475 -27.9187
    -7.7122  -7.0092  -6.7508  -6.6761  -6.6530  -6.3514  -5.9903  -5.9315
     4.1573   4.3203   4.7701   5.2157   5.2376   5.5110   5.6996   6.0222
     6.1837   6.5587   6.8488   7.0809   7.5027   7.6383   7.8950   8.0217
     8.4521   8.7498   8.8291   8.9021   9.0319   9.1324   9.4679   9.7200
    10.4844  13.8795  14.1640  14.2784  14.5627  14.8778  15.2134  16.3722
    16.5073  16.9940  17.0562  17.1682  17.2755  17.7834  18.0010  18.1022
    18.4559

     occupation numbers 
     1.0000   1.0000   1.0000   1.0000   1.0000   1.0000   1.0000   1.0000
     1.0000   1.0000   1.0000   1.0000   1.0000   1.0000   1.0000   1.0000
     1.0000   1.0000   1.0000   1.0000   1.0000   1.0000   1.0000   1.0000
     1.0000   1.0000   1.0000   1.0000   1.0000   1.0000   1.0000   1.0000
     1.0000   1.0000   1.0000   1.0000   1.0000   1.0000   1.0000   1.0000
     1.0000   1.0000   1.0000   1.0000   1.0000   1.0000   1.0000   1.0000
     1.0000   0.0000   0.0000   0.0000   0.0000   0.0000   0.0000   0.0000
     0.0000   0.0000   0.0000   0.0000   0.0000   0.0000   0.0000   0.0000
     0.0000

          k = 0.4167 0.0678-0.0727 ( 19010 PWs)   bands (ev):

   -72.7720 -63.6872 -63.6316 -63.6063 -39.3114 -38.7231 -38.6701 -32.5053
   -32.4904 -32.4763 -28.1608 -28.0958 -28.0804 -28.0089 -27.9633 -27.9201
    -7.8842  -6.9906  -6.8616  -6.6407  -6.4377  -6.1907  -6.0938  -5.9594
     4.2299   4.3941   4.5362   5.2469   5.4623   5.5467   5.6598   5.9165
     6.1935   6.3763   6.5759   7.3155   7.6113   7.7191   7.9617   8.1501
     8.4630   8.5611   8.7332   8.8557   8.9436   9.2380   9.5789   9.7164
    10.4090  14.0208  14.0697  14.2073  14.5988  14.8860  15.2670  16.4372
    16.5086  16.9678  17.0825  17.1513  17.2687  17.8660  17.9724  18.0899
    18.5771

     occupation numbers 
     1.0000   1.0000   1.0000   1.0000   1.0000   1.0000   1.0000   1.0000
     1.0000   1.0000   1.0000   1.0000   1.0000   1.0000   1.0000   1.0000
     1.0000   1.0000   1.0000   1.0000   1.0000   1.0000   1.0000   1.0000
     1.0000   1.0000   1.0000   1.0000   1.0000   1.0000   1.0000   1.0000
     1.0000   1.0000   1.0000   1.0000   1.0000   1.0000   1.0000   1.0000
     1.0000   1.0000   1.0000   1.0000   1.0000   1.0000   1.0000   1.0000
     1.0000   0.0000   0.0000   0.0000   0.0000   0.0000   0.0000   0.0000
     0.0000   0.0000   0.0000   0.0000   0.0000   0.0000   0.0000   0.0000
     0.0000

          k = 0.4166 0.2035 0.0816 ( 18961 PWs)   bands (ev):

   -72.7720 -63.6872 -63.6315 -63.6062 -39.3114 -38.7231 -38.6701 -32.5053
   -32.4904 -32.4763 -28.1605 -28.0953 -28.0791 -28.0093 -27.9650 -27.9204
    -7.8176  -7.0535  -6.9617  -6.5903  -6.4203  -6.1755  -6.1052  -5.9368
     4.0737   4.5181   4.6898   5.1992   5.3023   5.5742   5.7596   5.8954
     6.2043   6.3231   7.0661   7.1253   7.4440   7.6848   7.9010   8.1195
     8.4892   8.5941   8.6874   8.8264   9.0058   9.1920   9.4877   9.6667
    10.3808  13.8700  14.1605  14.2719  14.7427  14.7840  15.4083  16.4244
    16.5088  16.9562  17.0738  17.1053  17.2841  17.7181  17.9497  18.2100
    18.6243

     occupation numbers 
     1.0000   1.0000   1.0000   1.0000   1.0000   1.0000   1.0000   1.0000
     1.0000   1.0000   1.0000   1.0000   1.0000   1.0000   1.0000   1.0000
     1.0000   1.0000   1.0000   1.0000   1.0000   1.0000   1.0000   1.0000
     1.0000   1.0000   1.0000   1.0000   1.0000   1.0000   1.0000   1.0000
     1.0000   1.0000   1.0000   1.0000   1.0000   1.0000   1.0000   1.0000
     1.0000   1.0000   1.0000   1.0000   1.0000   1.0000   1.0000   1.0000
     1.0000   0.0000   0.0000   0.0000   0.0000   0.0000   0.0000   0.0000
     0.0000   0.0000   0.0000   0.0000   0.0000   0.0000   0.0000   0.0000
     0.0000

          k = 0.4166 0.2035 0.2358 ( 18964 PWs)   bands (ev):

   -72.7719 -63.6871 -63.6309 -63.6065 -39.3114 -38.7231 -38.6702 -32.5054
   -32.4904 -32.4764 -28.1577 -28.1063 -28.0751 -28.0253 -27.9480 -27.9180
    -7.6546  -7.1252  -6.9000  -6.6870  -6.4738  -6.2341  -6.0513  -5.9409
     4.0898   4.6012   4.7208   5.0295   5.0829   5.4501   5.6898   5.9766
     6.2229   6.5723   6.9872   7.3691   7.5033   7.7734   7.8965   8.1894
     8.3735   8.5058   8.8260   8.8794   8.9551   9.1382   9.3623   9.6195
    10.4168  13.8505  14.1741  14.4312  14.6670  14.7665  15.3228  16.3582
    16.4820  16.9002  17.0077  17.1080  17.3649  17.7087  17.9674  18.1475
    18.4344

     occupation numbers 
     1.0000   1.0000   1.0000   1.0000   1.0000   1.0000   1.0000   1.0000
     1.0000   1.0000   1.0000   1.0000   1.0000   1.0000   1.0000   1.0000
     1.0000   1.0000   1.0000   1.0000   1.0000   1.0000   1.0000   1.0000
     1.0000   1.0000   1.0000   1.0000   1.0000   1.0000   1.0000   1.0000
     1.0000   1.0000   1.0000   1.0000   1.0000   1.0000   1.0000   1.0000
     1.0000   1.0000   1.0000   1.0000   1.0000   1.0000   1.0000   1.0000
     1.0000   0.0000   0.0000   0.0000   0.0000   0.0000   0.0000   0.0000
     0.0000   0.0000   0.0000   0.0000   0.0000   0.0000   0.0000   0.0000
     0.0000

          k = 0.4166 0.2035 0.3901 ( 18982 PWs)   bands (ev):

   -72.7719 -63.6870 -63.6302 -63.6068 -39.3114 -38.7231 -38.6702 -32.5055
   -32.4903 -32.4765 -28.1516 -28.1214 -28.0663 -28.0407 -27.9328 -27.9183
    -7.3800  -7.1741  -6.9304  -6.8185  -6.5113  -6.3440  -5.9764  -5.9446
     4.1919   4.5211   4.5502   4.7609   5.1622   5.6167   5.8810   5.9687
     6.4853   6.6671   6.8788   7.1771   7.4801   7.5910   7.9955   8.2011
     8.3754   8.4997   8.8136   8.9513   9.0477   9.1573   9.2592   9.5447
    10.5006  13.9529  14.0799  14.4852  14.6252  14.7974  15.1096  16.3399
    16.4095  16.8609  16.9869  17.0975  17.3892  17.7446  17.9429  18.0590
    18.4724

     occupation numbers 
     1.0000   1.0000   1.0000   1.0000   1.0000   1.0000   1.0000   1.0000
     1.0000   1.0000   1.0000   1.0000   1.0000   1.0000   1.0000   1.0000
     1.0000   1.0000   1.0000   1.0000   1.0000   1.0000   1.0000   1.0000
     1.0000   1.0000   1.0000   1.0000   1.0000   1.0000   1.0000   1.0000
     1.0000   1.0000   1.0000   1.0000   1.0000   1.0000   1.0000   1.0000
     1.0000   1.0000   1.0000   1.0000   1.0000   1.0000   1.0000   1.0000
     1.0000   0.0000   0.0000   0.0000   0.0000   0.0000   0.0000   0.0000
     0.0000   0.0000   0.0000   0.0000   0.0000   0.0000   0.0000   0.0000
     0.0000

          k = 0.4167 0.2035-0.3812 ( 18972 PWs)   bands (ev):

   -72.7719 -63.6870 -63.6302 -63.6068 -39.3114 -38.7231 -38.6702 -32.5055
   -32.4903 -32.4765 -28.1516 -28.1214 -28.0662 -28.0409 -27.9327 -27.9184
    -7.3914  -7.1387  -6.9161  -6.8100  -6.4886  -6.4337  -6.0067  -5.9014
     4.2134   4.4723   4.5615   4.7435   5.3673   5.5650   5.8394   5.9344
     6.5221   6.7992   6.9134   7.0327   7.3352   7.6957   7.9485   8.0941
     8.4378   8.5962   8.7156   8.8708   9.1242   9.1533   9.2701   9.5569
    10.5199  13.9145  14.1299  14.4200  14.6329  14.8057  15.0342  16.3499
    16.4159  16.8879  16.9664  17.1190  17.3438  17.7489  18.0126  18.0509
    18.4912

     occupation numbers 
     1.0000   1.0000   1.0000   1.0000   1.0000   1.0000   1.0000   1.0000
     1.0000   1.0000   1.0000   1.0000   1.0000   1.0000   1.0000   1.0000
     1.0000   1.0000   1.0000   1.0000   1.0000   1.0000   1.0000   1.0000
     1.0000   1.0000   1.0000   1.0000   1.0000   1.0000   1.0000   1.0000
     1.0000   1.0000   1.0000   1.0000   1.0000   1.0000   1.0000   1.0000
     1.0000   1.0000   1.0000   1.0000   1.0000   1.0000   1.0000   1.0000
     1.0000   0.0000   0.0000   0.0000   0.0000   0.0000   0.0000   0.0000
     0.0000   0.0000   0.0000   0.0000   0.0000   0.0000   0.0000   0.0000
     0.0000

          k = 0.4167 0.2035-0.2269 ( 18964 PWs)   bands (ev):

   -72.7719 -63.6871 -63.6308 -63.6065 -39.3114 -38.7231 -38.6702 -32.5054
   -32.4904 -32.4764 -28.1577 -28.1064 -28.0749 -28.0256 -27.9478 -27.9182
    -7.6576  -7.0962  -6.7776  -6.6945  -6.5907  -6.3179  -6.0412  -5.9057
     4.1037   4.5093   4.7430   5.0900   5.1919   5.5539   5.6956   5.9097
     6.4527   6.6052   6.7409   7.3045   7.4469   7.7465   7.9436   8.0713
     8.3249   8.5214   8.7044   8.8546   9.1026   9.1585   9.3712   9.6548
    10.4421  13.8405  14.2164  14.3320  14.5507  14.8098  15.2322  16.3663
    16.4983  16.9342  17.0024  17.1510  17.2732  17.7529  17.9576  18.1611
    18.5104

     occupation numbers 
     1.0000   1.0000   1.0000   1.0000   1.0000   1.0000   1.0000   1.0000
     1.0000   1.0000   1.0000   1.0000   1.0000   1.0000   1.0000   1.0000
     1.0000   1.0000   1.0000   1.0000   1.0000   1.0000   1.0000   1.0000
     1.0000   1.0000   1.0000   1.0000   1.0000   1.0000   1.0000   1.0000
     1.0000   1.0000   1.0000   1.0000   1.0000   1.0000   1.0000   1.0000
     1.0000   1.0000   1.0000   1.0000   1.0000   1.0000   1.0000   1.0000
     1.0000   0.0000   0.0000   0.0000   0.0000   0.0000   0.0000   0.0000
     0.0000   0.0000   0.0000   0.0000   0.0000   0.0000   0.0000   0.0000
     0.0000

          k = 0.4167 0.2035-0.0727 ( 18978 PWs)   bands (ev):

   -72.7720 -63.6872 -63.6314 -63.6062 -39.3114 -38.7231 -38.6701 -32.5053
   -32.4904 -32.4763 -28.1605 -28.0954 -28.0791 -28.0095 -27.9649 -27.9204
    -7.8181  -7.0600  -6.8885  -6.5874  -6.5063  -6.2082  -6.0665  -5.9329
     4.0750   4.4859   4.7016   5.2283   5.4365   5.5019   5.6792   6.0563
     6.2143   6.4750   6.7556   7.1295   7.4901   7.6246   7.8952   8.1252
     8.4451   8.5138   8.7213   8.8408   9.0614   9.1630   9.5423   9.6697
    10.3863  13.8936  14.1244  14.2634  14.6075  14.8614  15.3694  16.4272
    16.5049  16.9727  17.0885  17.1559  17.2062  17.7919  17.8618  18.2156
    18.6803

     occupation numbers 
     1.0000   1.0000   1.0000   1.0000   1.0000   1.0000   1.0000   1.0000
     1.0000   1.0000   1.0000   1.0000   1.0000   1.0000   1.0000   1.0000
     1.0000   1.0000   1.0000   1.0000   1.0000   1.0000   1.0000   1.0000
     1.0000   1.0000   1.0000   1.0000   1.0000   1.0000   1.0000   1.0000
     1.0000   1.0000   1.0000   1.0000   1.0000   1.0000   1.0000   1.0000
     1.0000   1.0000   1.0000   1.0000   1.0000   1.0000   1.0000   1.0000
     1.0000   0.0000   0.0000   0.0000   0.0000   0.0000   0.0000   0.0000
     0.0000   0.0000   0.0000   0.0000   0.0000   0.0000   0.0000   0.0000
     0.0000

          k = 0.4166 0.3392 0.0816 ( 18948 PWs)   bands (ev):

   -72.7720 -63.6872 -63.6313 -63.6061 -39.3114 -38.7231 -38.6701 -32.5053
   -32.4905 -32.4763 -28.1602 -28.0949 -28.0777 -28.0099 -27.9666 -27.9208
    -7.7441  -7.1381  -6.9600  -6.5724  -6.4705  -6.2040  -6.0274  -5.9547
     3.9039   4.6673   4.7413   5.2593   5.3150   5.5175   5.8895   6.1626
     6.2241   6.5021   6.7206   7.0650   7.4245   7.6079   7.8806   7.9627
     8.2959   8.5452   8.7159   8.8336   9.0823   9.2957   9.4626   9.6021
    10.3581  13.7983  14.2496  14.2982  14.5903  14.8643  15.4967  16.4175
    16.5352  16.9248  17.0292  17.1369  17.3149  17.6214  17.9437  18.2268
    18.4634

     occupation numbers 
     1.0000   1.0000   1.0000   1.0000   1.0000   1.0000   1.0000   1.0000
     1.0000   1.0000   1.0000   1.0000   1.0000   1.0000   1.0000   1.0000
     1.0000   1.0000   1.0000   1.0000   1.0000   1.0000   1.0000   1.0000
     1.0000   1.0000   1.0000   1.0000   1.0000   1.0000   1.0000   1.0000
     1.0000   1.0000   1.0000   1.0000   1.0000   1.0000   1.0000   1.0000
     1.0000   1.0000   1.0000   1.0000   1.0000   1.0000   1.0000   1.0000
     1.0000   0.0000   0.0000   0.0000   0.0000   0.0000   0.0000   0.0000
     0.0000   0.0000   0.0000   0.0000   0.0000   0.0000   0.0000   0.0000
     0.0000

          k = 0.4166 0.3392 0.2358 ( 18956 PWs)   bands (ev):

   -72.7719 -63.6871 -63.6307 -63.6064 -39.3114 -38.7231 -38.6702 -32.5054
   -32.4904 -32.4764 -28.1580 -28.1066 -28.0744 -28.0259 -27.9482 -27.9176
    -7.6045  -7.2061  -6.8966  -6.6745  -6.3919  -6.2760  -6.0786  -5.9470
     3.9516   4.5254   4.8477   5.1055   5.1266   5.5850   5.8563   5.9601
     6.3839   6.6359   6.6558   7.1855   7.6327   7.7856   7.9209   8.1620
     8.3123   8.5106   8.6633   8.8846   8.9610   9.1907   9.2942   9.5207
    10.3701  13.8486  14.2683  14.4281  14.5947  14.7143  15.3799  16.3725
    16.4812  16.8479  16.9265  17.1310  17.4114  17.6476  17.9938  18.1729
    18.3372

     occupation numbers 
     1.0000   1.0000   1.0000   1.0000   1.0000   1.0000   1.0000   1.0000
     1.0000   1.0000   1.0000   1.0000   1.0000   1.0000   1.0000   1.0000
     1.0000   1.0000   1.0000   1.0000   1.0000   1.0000   1.0000   1.0000
     1.0000   1.0000   1.0000   1.0000   1.0000   1.0000   1.0000   1.0000
     1.0000   1.0000   1.0000   1.0000   1.0000   1.0000   1.0000   1.0000
     1.0000   1.0000   1.0000   1.0000   1.0000   1.0000   1.0000   1.0000
     1.0000   0.0000   0.0000   0.0000   0.0000   0.0000   0.0000   0.0000
     0.0000   0.0000   0.0000   0.0000   0.0000   0.0000   0.0000   0.0000
     0.0000

          k = 0.4166 0.3392 0.3901 ( 18971 PWs)   bands (ev):

   -72.7718 -63.6870 -63.6301 -63.6067 -39.3114 -38.7231 -38.6702 -32.5055
   -32.4904 -32.4765 -28.1525 -28.1226 -28.0664 -28.0409 -27.9319 -27.9172
    -7.3747  -7.2469  -6.8789  -6.8262  -6.4076  -6.3284  -6.0307  -5.9918
     4.1354   4.4263   4.6066   4.7984   5.3332   5.6656   5.7507   6.0930
     6.2820   6.7260   6.9711   7.2687   7.5018   7.7951   8.0480   8.1993
     8.2822   8.4589   8.7114   8.8525   9.0296   9.0799   9.1704   9.4581
    10.4251  13.9760  14.2266  14.3821  14.5161  14.7694  15.1547  16.3120
    16.3825  16.7993  16.9227  17.0648  17.4266  17.7745  17.9507  18.0346
    18.4716

     occupation numbers 
     1.0000   1.0000   1.0000   1.0000   1.0000   1.0000   1.0000   1.0000
     1.0000   1.0000   1.0000   1.0000   1.0000   1.0000   1.0000   1.0000
     1.0000   1.0000   1.0000   1.0000   1.0000   1.0000   1.0000   1.0000
     1.0000   1.0000   1.0000   1.0000   1.0000   1.0000   1.0000   1.0000
     1.0000   1.0000   1.0000   1.0000   1.0000   1.0000   1.0000   1.0000
     1.0000   1.0000   1.0000   1.0000   1.0000   1.0000   1.0000   1.0000
     1.0000   0.0000   0.0000   0.0000   0.0000   0.0000   0.0000   0.0000
     0.0000   0.0000   0.0000   0.0000   0.0000   0.0000   0.0000   0.0000
     0.0000

          k = 0.4167 0.3392-0.3812 ( 18959 PWs)   bands (ev):

   -72.7718 -63.6870 -63.6301 -63.6067 -39.3114 -38.7231 -38.6702 -32.5055
   -32.4904 -32.4765 -28.1525 -28.1226 -28.0663 -28.0411 -27.9318 -27.9173
    -7.3796  -7.1921  -6.9036  -6.8266  -6.4128  -6.3750  -6.0756  -5.9266
     4.2708   4.4136   4.5935   4.7341   5.2859   5.6255   5.8049   5.9848
     6.3968   6.7125   7.0830   7.1683   7.6383   7.8042   8.0066   8.0789
     8.3762   8.4579   8.5920   8.8609   8.9941   9.0313   9.2184   9.5094
    10.4468  13.9546  14.1899  14.3829  14.5025  14.8586  14.9980  16.3370
    16.3635  16.8329  16.9048  17.0669  17.3774  17.7901  17.9917  18.0121
    18.6234

     occupation numbers 
     1.0000   1.0000   1.0000   1.0000   1.0000   1.0000   1.0000   1.0000
     1.0000   1.0000   1.0000   1.0000   1.0000   1.0000   1.0000   1.0000
     1.0000   1.0000   1.0000   1.0000   1.0000   1.0000   1.0000   1.0000
     1.0000   1.0000   1.0000   1.0000   1.0000   1.0000   1.0000   1.0000
     1.0000   1.0000   1.0000   1.0000   1.0000   1.0000   1.0000   1.0000
     1.0000   1.0000   1.0000   1.0000   1.0000   1.0000   1.0000   1.0000
     1.0000   0.0000   0.0000   0.0000   0.0000   0.0000   0.0000   0.0000
     0.0000   0.0000   0.0000   0.0000   0.0000   0.0000   0.0000   0.0000
     0.0000

          k = 0.4167 0.3392-0.2269 ( 18957 PWs)   bands (ev):

   -72.7719 -63.6871 -63.6307 -63.6064 -39.3114 -38.7231 -38.6702 -32.5054
   -32.4904 -32.4764 -28.1579 -28.1067 -28.0744 -28.0262 -27.9480 -27.9177
    -7.5946  -7.1648  -6.8125  -6.7037  -6.5526  -6.3141  -6.0426  -5.9029
     4.0600   4.5968   4.8130   5.0587   5.1974   5.3095   5.9301   6.0143
     6.3501   6.5364   6.8899   7.3561   7.4426   7.8092   8.0171   8.1020
     8.2666   8.3967   8.5925   8.7834   9.0738   9.2032   9.2892   9.5874
    10.3857  13.7867  14.3067  14.3911  14.5143  14.7487  15.2239  16.3580
    16.4954  16.8669  16.9517  17.1302  17.2902  17.7465  17.9064  18.1732
    18.5987

     occupation numbers 
     1.0000   1.0000   1.0000   1.0000   1.0000   1.0000   1.0000   1.0000
     1.0000   1.0000   1.0000   1.0000   1.0000   1.0000   1.0000   1.0000
     1.0000   1.0000   1.0000   1.0000   1.0000   1.0000   1.0000   1.0000
     1.0000   1.0000   1.0000   1.0000   1.0000   1.0000   1.0000   1.0000
     1.0000   1.0000   1.0000   1.0000   1.0000   1.0000   1.0000   1.0000
     1.0000   1.0000   1.0000   1.0000   1.0000   1.0000   1.0000   1.0000
     1.0000   0.0000   0.0000   0.0000   0.0000   0.0000   0.0000   0.0000
     0.0000   0.0000   0.0000   0.0000   0.0000   0.0000   0.0000   0.0000
     0.0000

          k = 0.4167 0.3392-0.0727 ( 18963 PWs)   bands (ev):

   -72.7720 -63.6872 -63.6313 -63.6061 -39.3114 -38.7231 -38.6701 -32.5053
   -32.4905 -32.4763 -28.1602 -28.0949 -28.0777 -28.0101 -27.9665 -27.9208
    -7.7396  -7.1366  -6.8856  -6.5873  -6.5709  -6.2178  -5.9993  -5.9403
     3.9429   4.6616   4.7928   5.2265   5.3504   5.4120   5.8818   6.1559
     6.2492   6.5700   6.7295   7.1031   7.4501   7.5297   7.8572   7.9625
     8.2812   8.4491   8.6730   8.9894   9.0885   9.2414   9.4879   9.6097
    10.3544  13.7615  14.2770  14.3135  14.5152  14.8749  15.4323  16.3873
    16.5498  16.9332  17.0726  17.1529  17.2079  17.7339  17.8079  18.2780
    18.5903

     occupation numbers 
     1.0000   1.0000   1.0000   1.0000   1.0000   1.0000   1.0000   1.0000
     1.0000   1.0000   1.0000   1.0000   1.0000   1.0000   1.0000   1.0000
     1.0000   1.0000   1.0000   1.0000   1.0000   1.0000   1.0000   1.0000
     1.0000   1.0000   1.0000   1.0000   1.0000   1.0000   1.0000   1.0000
     1.0000   1.0000   1.0000   1.0000   1.0000   1.0000   1.0000   1.0000
     1.0000   1.0000   1.0000   1.0000   1.0000   1.0000   1.0000   1.0000
     1.0000   0.0000   0.0000   0.0000   0.0000   0.0000   0.0000   0.0000
     0.0000   0.0000   0.0000   0.0000   0.0000   0.0000   0.0000   0.0000
     0.0000

     the Fermi energy is    12.6132 ev

!    total energy              =   -1035.27453021 Ry
     estimated scf accuracy    <          3.4E-11 Ry
     smearing contrib. (-TS)   =       0.00000000 Ry
     internal energy E=F+TS    =   -1035.27453021 Ry

     The total energy is F=E-TS. E is the sum of the following terms:
     one-electron contribution =    -398.43101476 Ry
     hartree contribution      =     257.43313151 Ry
     xc contribution           =    -204.02437458 Ry
     ewald contribution        =    -690.37209177 Ry
     Hubbard energy            =       0.11981939 Ry

     total magnetization       =     9.00 Bohr mag/cell
     absolute magnetization    =     9.02 Bohr mag/cell

     convergence has been achieved in  28 iterations

     Writing all to output data dir ./tmp/MnFeWO4_FM/MnFeWO4_FM.save/ :
     XML data file, charge density, pseudopotentials, collected wavefunctions
 
     init_run     :      5.88s CPU      6.07s WALL (       1 calls)
     electrons    :    469.26s CPU    473.37s WALL (       1 calls)

     Called by init_run:
     wfcinit      :      5.80s CPU      5.95s WALL (       1 calls)
     wfcinit:atom :      0.03s CPU      0.03s WALL (     108 calls)
     wfcinit:wfcr :      4.62s CPU      4.74s WALL (     108 calls)
     potinit      :      0.02s CPU      0.04s WALL (       1 calls)
     hinit0       :      0.02s CPU      0.02s WALL (       1 calls)

     Called by electrons:
     c_bands      :    422.29s CPU    425.79s WALL (      28 calls)
     sum_band     :     46.04s CPU     46.54s WALL (      28 calls)
     v_of_rho     :      0.40s CPU      0.41s WALL (      29 calls)
     v_h          :      0.01s CPU      0.01s WALL (      29 calls)
     v_xc         :      0.38s CPU      0.39s WALL (      29 calls)
     mix_rho      :      0.52s CPU      0.54s WALL (      28 calls)

     Called by c_bands:
     init_us_2    :      5.16s CPU      5.26s WALL (    6264 calls)
     cegterg      :    393.18s CPU    396.33s WALL (    3024 calls)

     Called by sum_band:
     sum_band:wei :      0.14s CPU      0.15s WALL (      28 calls)
     sum_band:loo :     43.53s CPU     43.96s WALL (      28 calls)
     sum_band:buf :      0.44s CPU      0.45s WALL (    3024 calls)
     sum_band:ini :      2.49s CPU      2.51s WALL (    3024 calls)

     Called by *egterg:
     cdiaghg      :     52.14s CPU     52.40s WALL (   16790 calls)
     cegterg:over :     21.35s CPU     21.49s WALL (   13766 calls)
     cegterg:upda :     11.32s CPU     11.39s WALL (   13766 calls)
     cegterg:last :     18.62s CPU     18.73s WALL (    6654 calls)
     h_psi        :    279.22s CPU    281.85s WALL (   16898 calls)
     g_psi        :      0.93s CPU      0.94s WALL (   13766 calls)

     Called by h_psi:
     h_psi:calbec :     29.26s CPU     29.46s WALL (   16898 calls)
     vloc_psi     :    208.66s CPU    210.86s WALL (   16898 calls)
     add_vuspsi   :     25.89s CPU     26.03s WALL (   16898 calls)
     vhpsi        :     14.52s CPU     14.61s WALL (   16898 calls)

     General routines
     calbec       :     44.45s CPU     44.77s WALL (   36928 calls)
     fft          :      0.20s CPU      0.21s WALL (     549 calls)
     ffts         :      0.30s CPU      0.31s WALL (     857 calls)
     fftw         :    232.74s CPU    235.18s WALL ( 1271890 calls)
 
     Parallel routines

     Hubbard U routines
     new_ns       :      2.28s CPU      2.34s WALL (      28 calls)
     vhpsi        :     14.52s CPU     14.61s WALL (   16898 calls)
 
     PWSCF        :   7m56.00s CPU   8m 4.36s WALL

 
   This run was terminated on:   6:26:31  19Nov2025            

=------------------------------------------------------------------------------=
   JOB DONE.
=------------------------------------------------------------------------------=
